25
157 100 59
52 53
5 6
20 19
138 139
154 153
11 12
119 120
140 141
87 86
11 10
101 102
135 134
91 92
45 46
12 13
132 6
129 130
35 36
79 78
13 14
60 61
112 111
78 77
48 49
152 151
154 155
23 22
106 105
44 45
27 26
117 116
71 70
61 62
151 150
134 133
66 67
21 20
26 25
55 56
18 19
105 104
128 127
142 143
58 59
1 2
3 57
144 145
69 68
31 30
156 155
97 96
50 49
69 70
62 63
48 47
3 4
131 130
143 144
34 35
150 149
100 101
63 64
9 8
37 36
5 107
42 43
136 135
80 81
2 32
17 18
157 156
147 146
37 38
110 109
118 119
88 89
74 73
67 68
114 115
10 9
30 29
113 112
28 27
60 59
76 75
7 1
125 126
103 104
110 111
153 152
85 84
123 124
24 23
33 34
54 53
121 120
66 65
22 21
33 32
88 87
93 92
137 138
91 90
17 16
146 145
47 46
94 95
57 58
2 3
86 85
90 89
39 38
79 80
125 124
52 51
74 75
116 115
108 109
129 128
64 65
24 25
15 14
126 127
55 54
139 140
40 41
84 83
122 121
94 93
42 41
1 6
51 50
147 148
72 71
102 103
82 4
108 107
44 43
97 98
95 96
72 73
99 100
122 123
4 5
29 28
141 142
40 39
133 132
148 149
83 82
136 137
117 118
98 99
15 16
76 77
8 7
113 114
143 37 76
100 99
119 118
32 33
62 63
62 61
110 111
43 42
127 128
139 140
59 60
94 93
76 75
46 47
41 40
94 95
44 43
22 21
95 96
74 73
23 24
119 120
66 65
6 121
71 70
124 125
72 71
76 77
141 140
114 113
126 125
11 12
35 34
8 7
50 51
20 19
78 79
16 17
96 97
133 132
6 5
100 101
138 139
8 9
55 56
67 66
101 102
36 35
23 22
14 15
3 52
45 44
69 68
130 131
2 1
64 63
12 13
141 142
134 135
1 6
54 53
105 106
83 82
58 57
69 70
117 116
81 82
122 121
90 89
25 24
109 108
37 36
118 117
40 39
98 99
116 115
72 73
134 133
128 129
15 16
31 32
38 39
131 132
89 88
91 90
124 123
68 67
77 78
45 46
88 87
112 113
4 3
10 9
83 84
75 4
21 20
105 104
26 27
13 14
115 114
17 18
136 137
28 27
48 49
107 108
5 98
19 18
57 56
5 4
92 93
42 41
55 54
58 59
79 80
104 103
30 31
138 137
1 7
64 65
49 50
126 127
110 109
25 26
2 3
81 80
102 103
47 48
10 11
61 60
29 2
85 84
143 142
86 87
33 34
53 52
106 107
111 112
122 123
129 130
136 135
86 85
29 30
37 38
92 91
171 106 169
53 52
12 13
82 83
134 135
121 120
48 47
51 52
25 26
79 78
161 162
44 43
109 110
50 51
57 58
119 118
76 77
142 143
18 19
129 128
125 124
44 45
61 62
7 8
120 119
53 54
131 130
15 16
49 50
1 2
165 164
111 112
106 105
72 73
29 28
156 157
47 46
88 87
62 63
126 127
88 89
37 36
97 98
56 57
64 63
33 34
133 132
136 135
150 149
42 41
67 68
66 67
55 56
145 146
58 59
5 4
84 85
86 85
55 54
69 68
102 103
160 161
116 115
95 96
100 101
33 32
94 93
39 40
167 168
77 78
141 142
31 32
10 9
10 11
154 155
106 107
153 152
123 124
99 98
79 80
5 6
14 13
87 86
81 80
91 92
113 112
148 149
145 144
76 75
128 127
166 167
74 75
69 70
130 129
147 146
111 110
140 139
168 169
171 1
151 152
141 140
95 94
138 137
12 11
155 156
83 84
26 27
30 29
66 65
108 109
38 37
38 39
24 23
122 123
90 89
36 35
100 99
104 103
162 163
117 118
105 104
132 131
92 93
24 25
41 40
70 71
45 46
150 151
48 49
64 65
60 61
117 116
2 3
101 102
4 3
59 60
82 81
73 74
122 121
7 6
170 169
18 17
31 30
114 113
108 107
143 144
136 137
21 22
153 154
115 114
34 35
72 71
126 125
97 96
14 15
158 159
9 8
134 133
164 163
22 23
159 160
165 166
17 16
147 148
19 20
28 27
91 90
139 138
158 157
170 171
43 42
21 20
159 21 9
25 26
115 116
84 83
6 5
159 158
98 97
108 109
56 55
7 6
21 22
97 96
87 88
34 33
136 137
158 157
142 141
128 129
29 30
117 116
51 52
144 143
138 139
63 62
126 127
59 60
130 129
68 67
41 40
13 12
47 48
64 65
153 152
156 155
11 12
9 8
156 157
37 38
107 106
16 15
127 128
147 148
78 77
59 58
123 122
26 27
22 23
81 80
93 92
102 103
71 72
11 10
140 141
79 78
16 17
96 95
114 113
68 69
139 140
132 133
36 37
74 73
50 49
119 118
18 17
45 44
111 112
31 30
136 135
8 7
66 65
109 110
13 14
19 20
142 143
2 1
122 121
112 113
145 146
71 70
69 70
120 121
74 75
18 19
76 77
27 28
146 147
85 86
5 4
47 46
54 53
36 35
148 149
100 99
54 55
20 21
28 29
91 90
110 111
144 145
75 76
120 119
87 86
42 41
84 85
51 50
130 131
63 64
3 4
10 9
91 92
62 61
42 43
125 126
31 32
44 43
24 25
89 88
150 151
23 24
35 34
151 152
105 106
60 61
79 80
49 48
46 45
58 57
38 39
52 53
134 135
150 149
81 82
56 57
133 134
115 114
27 159
82 83
90 89
39 40
72 73
107 108
104 105
101 100
124 125
94 95
98 99
15 14
154 155
104 103
117 118
101 102
2 3
67 66
137 138
33 32
153 154
124 123
132 131
93 94
104 19 9
89 90
92 93
16 17
100 101
66 67
9 10
35 34
46 47
8 7
23 24
60 59
50 51
18 19
76 75
87 88
88 89
41 40
29 28
35 36
99 98
43 44
95 94
12 13
27 26
47 48
69 68
33 34
94 93
8 9
20 19
21 20
82 83
36 37
43 42
42 41
91 92
26 25
11 12
73 72
48 49
61 62
63 64
13 14
83 84
33 32
55 54
6 7
10 11
49 50
74 73
60 61
98 97
5 6
39 104
87 86
45 46
32 31
38 39
3 4
3 2
64 65
86 85
66 65
21 22
77 76
52 53
31 30
29 30
14 15
55 56
58 59
51 52
80 79
84 85
18 17
28 27
75 74
5 4
96 97
38 37
39 40
24 25
62 63
57 58
100 99
54 53
103 104
78 79
70 71
81 80
96 95
78 77
56 57
90 91
71 72
103 102
45 44
69 70
67 68
23 22
102 101
81 82
1 2
16 15
128 44 5
9 10
18 19
71 72
59 58
17 16
61 62
43 44
34 33
102 101
68 69
113 114
102 103
98 99
52 51
94 93
78 79
26 25
47 46
119 118
122 121
59 60
96 97
122 123
20 19
45 46
81 82
117 116
50 51
107 108
38 37
87 88
39 40
16 15
112 113
14 13
70 71
11 12
32 33
99 100
81 80
109 108
79 80
61 60
25 24
63 62
41 42
78 77
124 125
31 30
31 32
58 57
8 9
85 86
119 120
64 65
1 128
96 95
73 74
104 105
8 7
101 100
41 40
43 42
56 57
92 93
103 104
2 3
118 117
97 98
66 65
91 92
45 44
68 67
84 85
4 3
50 49
29 30
26 27
90 89
29 28
75 74
39 38
87 86
127 126
54 55
48 47
72 73
22 21
7 6
28 27
18 17
107 106
110 109
54 53
70 69
36 37
14 15
111 110
11 10
127 128
83 82
120 121
84 83
64 63
36 35
2 1
91 90
89 88
115 114
56 55
76 75
12 13
116 115
49 48
53 52
126 125
105 106
23 24
20 21
66 67
35 34
23 22
124 123
94 95
77 76
4 5
5 6
111 112
121 49 39
76 77
64 63
83 84
75 74
115 114
102 103
91 92
46 45
11 10
78 77
107 106
11 12
96 97
36 35
32 33
85 86
105 106
37 38
99 100
110 109
120 121
94 95
34 35
73 74
80 81
89 88
69 70
24 23
8 9
58 59
44 43
87 88
86 87
4 5
99 98
42 41
6 7
70 71
72 73
23 22
26 27
49 50
16 15
3 2
113 114
62 63
66 65
32 31
119 120
1 121
48 49
97 98
7 8
31 30
25 24
13 14
41 40
111 110
101 100
94 93
40 39
17 16
109 108
56 57
105 104
52 51
104 103
55 54
21 20
117 118
52 53
44 45
19 18
83 82
28 27
18 17
10 9
62 61
90 89
60 61
53 54
82 81
111 112
26 25
43 42
84 85
68 67
107 108
2 1
22 21
58 57
93 92
116 115
29 30
33 34
71 72
112 113
37 36
79 80
79 78
14 15
56 55
46 47
19 20
66 67
51 50
47 48
102 101
68 69
116 117
96 95
59 60
39 38
65 64
76 75
91 90
28 29
4 3
5 6
118 119
12 13
128 87 105
40 39
83 84
4 5
57 56
114 113
108 107
117 116
55 56
90 89
5 6
48 47
63 64
75 74
25 24
91 90
112 113
118 117
100 99
21 20
8 7
125 126
37 38
108 109
41 42
97 98
21 22
79 80
37 36
7 6
14 15
63 62
102 103
22 23
98 99
16 15
72 71
35 36
127 126
74 73
82 81
18 17
107 106
71 70
61 60
34 35
20 19
29 30
42 43
85 86
114 115
92 93
3 2
18 19
47 46
17 16
58 57
89 88
54 53
112 111
76 77
72 73
78 77
50 51
39 38
75 76
10 11
68 69
106 105
79 78
92 91
83 82
23 24
111 110
4 3
100 101
66 67
45 46
105 104
116 115
26 25
2 1
54 55
118 119
30 31
50 49
65 66
124 123
31 32
104 103
14 13
70 69
40 41
128 50
122 121
124 125
52 53
49 48
95 94
67 68
44 43
87 86
26 27
123 122
80 81
94 93
61 62
33 32
101 102
97 96
95 96
27 28
13 12
87 88
8 9
60 59
9 10
33 34
52 51
11 12
120 121
45 44
109 110
28 29
59 58
85 84
65 64
120 119
127 128
174 167 24
81 166
50 33
24 53
25 70
64 141
92 69
3 5
139 7
55 23
14 16
143 133
68 164
52 137
114 49
134 71
11 7
12 80
124 117
12 106
6 44
90 63
46 68
150 62
71 6
58 170
75 57
168 23
148 154
110 48
7 10
20 24
63 52
3 52
40 26
43 89
92 131
102 21
21 56
30 113
6 98
146 83
114 127
3 32
4 14
35 25
58 16
3 1
77 45
157 26
17 12
104 10
31 28
93 8
13 2
82 53
53 74
129 70
160 55
118 58
27 36
5 7
19 101
18 135
128 53
30 73
16 69
107 60
26 5
125 138
21 60
46 2
50 99
73 174
6 1
120 121
61 43
114 158
13 34
47 22
8 1
26 67
1 88
4 83
23 22
81 16
86 120
148 92
145 62
132 7
21 43
15 64
62 109
116 72
51 66
18 11
37 41
42 51
47 142
133 152
97 31
68 95
40 59
64 85
39 38
20 10
103 31
140 72
23 94
12 10
151 49
2 62
124 130
48 57
84 24
162 28
36 117
4 19
29 10
108 10
135 153
52 115
38 31
21 15
116 163
96 51
49 172
83 119
134 155
1 15
136 41
159 77
128 147
79 13
167 92
12 49
126 133
12 42
14 30
8 65
3 2
106 171
3 45
12 22
149 5
37 9
91 54
72 56
2 1
103 105
44 100
161 14
25 8
27 87
33 3
48 126
144 78
8 76
165 161
5 9
4 3
98 169
9 111
122 20
101 125
86 28
2 156
48 21
78 69
28 14
173 2
61 112
123 58
27 8
50 54
172 152 52
16 15
5 6
113 112
58 57
140 141
113 114
28 29
26 27
109 108
170 171
66 67
170 169
25 24
94 93
47 48
30 29
137 138
104 103
129 128
121 122
157 156
127 126
45 44
133 132
147 146
59 60
14 13
50 51
19 18
153 152
80 79
83 84
18 17
126 125
102 103
163 162
53 52
20 19
7 1
36 37
90 91
95 96
165 164
38 39
161 162
77 78
117 118
169 168
164 163
35 34
63 64
62 63
161 160
158 159
125 124
99 100
48 49
77 76
79 78
82 83
65 64
65 66
13 12
124 123
153 154
160 159
42 41
71 70
9 8
123 122
148 147
73 74
28 27
108 107
101 100
51 52
25 26
142 143
140 139
43 42
20 21
155 156
34 2
39 40
94 95
150 149
90 89
3 2
46 47
70 69
76 75
1 6
105 106
166 167
127 128
119 120
54 53
4 89
72 73
15 14
46 45
57 56
129 130
114 115
32 31
81 80
31 30
8 7
133 134
40 41
102 101
44 43
139 138
99 98
115 116
171 172
75 74
4 3
168 167
98 97
71 72
2 1
137 136
151 150
16 17
96 97
141 142
38 37
149 148
68 67
146 145
131 130
111 110
5 117
87 86
93 92
155 154
91 92
110 109
58 59
62 61
87 88
10 11
120 121
4 5
112 111
119 118
81 82
85 84
56 55
158 157
3 61
86 85
69 68
135 136
106 107
54 55
22 23
35 36
134 135
32 33
21 22
6 145
10 9
24 23
166 165
144 143
49 50
104 105
151 152
131 132
12 11
103 61 4
52 51
102 101
64 65
76 77
37 36
35 34
79 78
85 84
95 96
67 66
14 15
41 42
80 79
39 40
28 27
93 92
83 82
26 27
11 10
74 73
56 55
4 3
98 97
9 10
31 30
90 89
54 55
8 9
96 97
43 42
91 92
12 11
101 100
53 52
53 54
1 103
14 13
17 16
44 45
7 8
90 91
68 67
73 72
40 41
50 49
103 102
5 4
81 80
20 19
48 49
94 93
32 33
7 6
64 63
28 29
86 87
23 22
21 22
18 19
50 51
86 85
88 87
38 37
59 58
72 71
44 43
69 68
39 38
99 98
94 95
60 59
3 2
69 70
21 20
57 58
13 12
71 70
75 74
65 66
33 34
99 100
61 60
32 31
6 5
45 46
18 17
83 84
88 89
15 16
25 26
36 35
61 62
76 75
24 25
47 46
62 63
47 48
56 57
1 2
30 29
24 23
82 81
77 78
124 91 97
50 49
93 94
40 39
57 56
68 67
17 16
17 18
65 66
52 53
86 87
14 15
58 57
3 2
71 70
45 46
37 38
75 74
102 101
90 89
21 20
8 7
74 73
70 69
41 42
11 12
26 27
73 72
107 108
63 64
39 38
88 87
43 42
28 29
99 100
80 81
78 77
121 120
59 58
31 30
26 25
75 76
85 84
10 11
37 36
13 14
2 1
107 106
19 20
97 96
64 65
97 98
122 121
79 80
45 44
56 55
23 24
112 113
122 123
104 103
119 120
81 82
92 93
8 9
40 41
52 51
110 111
66 67
89 88
110 109
55 54
124 123
105 106
4 3
35 36
61 62
4 5
47 48
90 91
16 15
21 22
6 5
119 118
34 33
92 91
32 33
69 68
27 28
62 63
76 77
115 114
117 118
23 22
19 18
105 104
101 100
96 95
61 60
29 30
35 34
53 54
44 43
114 113
1 124
117 116
7 6
83 84
79 78
111 112
31 32
13 12
25 24
60 59
86 85
50 51
102 103
115 116
99 98
82 83
48 49
72 71
9 10
46 47
109 108
94 95
104 25 97
74 1
1 4
1 97
1 26
28 1
1 34
1 7
65 1
1 11
1 99
1 103
1 89
1 69
1 52
1 75
104 1
25 1
1 31
1 8
1 41
2 1
76 1
53 1
12 1
33 1
1 21
1 58
1 70
1 38
92 1
93 1
1 78
1 68
1 90
1 59
54 1
95 1
1 39
1 101
102 1
1 51
1 48
22 1
1 87
71 1
98 1
1 60
17 1
1 84
1 86
1 10
1 73
29 1
1 20
1 100
1 80
1 72
1 57
40 1
27 1
18 1
19 1
1 47
42 1
66 1
63 1
50 1
1 45
82 1
85 1
37 1
62 1
1 24
77 1
3 4
1 88
1 79
3 2
9 1
1 94
15 1
1 96
1 16
1 81
49 1
91 1
1 44
55 1
1 32
1 56
5 1
1 43
46 1
67 1
1 61
14 1
1 13
1 36
1 23
1 35
1 6
1 83
1 64
1 30
185 34 12
58 59
92 91
169 170
119 120
97 96
81 80
68 67
77 78
184 183
165 166
12 11
74 73
150 149
40 41
107 106
181 180
172 173
130 131
117 116
42 43
91 90
154 155
124 125
109 108
62 61
163 162
90 89
115 116
16 17
13 12
45 46
179 178
159 158
175 176
105 106
123 122
18 19
86 87
87 88
109 110
72 71
167 168
10 11
4 3
141 142
100 99
147 148
105 104
137 136
123 124
160 161
156 6
169 168
152 151
50 51
63 62
77 76
130 129
137 138
32 31
182 183
8 9
83 84
176 177
88 89
79 80
126 5
5 6
55 54
49 50
3 66
145 144
118 119
163 164
1 7
33 34
44 43
185 184
148 149
150 151
104 103
159 160
85 84
82 81
39 38
70 71
56 57
72 73
131 132
138 139
4 5
67 66
41 42
127 126
57 58
128 127
75 76
55 56
82 83
180 179
157 156
114 115
24 25
97 98
143 144
14 13
182 181
153 152
94 93
170 171
28 29
140 141
51 52
60 61
129 128
7 8
112 111
35 34
63 64
157 158
54 53
9 10
46 47
68 69
6 1
113 114
49 48
47 48
85 86
98 99
44 45
164 165
65 64
32 33
75 74
107 108
175 174
40 39
117 118
18 17
26 25
20 19
101 102
133 132
135 136
146 147
101 100
121 120
1 2
174 173
178 177
134 135
21 20
27 28
15 16
79 78
70 69
111 110
24 23
95 94
102 103
142 143
162 161
4 96
30 29
52 53
166 167
3 2
27 26
59 60
153 154
146 145
112 113
23 22
139 140
21 22
93 92
171 172
36 37
122 121
37 38
36 2
133 134
30 31
15 14
132 25 39
61 60
132 131
130 131
59 60
5 91
90 89
20 19
32 31
16 15
81 82
37 38
43 42
102 103
36 37
97 98
50 51
110 109
126 125
108 109
118 117
34 33
31 30
28 29
4 3
68 67
53 52
85 86
3 49
84 85
56 57
55 56
8 7
112 6
65 66
118 119
63 62
100 99
129 128
112 113
43 44
13 12
102 101
39 40
58 57
55 54
94 93
47 48
39 38
22 23
72 73
89 88
20 21
4 5
41 42
63 64
18 17
14 13
65 64
125 124
2 3
41 40
126 127
107 106
111 110
79 78
95 96
105 104
101 100
35 34
2 1
54 53
47 46
9 8
96 97
7 1
77 78
80 81
116 115
91 92
87 88
6 5
67 66
122 121
23 24
79 80
11 10
75 74
108 107
35 36
70 4
93 92
9 10
124 123
12 11
69 68
98 99
114 115
75 76
71 72
114 113
52 51
50 49
18 19
127 128
119 120
1 6
44 45
106 105
26 27
130 129
116 117
82 83
24 25
46 45
30 29
2 28
120 121
16 17
87 86
70 71
94 95
122 123
103 104
61 62
21 22
74 73
33 32
26 25
14 15
83 84
59 58
77 76
180 71 53
41 1
1 21
1 138
175 1
1 62
1 60
59 1
125 1
147 1
1 111
1 53
127 1
146 1
1 103
25 1
1 9
1 94
161 1
1 169
1 168
3 2
47 1
1 133
26 1
90 1
1 142
42 1
1 152
1 78
104 1
48 1
1 96
164 1
1 80
1 128
176 1
72 1
1 85
119 1
1 11
66 1
1 10
1 110
88 1
1 68
150 1
86 1
1 18
180 1
74 1
6 1
1 139
173 1
1 123
61 1
1 108
1 124
13 1
1 159
1 93
50 1
141 1
177 1
166 1
98 1
69 1
1 8
24 1
31 1
171 1
1 140
28 1
1 97
15 1
1 75
155 1
84 1
1 174
71 1
1 151
19 1
92 1
91 1
1 178
172 1
1 114
1 112
1 170
54 1
1 102
1 55
87 1
145 1
1 132
122 1
43 1
1 12
63 1
58 1
1 148
101 1
137 1
1 99
158 1
1 121
1 156
116 1
1 22
1 44
129 1
1 154
109 1
1 30
7 1
1 32
1 131
35 1
1 81
1 4
153 1
38 1
1 149
1 167
160 1
39 1
1 113
1 135
1 106
1 105
1 52
1 23
1 117
157 1
37 1
79 1
118 1
1 82
1 27
89 1
1 179
17 1
5 1
1 33
14 1
1 46
143 1
1 163
65 1
2 1
1 57
1 136
29 1
95 1
120 1
1 126
1 20
1 45
3 1
1 144
73 1
1 162
1 134
77 1
1 70
1 76
1 40
1 49
64 1
1 51
1 165
67 1
1 130
100 1
56 1
36 1
107 1
83 1
1 115
1 16
34 1
144 67 89
2 3
69 64
7 1
32 81
43 46
84 121
48 102
38 75
43 4
11 4
54 115
116 62
136 13
14 15
8 19
58 38
1 2
15 113
20 8
139 123
74 72
78 134
11 12
132 81
3 107
35 13
6 3
3 1
2 24
46 103
22 89
47 16
55 67
2 9
70 33
109 74
22 111
9 114
17 72
50 46
83 31
76 19
84 66
144 117
77 63
122 121
55 57
2 13
11 62
4 21
53 79
95 79
44 41
42 73
31 3
2 5
57 66
33 20
13 25
137 113
34 37
26 125
23 65
92 46
47 71
21 88
114 126
24 131
78 32
100 82
4 22
42 7
35 40
135 132
123 69
9 64
79 80
67 68
4 128
35 96
143 127
63 26
25 34
1 8
12 48
118 94
3 10
52 43
98 83
130 93
55 48
26 23
1 4
24 117
24 41
87 86
16 90
12 39
5 27
3 17
102 141
119 12
38 9
58 86
60 142
82 8
2 14
53 21
30 17
140 132
5 16
39 91
109 112
28 3
20 23
56 26
32 29
15 29
23 45
85 34
129 35
91 104
29 97
59 21
16 51
42 60
101 85
110 8
36 15
18 16
120 58
54 4
105 73
25 93
94 10
49 2
106 14
99 45
124 78
6 61
138 34
32 133
92 127
108 76
119 106 55
65 64
7 1
93 92
21 22
29 28
18 19
59 60
94 93
79 78
105 104
97 98
89 90
113 112
85 84
117 116
4 5
54 55
118 119
56 57
45 44
41 40
23 22
77 78
38 37
42 41
111 112
26 27
9 8
62 61
113 114
49 50
29 30
27 28
61 60
106 107
65 66
13 14
4 63
82 83
39 38
100 99
102 101
2 3
86 85
3 4
75 74
108 109
96 95
51 50
104 103
87 88
76 75
53 54
52 53
59 58
3 44
45 46
32 33
46 47
48 47
20 19
17 18
43 42
37 36
99 98
70 71
72 73
10 9
82 5
64 63
32 31
48 49
114 115
67 66
2 25
16 15
5 6
110 111
68 69
116 115
89 88
83 84
39 40
15 14
97 96
76 77
94 95
1 2
92 91
58 57
51 52
68 67
36 35
90 91
1 6
6 101
34 35
33 34
118 117
110 109
74 73
16 17
31 30
8 7
12 13
79 80
72 71
87 86
11 10
102 103
21 20
108 107
81 80
25 26
23 24
106 105
55 56
70 69
11 12
145 74 94
91 90
113 112
31 30
133 132
23 22
100 101
34 35
111 112
127 126
93 94
86 87
116 115
78 77
119 120
110 111
99 100
92 93
109 108
127 128
4 3
72 71
101 102
63 64
96 95
9 8
16 15
56 55
126 125
129 130
3 2
91 92
31 32
18 19
133 134
50 49
1 145
124 125
107 106
42 43
105 106
25 24
86 85
61 60
59 58
47 48
145 144
114 113
21 22
138 137
66 65
75 76
5 6
11 12
28 27
114 115
132 131
74 73
17 18
84 83
51 50
139 140
117 118
25 26
33 32
37 38
40 39
54 55
89 90
41 40
121 122
105 104
134 135
123 124
73 72
20 21
49 48
139 138
102 103
30 29
20 19
141 142
67 66
144 143
71 70
56 57
13 14
53 54
67 68
103 104
108 107
69 68
123 122
11 10
83 82
141 140
98 97
24 23
118 119
6 7
84 85
137 136
34 33
96 97
44 43
2 1
41 42
142 143
75 74
77 76
52 51
17 16
15 14
47 46
128 129
61 62
59 60
81 82
95 94
89 88
57 58
80 79
80 81
39 38
98 99
10 9
7 8
69 70
4 5
116 117
46 45
29 28
13 12
135 136
131 130
27 26
109 110
120 121
88 87
65 64
36 37
62 63
52 53
44 45
35 36
78 79
131 6 76
27 26
101 100
87 86
17 16
42 41
7 8
10 9
27 28
69 68
65 64
39 40
75 76
16 15
35 36
47 46
47 48
2 1
79 78
116 117
108 107
96 95
94 95
113 114
118 119
104 105
117 118
28 29
44 45
5 6
129 130
67 66
51 52
51 50
21 20
42 43
106 107
19 20
41 40
64 63
53 52
81 82
22 21
31 32
90 89
17 18
73 74
119 120
68 67
12 11
13 12
46 45
63 62
122 123
49 48
98 99
50 49
25 24
2 3
56 57
29 30
58 59
22 23
79 80
126 125
9 8
86 85
76 77
93 92
57 58
71 70
23 24
75 74
54 53
56 55
3 4
19 18
78 77
30 31
38 37
33 34
14 15
110 109
6 7
13 14
102 101
54 55
60 59
39 38
69 70
60 61
83 84
80 81
71 72
111 112
26 25
4 5
72 73
93 94
126 127
109 108
131 130
122 121
106 105
96 97
66 65
97 98
120 121
89 88
102 103
82 83
111 110
11 10
88 87
115 116
91 92
127 128
100 99
128 129
91 90
34 35
62 61
37 36
59 131
124 123
32 33
43 44
114 115
112 113
85 84
124 125
104 103
144 12 19
130 131
57 58
104 103
27 26
91 90
137 138
122 121
4 5
64 65
110 111
7 6
99 100
104 105
52 51
83 84
59 58
128 127
61 60
8 9
102 101
144 1
137 136
12 11
35 36
142 143
32 33
116 115
113 114
24 25
113 112
125 124
55 54
95 94
91 92
128 129
119 120
108 107
85 84
77 78
22 21
81 82
81 80
135 136
68 69
6 5
35 34
90 89
69 70
31 30
74 73
25 26
27 28
7 8
43 42
125 126
18 17
110 109
45 46
14 15
97 96
33 34
38 39
56 55
19 18
28 29
106 107
48 49
42 41
44 45
139 140
131 132
71 72
20 21
99 98
88 87
92 93
140 141
62 61
117 116
74 75
123 124
17 16
49 50
1 2
29 30
71 70
98 97
9 10
87 86
2 3
121 120
24 23
79 80
65 66
86 85
77 76
66 67
22 23
50 51
119 118
32 31
41 40
53 52
95 96
20 19
134 135
54 53
130 129
75 76
117 118
142 141
64 63
101 100
67 68
134 133
126 127
40 39
144 143
12 13
139 138
83 82
11 10
106 105
109 108
43 44
14 13
36 37
88 89
59 60
16 15
123 122
111 112
47 46
48 47
78 79
72 73
114 115
62 63
132 133
94 93
102 103
38 37
4 3
56 57
159 142 98
80 1
1 106
1 47
151 1
1 50
28 1
100 1
1 73
44 1
1 63
120 1
90 1
43 1
134 1
1 61
18 1
1 119
1 51
1 92
1 74
1 40
1 33
117 1
30 1
143 1
109 1
1 127
1 56
1 87
153 1
1 78
97 1
1 157
1 34
2 3
154 1
148 1
70 1
5 1
36 1
1 23
71 1
1 89
7 1
69 1
1 42
1 128
140 1
39 1
1 129
158 1
1 2
1 82
17 1
1 14
1 52
1 152
1 55
137 1
1 72
1 6
144 1
107 1
1 31
1 93
149 1
1 53
29 1
32 1
96 1
1 65
1 86
104 1
142 1
54 1
1 130
1 133
64 1
139 1
135 1
115 1
81 1
1 102
35 1
1 45
1 77
8 1
68 1
1 156
147 1
1 48
1 101
98 1
1 146
1 58
1 122
15 1
1 85
1 95
66 1
1 49
1 21
94 1
88 1
59 1
10 1
1 150
1 145
9 1
1 136
1 103
1 113
76 1
11 1
84 1
1 124
1 79
57 1
91 1
125 1
22 1
1 37
155 1
60 1
114 1
1 126
1 99
1 16
67 1
25 1
13 1
1 131
1 19
1 108
1 123
111 1
1 159
1 118
1 62
27 1
1 116
41 1
75 1
138 1
38 1
46 1
1 105
112 1
12 1
1 4
110 1
121 1
3 1
141 1
1 20
1 83
132 1
1 26
1 24
113 22 65
55 56
66 65
90 89
92 93
88 87
1 6
16 15
57 58
32 33
91 92
7 1
13 12
74 75
58 59
42 3
76 75
71 72
71 70
82 81
29 30
20 19
23 22
110 111
18 19
3 4
112 111
14 15
39 38
98 97
1 2
79 80
94 95
68 67
64 63
6 96
46 47
45 46
68 69
25 24
61 62
87 86
28 29
81 80
30 31
101 100
57 56
40 41
31 32
94 93
26 25
14 13
88 89
52 51
8 9
21 20
78 79
66 67
55 54
90 91
28 27
83 84
37 36
12 11
96 97
8 7
4 5
85 86
107 106
105 106
9 10
100 99
18 17
47 48
113 112
11 10
5 78
3 2
104 103
74 73
69 70
44 45
64 65
52 53
40 39
99 98
16 17
108 109
35 36
2 24
49 50
22 21
84 85
43 42
82 83
6 5
34 33
76 77
73 72
62 63
110 109
26 27
44 43
108 107
37 38
50 51
102 103
61 60
34 35
105 104
60 4
48 49
101 102
53 54
107 103 79
50 1
1 43
1 22
33 1
90 1
1 97
37 1
16 1
1 92
17 1
89 1
1 68
53 1
1 12
91 1
1 107
1 34
98 1
104 1
6 1
2 3
1 39
1 27
1 38
1 29
64 1
81 1
1 77
8 1
67 1
72 1
1 62
1 76
71 1
1 85
95 1
4 5
52 1
32 1
1 70
1 40
30 1
24 1
1 65
1 61
1 78
59 1
1 60
105 1
1 58
1 69
1 19
9 1
1 15
75 1
1 18
1 5
1 13
82 1
66 1
41 1
1 102
94 1
46 1
1 11
1 56
1 84
1 48
103 1
83 1
86 1
1 49
7 1
44 1
1 14
1 55
1 101
31 1
45 1
1 28
1 106
1 25
80 1
1 100
57 1
1 26
1 10
21 1
99 1
1 20
1 23
63 1
36 1
93 1
87 1
1 47
1 54
2 1
96 1
51 1
1 73
42 1
1 35
3 4
74 1
1 79
1 88
144 42 29
61 60
33 34
32 31
22 21
28 27
2 1
71 72
84 83
103 104
13 12
19 18
4 76
101 100
124 123
23 24
63 62
53 54
107 108
57 58
111 110
93 92
98 97
120 119
116 117
64 63
49 48
35 36
100 99
116 115
3 2
9 8
139 140
126 125
42 41
143 144
115 114
37 38
83 82
129 128
91 90
130 131
8 7
4 3
137 136
112 113
44 43
75 74
137 138
123 122
6 5
96 95
58 59
37 36
118 119
102 103
97 96
86 85
77 76
122 6
135 134
85 84
127 126
57 56
70 71
81 82
141 142
49 50
67 66
43 42
66 65
80 81
138 139
142 143
135 136
28 29
27 26
125 124
17 16
131 132
127 128
24 25
65 64
10 11
40 41
1 7
46 47
53 3
104 105
55 54
18 17
68 69
68 67
79 80
62 61
10 9
31 30
14 15
117 118
20 21
77 78
55 56
4 5
22 23
45 46
51 50
48 47
32 33
111 112
1 6
60 59
121 120
94 95
15 16
5 99
89 88
51 52
140 141
45 44
87 88
92 91
106 107
12 11
14 13
113 114
86 87
109 108
2 30
69 70
39 40
94 93
133 134
20 19
34 35
78 79
90 89
102 101
74 73
38 39
105 106
110 109
132 133
72 73
26 25
130 129
