30
1283 145 4
1079 1
1 718
1 1195
976 1
1 687
191 1
1 111
1 995
1 904
239 1
1206 1
1 1029
452 1
1 1218
1 1188
1 1192
834 1
1 980
1 342
1024 1
1 497
1 1003
596 1
408 1
1 69
944 1
1 94
455 1
1220 1
1 802
256 1
1010 1
391 1
1 1084
538 1
736 1
1 960
1215 1
1077 1
1 243
1 932
1202 1
653 1
1 87
1 75
1 700
1 542
1 312
294 1
1197 1
860 1
157 1
158 1
1 602
1 943
726 1
1 181
362 1
1 65
1 320
537 1
1 559
1 269
785 1
48 1
1 1092
1 617
368 1
1 34
1 889
1 608
451 1
719 1
1 293
103 1
1 769
1 948
729 1
1 489
1 104
83 1
49 1
170 1
346 1
218 1
200 1
1169 1
1 38
1 642
1 213
919 1
986 1
1 987
1114 1
1 1196
132 1
1051 1
428 1
864 1
131 1
73 1
120 1
1 19
1066 1
81 1
1080 1
45 1
1 777
1 839
1 1178
1063 1
738 1
100 1
1 1253
76 1
1282 1
1 525
115 1
1 766
1277 1
1 867
1 1020
214 1
1 996
945 1
1 908
1 739
831 1
2 1
332 1
353 1
39 1
169 1
1 411
685 1
1 493
443 1
201 1
615 1
1 650
1 423
1 1117
1 458
1 492
1 282
1022 1
1 390
628 1
92 1
1 579
818 1
1 979
1 327
1 882
1 872
1 747
1049 1
1 224
599 1
1 630
389 1
953 1
825 1
895 1
1 1251
1 971
724 1
1 1260
474 1
1 1199
1 811
1 216
713 1
330 1
1 1212
42 1
1 135
627 1
359 1
1 1171
1278 1
1 1225
1 51
671 1
1 553
861 1
1 276
17 1
1 955
345 1
4 3
1082 1
1 706
91 1
289 1
1 110
1110 1
1 16
1 896
1 306
1264 1
57 1
1 1093
1 531
1 678
1 340
126 1
1 887
962 1
702 1
1 292
1 759
277 1
977 1
1 1073
519 1
909 1
1 578
1 771
1 186
1028 1
143 1
1 512
569 1
1042 1
1 498
756 1
1 1203
819 1
1027 1
991 1
470 1
373 1
413 1
964 1
1 1268
427 1
1 614
235 1
1 911
1 1269
1 1240
1 515
1 792
796 1
803 1
495 1
183 1
1 72
1 776
1025 1
1 632
1245 1
212 1
1 1039
1018 1
506 1
952 1
1 1219
1 1128
273 1
1 412
1 145
661 1
1 511
1 297
1 1132
116 1
712 1
23 1
1 1072
663 1
146 1
1 1005
1 341
717 1
1 985
351 1
1 613
1 836
1 1181
6 1
508 1
1 1261
1 113
219 1
1 11
1 475
1 377
1239 1
778 1
890 1
66 1
1 794
1 1200
633 1
1 1011
1 603
1 159
1 1186
95 1
9 1
1 404
1 598
142 1
1 1262
1 1091
1 449
1136 1
974 1
1 1123
1 227
1 1280
910 1
1152 1
1 584
1 727
813 1
1 600
180 1
1 844
1 241
1 814
196 1
1 665
1 442
1 270
808 1
464 1
1 560
1 77
1 139
304 1
1 1013
746 1
1 1248
1 681
1 876
67 1
1 382
263 1
1 307
709 1
1 1153
380 1
1168 1
1 673
1 1062
1 637
356 1
1 1226
1 931
770 1
1 301
1272 1
591 1
576 1
165 1
1 994
1 258
1 358
1 403
1 378
86 1
1 798
1180 1
446 1
318 1
1 686
1 274
291 1
1 114
1 1175
272 1
1255 1
1 125
1 1002
1 151
1 134
1 1081
679 1
1 280
1 774
1 398
488 1
1 448
242 1
1 303
1 230
176 1
473 1
918 1
1 635
47 1
1 680
639 1
1000 1
939 1
1 789
1 504
1 522
25 1
248 1
716 1
1249 1
1 573
1 486
1 1217
859 1
575 1
605 1
697 1
1 967
1 621
1 366
735 1
22 1
1 693
970 1
1 1224
1149 1
1 556
1033 1
568 1
862 1
561 1
1 460
1 476
228 1
763 1
1 1176
1 339
41 1
1 439
1 871
1 37
1 851
1 1100
1 1151
812 1
1 409
1 254
1162 1
1 921
502 1
1 677
333 1
144 1
646 1
654 1
1141 1
189 1
21 1
1 363
1 869
1 634
1 880
923 1
1 1134
773 1
946 1
1273 1
1 705
1 283
1016 1
670 1
35 1
1 384
1 848
1 223
849 1
1 1059
1 751
133 1
352 1
1157 1
14 1
1 313
897 1
261 1
262 1
1 551
816 1
1 1281
18 1
1 1238
1 1106
432 1
877 1
857 1
1234 1
1 314
920 1
1101 1
1 969
914 1
1 1232
744 1
1 984
990 1
567 1
1 1058
1 1043
331 1
1 109
701 1
1 870
847 1
1 418
1 695
743 1
481 1
622 1
466 1
1 328
1 589
405 1
612 1
1 232
1205 1
1 329
1 355
56 1
1211 1
1 668
1 326
437 1
490 1
875 1
1 1061
1 247
570 1
793 1
1 595
1 1164
842 1
1 564
46 1
1 96
166 1
305 1
1 1143
1 24
1 1148
1 822
886 1
128 1
499 1
1026 1
748 1
1 64
252 1
731 1
893 1
265 1
1 299
1 90
1 594
1 1103
164 1
1190 1
1 753
1 620
220 1
1 245
1 376
1 148
1 317
1 916
1 1184
1 790
1 97
732 1
415 1
195 1
571 1
1 1109
407 1
1 888
1 1172
1 514
89 1
1 801
1 324
1 917
761 1
43 1
310 1
1 450
281 1
1 137
1 10
1 107
387 1
1 343
1047 1
1 1086
1 997
1 119
61 1
1 674
360 1
1 62
1 1057
1055 1
1 760
1 521
1 983
1 365
863 1
795 1
140 1
1 699
1 1036
1 1041
786 1
1 810
1 509
1 123
725 1
534 1
1 1030
211 1
1 690
1 207
1 881
1 1067
906 1
1 629
1 757
1 714
1138 1
1 898
935 1
1 1274
1 900
1 1189
496 1
1 1045
1223 1
1 1179
501 1
396 1
1 55
546 1
477 1
1 287
1 479
1 715
1 582
1 388
1 52
1 1154
1 478
1 783
117 1
1 544
951 1
1 658
1271 1
1 624
1 930
338 1
1 74
1 1231
883 1
467 1
1 840
767 1
1 982
1237 1
1 1147
675 1
1 787
298 1
1 246
197 1
1 885
874 1
268 1
1 535
1 469
465 1
160 1
1 574
563 1
1 659
53 1
1 1135
1 102
1 275
1 1034
1 222
434 1
988 1
1 669
1 1142
1 1210
259 1
1 236
526 1
1 865
762 1
1102 1
1 385
425 1
1 179
1 623
393 1
1 829
1112 1
772 1
1 85
804 1
1 174
809 1
1 300
1 626
1 334
1 60
1 441
1257 1
1 676
1243 1
821 1
370 1
543 1
1 1088
79 1
1 456
1 1048
1 210
1 722
278 1
193 1
1 934
1 1015
1 187
625 1
824 1
1161 1
1 295
1 922
1 1122
309 1
866 1
1 1017
1 215
203 1
1032 1
1 562
1 1121
70 1
1 878
1090 1
177 1
1 805
1 968
1 956
1 1146
440 1
1177 1
1 708
1 175
84 1
828 1
1 271
1 178
1 1183
1 1130
190 1
540 1
1 1129
1170 1
124 1
399 1
1099 1
1 852
1 485
1 1069
558 1
1 845
1 529
350 1
1 518
1 833
925 1
1 899
1 694
31 1
1 406
138 1
1 122
1 118
1 1230
1 302
155 1
858 1
1 1144
1046 1
348 1
1070 1
1 284
99 1
1 978
483 1
1 572
1094 1
1 1007
1 643
1 799
1 319
703 1
1156 1
1 1236
1 316
374 1
414 1
532 1
28 1
5 6
1 381
1 981
1 879
444 1
1 459
800 1
1 44
1037 1
765 1
1 611
457 1
638 1
1 641
1 1120
336 1
779 1
1242 1
1263 1
1214 1
545 1
1 696
462 1
1 577
1075 1
728 1
581 1
172 1
1019 1
419 1
942 1
1221 1
1 108
1 520
1198 1
1276 1
1 856
1105 1
1 58
308 1
631 1
1115 1
616 1
733 1
1054 1
723 1
1076 1
395 1
1 321
209 1
171 1
257 1
106 1
1 507
1 1139
1 1246
1 1233
730 1
354 1
500 1
1 63
775 1
1 401
1 420
1 1207
1 933
1085 1
1053 1
1044 1
1 357
901 1
1 255
1252 1
13 1
1 580
1 1108
707 1
505 1
1133 1
820 1
1 379
1 791
130 1
1 1163
1 397
1 226
1 815
1 163
1145 1
1 1191
1 692
1 147
1 127
1 1083
1006 1
1 1087
12 1
1 156
4 5
891 1
1 1235
1 233
1 950
609 1
884 1
1 402
1 394
1 1068
1150 1
1 913
1 426
98 1
1118 1
1 463
1 71
311 1
892 1
1 454
683 1
1 854
1 286
1 198
1254 1
152 1
1 453
267 1
586 1
640 1
1001 1
523 1
1140 1
1096 1
1 1265
698 1
961 1
1095 1
153 1
657 1
1 494
1 1124
1 1009
205 1
827 1
989 1
1185 1
781 1
237 1
510 1
1 59
1 1208
93 1
1 592
1228 1
80 1
1 249
367 1
1 447
1113 1
1173 1
649 1
902 1
480 1
1 238
1 436
1 1241
1 202
817 1
1 445
938 1
1 843
421 1
1 50
1 993
1 954
588 1
1 1127
290 1
1 112
1 1155
1008 1
1 266
1204 1
438 1
416 1
912 1
1 1126
217 1
1 1247
1 335
1 807
972 1
565 1
1012 1
1 288
1 550
264 1
1 651
1 915
1104 1
998 1
240 1
33 1
1 482
587 1
1 841
251 1
1 749
533 1
672 1
937 1
1 619
184 1
344 1
755 1
999 1
1 590
1 185
1 206
1 1107
1 894
1 606
1 806
601 1
296 1
1 1250
337 1
1 868
1 1040
1 1266
618 1
1064 1
1 1050
516 1
936 1
737 1
941 1
1283 1
162 1
585 1
1 704
1244 1
1 1035
1 688
1 150
1 782
1 40
528 1
1 1256
161 1
78 1
666 1
645 1
846 1
660 1
1 1023
1 167
20 1
1 1222
1116 1
1 1201
1 192
1 182
1167 1
689 1
597 1
1158 1
1 1078
905 1
607 1
1 372
1 149
1 471
742 1
835 1
524 1
734 1
1 29
1 1275
1 963
907 1
1 347
752 1
1 604
26 1
1209 1
88 1
1 1097
1 244
54 1
1 1194
1 966
129 1
1229 1
1 1216
927 1
667 1
1 30
826 1
1 648
949 1
1 105
832 1
1 721
554 1
1 1052
1 322
655 1
1 435
1 926
652 1
1 682
1 253
1137 1
1 740
1 8
928 1
1 957
1 741
27 1
369 1
549 1
644 1
1 371
400 1
1 1174
1 279
1 1071
154 1
1 1213
1 417
204 1
1 548
136 1
1 1056
636 1
1 593
1 32
1 491
1 349
711 1
1 82
430 1
234 1
1 431
221 1
838 1
1 422
830 1
503 1
472 1
1 853
194 1
1 975
662 1
1 992
664 1
1089 1
1 1279
1 684
1 1227
1 7
231 1
323 1
1 101
361 1
1 940
1 583
141 1
758 1
173 1
973 1
121 1
1 1098
557 1
1031 1
1160 1
3 2
1 392
1 36
1014 1
1 517
780 1
1 610
1 924
873 1
750 1
1 784
188 1
1 530
1038 1
1182 1
788 1
947 1
229 1
168 1
720 1
68 1
1 647
1 364
1 424
315 1
1 199
823 1
536 1
1 1111
1021 1
764 1
1166 1
1258 1
1 552
958 1
1 710
1 1187
1259 1
754 1
429 1
1 566
250 1
527 1
1 513
1 1193
433 1
1 691
1 410
1125 1
1 768
1 547
1 656
484 1
386 1
959 1
461 1
929 1
1 487
383 1
1119 1
1 855
1060 1
1 1004
325 1
1131 1
1 1165
1 285
208 1
1 468
1159 1
1065 1
1 225
1 15
1074 1
1 903
260 1
1270 1
1267 1
1 745
375 1
1 797
541 1
1 539
837 1
850 1
1 965
1 555
1721 361 3
1 1301
1586 1
1697 1
173 1
1 1659
1 1117
1075 1
1 215
1 193
1 1637
1 995
615 1
1623 1
1469 1
1 1325
1 1721
248 1
187 1
457 1
532 1
1120 1
1 817
1 1561
476 1
1 944
534 1
1066 1
78 1
160 1
1 1137
1 1290
1 118
906 1
1 790
190 1
1 972
1 1156
1 854
198 1
1 1534
1350 1
1362 1
1 22
908 1
1 607
1 110
1658 1
1011 1
797 1
1 883
1406 1
1 1616
1 1704
871 1
1 968
474 1
1522 1
1 1047
223 1
1499 1
1 785
786 1
1 1636
1 399
1197 1
1 680
1257 1
1 1238
1 388
9 1
1 333
1 1250
1 829
778 1
1 810
1 594
1 753
1564 1
134 1
639 1
1217 1
856 1
1346 1
1543 1
1545 1
1246 1
1468 1
762 1
1 321
866 1
1480 1
1488 1
1 1329
1 955
1 137
1 781
53 1
1 1441
1 205
454 1
1059 1
1 1386
1 1003
729 1
1 732
1 363
1060 1
1 1448
483 1
1 1713
1 275
1591 1
70 1
1 242
1 622
1 367
18 1
971 1
1 165
1330 1
1393 1
925 1
1 28
1 1185
1 1559
1634 1
1 624
760 1
1 963
1 1155
1 1600
1 1608
678 1
1 662
2 3
1 1390
1582 1
210 1
761 1
820 1
1 151
1326 1
1689 1
1 1321
1 111
1 186
371 1
302 1
1 37
1 407
535 1
1557 1
1 1688
1 1482
1605 1
1486 1
1 1531
911 1
1 1397
1 1152
1 1056
1 1553
1542 1
241 1
1 1581
397 1
1231 1
1 375
1 389
1 320
1 1026
1 1322
1 1336
1 270
1 1069
1 1650
1664 1
1080 1
131 1
1656 1
1 435
1 68
1 954
1574 1
170 1
1 95
372 1
1 1317
183 1
1 1164
1261 1
1 46
1502 1
1 926
1 11
1715 1
1 332
1535 1
1 159
919 1
527 1
563 1
1136 1
1 646
499 1
1167 1
1 1264
635 1
1 571
432 1
1466 1
1253 1
1 292
989 1
1498 1
1 1424
1 1619
1 1110
1 542
1343 1
1 1556
1 1044
287 1
1407 1
1041 1
1 961
1271 1
1 604
1306 1
658 1
1 659
484 1
889 1
815 1
475 1
891 1
1 1088
645 1
1 148
1355 1
181 1
245 1
1 1076
480 1
113 1
1 1209
262 1
109 1
714 1
1639 1
1 306
1 1308
1 280
1455 1
1 147
1 684
1 200
1 813
409 1
122 1
509 1
1 1081
1 1063
872 1
1 671
370 1
1 1423
3 4
1379 1
402 1
1 1645
296 1
1 1211
1590 1
643 1
1 1544
1084 1
238 1
1690 1
224 1
588 1
743 1
1 1199
324 1
1539 1
257 1
1 1369
1 1592
1 206
747 1
610 1
1 1296
1 697
839 1
1 780
1 1624
1487 1
1370 1
882 1
1 491
1042 1
1262 1
359 1
1 1481
1 562
1 1273
1 1316
355 1
1 143
1 1504
1104 1
1490 1
316 1
1 1073
1 1587
701 1
625 1
44 1
620 1
1 1439
1 916
579 1
1017 1
1526 1
986 1
1 564
1 494
1281 1
1567 1
566 1
87 1
1 1157
631 1
26 1
1719 1
1 139
1 1068
1 283
1458 1
982 1
121 1
1078 1
1089 1
1409 1
1 175
196 1
692 1
669 1
1 1180
870 1
1 901
218 1
1 663
1 498
1 386
1 384
1000 1
169 1
1 1550
420 1
1389 1
415 1
1 337
246 1
1058 1
1 1374
1 973
1 910
1 676
1 750
1 312
1 516
1 938
1 1485
1141 1
1338 1
1700 1
86 1
1 1132
1 1210
1 1029
1 1387
595 1
133 1
1 920
828 1
1 1124
770 1
695 1
1 1260
1 356
497 1
540 1
531 1
1282 1
1 809
1276 1
1 687
1 27
279 1
1 1463
1494 1
58 1
644 1
1 319
609 1
94 1
551 1
907 1
10 1
1 1647
565 1
23 1
1 618
1 1606
1 791
952 1
1 1074
20 1
998 1
1437 1
1 52
153 1
326 1
1384 1
1 575
1 83
1 433
62 1
863 1
1 546
1334 1
1673 1
741 1
802 1
568 1
1 950
654 1
1 903
35 1
1525 1
1 746
1 1515
1052 1
1 1203
1 1015
1 1693
428 1
928 1
379 1
1288 1
694 1
569 1
1520 1
668 1
1200 1
1 101
1109 1
1228 1
1 744
222 1
1 1177
1090 1
16 1
935 1
1 1240
1 1459
1 822
1555 1
342 1
649 1
1 703
696 1
1 446
1 254
1 800
1 161
56 1
1 470
650 1
1 1436
702 1
1 1473
1 80
1 114
1 75
1009 1
1091 1
819 1
1 145
343 1
974 1
1 1580
1 1596
1298 1
1 895
585 1
1477 1
1160 1
831 1
1 1077
1 1598
1 157
1 25
1 382
138 1
458 1
1299 1
1 98
4 1
1670 1
860 1
1530 1
700 1
821 1
1025 1
1426 1
1 742
1 808
1 1122
1285 1
1 362
1 1628
690 1
125 1
1220 1
1 1055
1 1147
1 154
158 1
1699 1
1391 1
1377 1
144 1
1 652
97 1
1 726
1676 1
1 425
1239 1
777 1
1 84
586 1
1 79
1 85
599 1
1 1706
533 1
1179 1
1 597
1 250
1 1178
1484 1
1 1113
1 1189
1 1399
1 416
1 602
864 1
1 99
1 1256
233 1
1130 1
266 1
456 1
1 1705
1221 1
1 1368
1 913
1 1614
1 559
1 875
239 1
1 1272
757 1
1363 1
877 1
1123 1
1 967
1714 1
1 221
1 441
1 893
1095 1
1 1381
1232 1
1116 1
1505 1
353 1
1434 1
846 1
1 1031
1622 1
1 1108
1196 1
504 1
1148 1
832 1
1205 1
1 1518
1022 1
1 490
1 515
29 1
1051 1
1642 1
1318 1
1 1125
1 226
1 1287
1388 1
1 1529
1 119
686 1
1 868
1 536
570 1
1 1286
1 189
849 1
1 298
1 528
1 725
308 1
1671 1
1 1280
1 1138
482 1
1 436
1 231
949 1
1 1684
1 1278
1 1635
1 1340
1 286
1 329
1 580
1708 1
985 1
1 1638
1 413
1 699
1247 1
232 1
561 1
1259 1
449 1
1 1194
1 106
1 216
1 172
398 1
13 1
1 526
1 727
1 1603
1 1566
1440 1
1540 1
1 581
1 636
1230 1
1 1144
1 632
1172 1
1 142
164 1
514 1
1 544
977 1
1 471
1 1245
1 1483
1 1319
1356 1
1 1266
1 1521
1 975
1 1532
1 209
655 1
740 1
1098 1
894 1
1 730
1687 1
1410 1
1648 1
1385 1
1 1166
641 1
1173 1
861 1
1646 1
1 51
1028 1
1 104
1 69
1 1134
880 1
15 1
1 1181
788 1
1 1712
1 582
1 485
587 1
1418 1
1 1212
1112 1
1 848
1 191
1667 1
1 1669
960 1
1292 1
1 440
1665 1
1 997
1 721
1 1277
1 574
1 1371
1 163
1 776
1 768
1 1681
1 1460
1 423
598 1
1 818
1500 1
1 354
1 945
1430 1
1411 1
613 1
1 1158
512 1
1 1315
1049 1
912 1
1067 1
1 1711
30 1
626 1
1 1291
1 917
378 1
1 1632
1013 1
1 825
1 816
1168 1
463 1
299 1
660 1
1 529
1 290
1382 1
1 176
724 1
1225 1
1 1679
1 589
194 1
1 803
1 673
1 1198
1 824
1643 1
1 591
1 1065
255 1
1 1510
812 1
1 469
404 1
478 1
1 827
1 429
572 1
127 1
1376 1
1 424
902 1
1653 1
327 1
1 1342
616 1
1 411
1 150
1 1602
1 679
1 1683
1 1037
1651 1
1 933
393 1
1 857
1 576
689 1
1 395
1 325
1 1707
1 712
234 1
937 1
1 983
1 21
1001 1
1 1305
1429 1
1451 1
1604 1
1 1446
1 838
1 1682
1 455
1 1193
1 439
675 1
1 1027
229 1
1 1433
1577 1
1 314
1 364
1 1633
890 1
648 1
1 556
1 713
1 775
1 1313
352 1
1115 1
422 1
1007 1
1 1457
1 1072
1 1584
1 307
1 1275
339 1
1 452
710 1
276 1
1 373
1 651
369 1
1 1032
1 1508
1 1361
1 1244
1 322
235 1
1 1443
1 708
1 1718
1 1190
1 357
108 1
1 577
492 1
1 1576
289 1
486 1
1 178
489 1
1585 1
297 1
1 801
1615 1
1 267
1 47
1018 1
1402 1
1 1294
826 1
837 1
1 1408
207 1
1 1414
1 834
71 1
197 1
208 1
1395 1
303 1
1 140
1 39
135 1
1 1626
136 1
1 862
1 403
1328 1
999 1
1 1666
1 1093
792 1
1 1126
600 1
1 719
1 1079
155 1
1 623
1 1401
1202 1
1 1071
162 1
1 1695
1 1425
1154 1
698 1
978 1
1 1432
1 969
1702 1
1404 1
1 793
1 1182
1 897
603 1
1609 1
939 1
653 1
1 182
1 520
412 1
1 272
1 487
1 6
1 900
179 1
1701 1
1 1307
789 1
219 1
1243 1
1 450
77 1
859 1
1082 1
1 553
1 1541
1 1023
1 1204
1 667
948 1
249 1
1 414
1 958
736 1
1640 1
1588 1
1 1565
1 1153
338 1
59 1
1 1304
850 1
1583 1
1188 1
1 1358
1092 1
1 1169
1 444
530 1
1 1454
1 1554
1 394
1 220
1509 1
116 1
481 1
957 1
1 130
804 1
1 1347
981 1
228 1
665 1
1 91
539 1
304 1
1111 1
634 1
1431 1
195 1
716 1
1 1560
258 1
1 798
1 502
666 1
1 1005
1 1255
300 1
1364 1
722 1
1 1444
1 1462
892 1
45 1
993 1
1 1558
1302 1
1589 1
1 345
1359 1
237 1
904 1
1 225
1 943
1 1235
1 1476
538 1
1571 1
1513 1
1 1536
1 709
1 1456
185 1
1 1263
284 1
1 611
328 1
1 1416
1 560
1 217
1131 1
1492 1
1 12
1 177
1 1470
755 1
1 1435
1 346
1 932
1 754
1 1114
1 748
1083 1
1519 1
640 1
1 1678
1 63
1002 1
543 1
315 1
1 964
1 350
1 340
1 718
1174 1
1 311
1 715
1514 1
1 1644
1 1680
1085 1
783 1
503 1
1 795
1 1020
1649 1
1215 1
1 990
1696 1
1 1366
1 335
1552 1
1 739
1 787
506 1
915 1
1 431
1438 1
554 1
1 1019
764 1
1 295
1 447
1312 1
731 1
1 682
43 1
1 351
1 1186
1249 1
419 1
1 381
323 1
1 465
1405 1
1 1354
1 468
1099 1
1 1716
1449 1
537 1
1 8
1568 1
17 1
1227 1
1 1268
66 1
1 64
442 1
1 408
1 365
7 1
1 128
1 31
391 1
132 1
1360 1
124 1
1161 1
617 1
1 459
1720 1
2 1
683 1
1 517
103 1
1 33
1107 1
1 227
1119 1
1516 1
1 214
737 1
1 1630
1242 1
1233 1
1105 1
1 1187
462 1
1 495
1 705
1 1479
1295 1
1 349
1 448
1497 1
293 1
1 1417
1396 1
344 1
1 1597
784 1
691 1
1 805
1274 1
374 1
1 621
1171 1
1 261
1 263
1594 1
1 567
1 41
843 1
1 171
1501 1
1 1303
605 1
1 61
1 988
685 1
1 557
1 558
601 1
1070 1
1 510
1 629
387 1
123 1
1 1195
1 830
1 723
1 493
1 274
1 107
1 711
794 1
865 1
385 1
330 1
1 1445
1 282
1142 1
1 1054
1140 1
92 1
1 1546
1625 1
1 765
630 1
1 1030
501 1
759 1
1 899
1 1611
115 1
90 1
1471 1
1 541
1 1208
1 876
1 129
1 1218
88 1
1 366
1 82
931 1
1 1447
1 1006
1 1517
1 1151
1507 1
1 19
1 1694
1413 1
1 1528
1570 1
851 1
1506 1
1549 1
953 1
1 852
1 806
1284 1
427 1
1045 1
1 1652
73 1
1 693
1 1511
1 807
1 318
1 203
1 437
102 1
779 1
1 1703
1 735
947 1
1 1057
341 1
1 552
878 1
1 1493
1021 1
1547 1
1046 1
1 1663
1 1222
1 1717
1 496
168 1
1 126
1 49
146 1
1 1675
1461 1
1 1573
1 996
1 1236
1348 1
317 1
1579 1
656 1
1349 1
1145 1
50 1
1 1551
1 252
720 1
873 1
1 55
1 309
1 1118
1380 1
1176 1
1 334
247 1
763 1
479 1
1 421
1 72
1 331
745 1
1332 1
406 1
1206 1
1 1373
1 1686
1 1442
1 896
1412 1
1035 1
1258 1
1 886
1 1538
202 1
1 1043
1537 1
1 584
1 1121
592 1
1 117
1 927
844 1
1 511
1 672
1170 1
1053 1
1106 1
590 1
772 1
847 1
1 934
1 1324
1 855
1 573
453 1
1 477
1428 1
1 265
1252 1
1 1310
1 243
1 751
1 418
942 1
923 1
1 976
1 1351
430 1
811 1
706 1
1 1691
867 1
1710 1
1 909
1 24
1523 1
1 204
869 1
1 771
305 1
1265 1
212 1
1 1226
1 1415
1 637
472 1
1 1341
1216 1
141 1
1 614
752 1
738 1
1163 1
1062 1
1 707
513 1
1 89
1 76
1621 1
1 1601
1159 1
853 1
1 1024
1 1612
1 1421
1 814
1 1004
612 1
1394 1
260 1
1 347
1 767
1 946
1 521
1 1135
796 1
461 1
1 782
681 1
240 1
1 1578
1 549
627 1
443 1
1 1662
884 1
991 1
898 1
1 657
1 1270
1496 1
1 1372
1331 1
1654 1
310 1
1 979
1 1251
1 277
1617 1
1 40
1 32
905 1
1183 1
1 1495
1 619
1 1207
1674 1
966 1
840 1
96 1
1365 1
519 1
1320 1
1 1533
1 547
1 376
1 174
1 1229
36 1
728 1
1 885
1641 1
1 914
1 734
1685 1
1 606
994 1
1 184
1 578
1 524
1453 1
1 836
1 545
1 1660
1 410
1344 1
962 1
1 167
445 1
1 251
1593 1
959 1
1 166
1 593
1 799
1 1165
1 278
60 1
608 1
1 1698
1 1392
1 1143
500 1
1 858
1655 1
348 1
1311 1
704 1
1192 1
1 987
1 93
1 922
100 1
1 1563
1 288
1 74
1 1016
1 1293
201 1
1452 1
1 965
1 1036
1297 1
1 180
1175 1
733 1
466 1
1 273
1 642
1 1327
1146 1
1 426
1224 1
1450 1
1 377
1 294
1422 1
256 1
1 970
1 199
835 1
1 259
1 1631
451 1
1269 1
473 1
211 1
749 1
1548 1
67 1
1 664
1223 1
1267 1
918 1
188 1
523 1
1 936
688 1
1 1048
1 1692
244 1
1039 1
756 1
758 1
1 1333
638 1
467 1
1248 1
1 992
1087 1
1 285
1 1524
1102 1
951 1
941 1
1 360
1 1201
670 1
1038 1
1283 1
1 1398
1 1527
1 1503
1 888
120 1
1034 1
1103 1
1 1096
1033 1
392 1
1 930
1 156
1219 1
434 1
1 417
1 358
1 152
1 1237
1100 1
1 1367
1 1314
1 647
1 628
1 1279
1335 1
717 1
841 1
1 1241
405 1
1 1383
81 1
1 1254
956 1
1618 1
518 1
1 980
1094 1
1 769
1 1465
1419 1
1 1378
1 548
1 1562
1 1191
1214 1
1064 1
1 881
1150 1
1040 1
1133 1
1 879
1 766
1300 1
1345 1
1353 1
1512 1
1 833
1 1478
253 1
1 383
1575 1
1 522
1 1101
1 1607
924 1
213 1
1 301
1 1012
1627 1
368 1
1 1677
1 507
1 921
1357 1
940 1
1 464
1403 1
192 1
1 5
1672 1
1 48
1 1234
1 774
1668 1
1657 1
583 1
1 1420
555 1
268 1
1 438
1 1572
269 1
264 1
1491 1
1 1309
271 1
1061 1
1129 1
1 773
1 677
929 1
1 1014
984 1
1 1086
400 1
1 1475
105 1
1 1400
1289 1
1709 1
1184 1
336 1
38 1
1 1149
1 390
1 1467
1599 1
1 661
1 380
1629 1
488 1
1 34
1 149
1 1323
1 823
1427 1
1 291
401 1
313 1
1 1339
1 1661
596 1
1610 1
1162 1
1213 1
845 1
1 887
1464 1
1 1620
1 42
1 236
1 674
1008 1
361 1
1 505
1050 1
1 1128
1 1474
1337 1
65 1
1352 1
1613 1
1 396
1595 1
1375 1
1 525
874 1
112 1
1 1010
1 550
1 281
1127 1
1 633
57 1
460 1
1 842
1139 1
1097 1
1 1569
1 54
1 1472
230 1
1 1489
508 1
1 14
1194 1139 4
372 1
1 195
1 638
792 1
1 323
547 1
893 1
1 823
1031 1
230 1
1 1018
1105 1
449 1
94 1
1 961
1 176
1 303
1 1193
1 436
101 1
546 1
567 1
236 1
975 1
708 1
517 1
181 1
1 157
1 1058
1 1151
350 1
529 1
1 32
374 1
976 1
1 986
1 948
681 1
280 1
680 1
1086 1
74 1
128 1
1 328
1 1071
1 1028
1 1143
163 1
351 1
1 404
91 1
1 10
115 1
1 377
660 1
1 92
1 360
1 443
1 1159
669 1
337 1
864 1
1 369
853 1
459 1
1 471
1 1059
891 1
8 1
1 979
1 985
1 457
1 1069
1 370
1 1118
1 1106
1191 1
822 1
1 244
1 755
710 1
446 1
217 1
640 1
1043 1
1 56
772 1
1 398
309 1
167 1
1 348
1 1108
549 1
1 1046
686 1
1 909
276 1
14 1
1 247
1066 1
508 1
1 988
1 420
1 959
1 981
1 12
1 676
1 498
1 974
1 665
841 1
1 1094
733 1
612 1
1 403
1 918
1 575
1048 1
480 1
992 1
1 784
919 1
1 308
687 1
1 431
1 392
1 653
748 1
224 1
326 1
63 1
989 1
1 885
972 1
1 218
1073 1
1045 1
1 417
1 15
1 437
1 1067
1 223
1 259
544 1
812 1
435 1
1 1148
1164 1
1 357
514 1
1 185
857 1
805 1
528 1
1 896
600 1
1090 1
1 994
914 1
1 1044
1 1114
153 1
1 1173
1 808
419 1
1 883
677 1
875 1
1 1087
1 1171
1 809
1 510
1 649
1 1017
25 1
1 84
1 1008
1 995
1 1121
705 1
1126 1
983 1
912 1
1 399
880 1
1 790
1 254
814 1
1 1182
1 1065
849 1
642 1
911 1
1 876
1 847
1 848
829 1
1 310
216 1
1 582
395 1
781 1
70 1
425 1
1 469
1 645
1 376
1 540
339 1
1 926
349 1
506 1
620 1
750 1
1 576
1 759
1 816
1101 1
937 1
851 1
1 1113
722 1
1 210
1 757
1 608
779 1
1 663
1 126
1041 1
1 869
797 1
39 1
778 1
1 838
312 1
1 318
444 1
892 1
1 286
1 117
1 1157
409 1
1 44
1 204
171 1
295 1
833 1
780 1
1 672
1 1136
1 1107
45 1
1119 1
1 387
633 1
1 742
585 1
1 709
1 346
173 1
289 1
924 1
1 38
635 1
175 1
1 75
1 1027
1 591
810 1
1 80
732 1
298 1
1 186
1 904
338 1
1 124
1 401
207 1
264 1
1 837
1 36
1 246
523 1
1 682
1 1180
1 825
1 1075
1 1050
706 1
538 1
1 1099
1 593
188 1
1077 1
1 273
1 559
454 1
1 1153
1 31
1 1093
314 1
609 1
1 456
147 1
1 344
552 1
233 1
1 1025
1 922
754 1
287 1
1 499
1 879
1 284
1088 1
610 1
826 1
293 1
1 618
1178 1
1 133
380 1
496 1
1 901
1 109
656 1
507 1
1102 1
1 741
68 1
1 920
1002 1
460 1
1 572
227 1
1037 1
804 1
375 1
604 1
1 388
149 1
1 315
1 76
1 749
613 1
692 1
1 1095
927 1
18 1
1 78
1 931
1 1104
1 1133
1 42
970 1
1 69
1162 1
219 1
1 874
138 1
58 1
862 1
1 502
240 1
881 1
1 122
1 701
942 1
1 282
324 1
229 1
1 763
433 1
1 1152
353 1
489 1
232 1
724 1
1 215
1047 1
1 161
1 1074
1 533
1 250
1 463
1 852
1053 1
478 1
256 1
159 1
1 578
1 951
1 1097
950 1
1 1012
106 1
1 277
1 964
1 275
865 1
556 1
516 1
936 1
752 1
1 1134
470 1
1 801
568 1
196 1
1 675
1 601
1016 1
647 1
1 1144
1172 1
1 24
1 1132
739 1
1 253
1 361
1 1021
1 1169
968 1
1 894
1 340
137 1
625 1
1 978
1 548
28 1
1 1035
769 1
1141 1
623 1
1 329
1 108
145 1
263 1
1163 1
1 700
1 21
584 1
214 1
292 1
205 1
9 1
1 1128
87 1
1 586
1 334
313 1
795 1
1 1158
870 1
3 4
1 730
832 1
1 798
1 626
1 1082
878 1
1 82
1 697
1139 1
1 1098
1 1005
50 1
279 1
266 1
520 1
1 479
1 258
174 1
1 984
1 902
1 558
156 1
345 1
654 1
1 1115
1 46
162 1
355 1
500 1
744 1
1 720
421 1
365 1
868 1
1 856
1 200
1 511
771 1
386 1
1116 1
1 72
1 592
1 1060
1 430
1015 1
1 429
1 775
1 734
758 1
1 1166
5 4
464 1
222 1
908 1
900 1
1 1039
736 1
716 1
1 1154
141 1
766 1
1 494
954 1
1 555
1 201
1112 1
1 735
1 785
1 842
690 1
611 1
1 441
1 940
11 1
198 1
1 817
1079 1
164 1
1135 1
1 1124
1 887
1 60
691 1
432 1
1 505
1 811
799 1
643 1
1 1000
1036 1
321 1
1 587
515 1
562 1
1 297
1 1062
1 1192
53 1
1 165
577 1
662 1
1 385
1 1085
1 118
882 1
1145 1
1 599
1 836
1 241
1 98
402 1
1 208
990 1
1 850
965 1
1 488
319 1
110 1
1 408
1 679
527 1
667 1
440 1
1 1006
1019 1
1 1040
800 1
1 861
1 694
820 1
1 71
272 1
1 325
278 1
1091 1
1 343
944 1
1 13
6 1
637 1
1 580
1 206
786 1
524 1
1 977
827 1
916 1
1 336
765 1
1187 1
1100 1
1 468
1 1129
1 773
1 197
1033 1
1175 1
1 239
1 943
1 1022
1 107
1 535
982 1
1 1122
373 1
1 631
119 1
867 1
1 674
646 1
1 150
41 1
1 933
225 1
634 1
1 461
1 519
1 543
422 1
1 1103
595 1
1174 1
1 243
1 1054
1 406
934 1
424 1
1 695
1 658
261 1
428 1
1 999
1 485
1179 1
490 1
1 898
397 1
830 1
1 987
1123 1
947 1
1 606
155 1
1 895
969 1
1 1010
1 571
815 1
831 1
1001 1
1 146
1 846
1 813
1 557
1 858
299 1
1184 1
1 413
228 1
664 1
114 1
1 835
1 305
1137 1
1 154
923 1
1 322
598 1
274 1
1 563
1 843
131 1
1167 1
1 362
1 668
1 930
537 1
1 873
1131 1
1 66
1 788
1 840
522 1
1 151
368 1
1 451
1055 1
1 605
616 1
1070 1
1051 1
1 946
96 1
929 1
1 615
1 99
1 455
1 178
807 1
1138 1
1194 1
1 102
226 1
980 1
1 486
1 751
1 352
818 1
729 1
1 657
1 414
1 192
928 1
1 509
824 1
1 483
1 251
683 1
503 1
1 252
1 20
34 1
364 1
270 1
776 1
1 262
1 47
112 1
394 1
212 1
1 960
317 1
1 704
1 332
955 1
1 684
1 221
180 1
199 1
283 1
1 1056
1142 1
1 925
574 1
536 1
564 1
379 1
1 54
37 1
1 495
1110 1
740 1
1 1185
565 1
304 1
1 905
1052 1
1 1140
1 300
1 474
764 1
956 1
341 1
526 1
1 378
190 1
29 1
1 466
501 1
619 1
1092 1
1161 1
1 260
235 1
723 1
1 532
307 1
1 962
281 1
194 1
756 1
1 462
1034 1
477 1
458 1
1 27
714 1
123 1
1 590
316 1
97 1
566 1
1 913
130 1
1 33
1 967
1155 1
760 1
132 1
231 1
794 1
184 1
1032 1
366 1
1 1064
1 465
1 48
1 782
271 1
62 1
371 1
1 177
1 81
1 140
1 877
1 384
939 1
958 1
932 1
1 648
1 521
1 639
666 1
1 762
1 125
1 448
1 347
166 1
1 83
52 1
55 1
1 534
439 1
1 594
1030 1
450 1
971 1
1 90
1 418
1 170
1 202
1 783
1 475
1 410
1 23
40 1
492 1
1 573
1 382
269 1
1130 1
871 1
1 17
1 245
1 787
1078 1
1 854
1 621
1183 1
1 917
889 1
1 504
973 1
51 1
1 845
1 715
607 1
5 6
1 16
1 77
581 1
1 899
596 1
1 1149
1 650
793 1
142 1
481 1
1 806
1 652
367 1
1 476
1 907
728 1
1080 1
1 844
242 1
935 1
1120 1
707 1
187 1
255 1
890 1
1 743
1 144
415 1
1 952
135 1
1 285
1 628
1 560
1 941
1 1096
603 1
1 426
641 1
719 1
85 1
1 725
1 89
1 888
1 381
35 1
1 1009
1 237
761 1
1 393
1 583
1 886
1 921
1 561
588 1
1 953
991 1
910 1
1063 1
1 383
59 1
1 550
423 1
1 884
111 1
1 997
1156 1
685 1
1 1083
1 1160
1 120
407 1
803 1
860 1
1038 1
821 1
1125 1
1 1023
1 497
1 127
189 1
1 86
1 22
1 209
1 597
473 1
1 213
1 438
43 1
1007 1
551 1
363 1
1 411
238 1
1 698
95 1
311 1
1 168
1 447
354 1
745 1
1 290
1 1076
1 731
993 1
1011 1
1 1176
1 1061
1 1147
1 737
1 306
753 1
1042 1
1189 1
1 116
1 673
1 998
1 1089
26 1
1 1084
602 1
1 678
139 1
1 632
88 1
622 1
1 291
1029 1
1 839
945 1
1 774
1 1072
1168 1
996 1
553 1
1 183
93 1
234 1
1181 1
1 356
1 396
148 1
655 1
335 1
330 1
1 390
1 570
1 331
819 1
405 1
1 713
712 1
693 1
1 915
427 1
1 696
1146 1
1 1150
630 1
1 789
1 65
487 1
389 1
1 718
1 61
539 1
617 1
1 268
1 1057
1 442
1 579
1 699
1 327
1 530
359 1
169 1
301 1
1 220
113 1
67 1
1 73
659 1
1 569
1 491
512 1
661 1
191 1
1 791
1 589
1 400
1 484
493 1
3 2
1 717
1 963
1 938
1170 1
248 1
1 554
1014 1
777 1
636 1
160 1
1 179
1 104
1 7
302 1
1 19
1 249
1 688
1 467
296 1
1 452
855 1
134 1
1109 1
172 1
1 129
1 866
100 1
629 1
513 1
1 482
182 1
689 1
1 1026
1 203
412 1
957 1
1 416
1 726
872 1
1 265
1 79
1 897
1 257
1 651
1 1003
267 1
746 1
1 320
1 453
627 1
1 702
1188 1
703 1
1 1117
2 1
152 1
1 1020
518 1
1190 1
342 1
644 1
143 1
1 1004
1 358
670 1
1 966
1 903
545 1
211 1
1081 1
1 738
1 727
1 391
1 288
1 541
1 294
1 1024
1 834
1186 1
767 1
1 105
1 1127
1 802
1 121
193 1
1 472
1 531
1 1177
1 1013
1 64
796 1
863 1
1 906
103 1
49 1
445 1
1 1049
1 57
1 828
1 1111
1 768
1 711
747 1
614 1
434 1
1 542
525 1
859 1
1 671
1068 1
1 1165
1 30
158 1
1 721
949 1
624 1
1 136
1 333
770 1
1004 710 2
1 132
1 944
1 739
1 379
1 537
1 596
1 72
546 1
1 639
844 1
1 51
749 1
706 1
100 1
1 745
966 1
541 1
1 787
1 735
212 1
24 1
1 247
30 1
1 746
980 1
1 630
1 238
911 1
1 148
792 1
881 1
1 652
991 1
540 1
1 587
1 742
195 1
1 36
750 1
651 1
1 563
54 1
13 1
196 1
1 633
1 552
1 159
375 1
990 1
1 191
644 1
1 905
550 1
44 1
1 620
121 1
846 1
1 569
1 906
380 1
499 1
1 154
692 1
465 1
1 179
1 714
2 3
141 1
1 167
275 1
1 110
679 1
57 1
1 848
1 628
288 1
1 508
1 511
1 260
715 1
1 782
1 999
593 1
1 795
688 1
1 592
694 1
834 1
1 545
934 1
1 968
1 533
1 19
1 426
1 313
876 1
1 18
817 1
1 948
645 1
1 266
114 1
1 242
1 143
1 712
351 1
964 1
684 1
877 1
1 891
1 443
804 1
1 901
65 1
815 1
727 1
1 274
1 826
1 182
932 1
283 1
671 1
1 993
466 1
1 890
697 1
883 1
1 994
391 1
535 1
156 1
676 1
833 1
1 259
40 1
780 1
193 1
1 974
1 842
809 1
1 677
1 930
1 907
1 328
387 1
1 453
1 606
1 343
840 1
1 293
1 774
471 1
617 1
1 3
483 1
935 1
954 1
1 447
1 578
416 1
407 1
799 1
1 955
129 1
230 1
1 562
1 973
743 1
690 1
472 1
302 1
1 87
1 245
938 1
1 703
1 915
510 1
1 831
1 830
81 1
1 418
728 1
665 1
747 1
678 1
423 1
1 473
1 865
996 1
886 1
261 1
1 170
1 267
1 127
755 1
1 244
323 1
801 1
145 1
843 1
1 455
135 1
1 882
469 1
1 530
856 1
1 345
218 1
10 1
38 1
401 1
1 491
1 413
600 1
729 1
430 1
1 468
662 1
1 664
1 448
1 885
487 1
547 1
1 316
970 1
532 1
1 475
123 1
168 1
94 1
338 1
1 675
1 640
1 570
396 1
627 1
1 411
279 1
310 1
786 1
1 457
429 1
921 1
1 358
194 1
14 1
573 1
1 300
686 1
1 462
1 571
609 1
45 1
1 497
867 1
437 1
1 741
1 872
753 1
1000 1
91 1
222 1
1 190
421 1
1 348
646 1
575 1
816 1
1 198
200 1
1 29
1 180
485 1
1 760
334 1
388 1
486 1
74 1
1 459
1 5
1 369
1 952
1 297
650 1
1 583
1 626
1 315
949 1
810 1
1 197
1001 1
507 1
858 1
699 1
227 1
373 1
278 1
458 1
580 1
4 1
509 1
1 61
1 359
584 1
771 1
276 1
1 845
446 1
1 397
1 868
1 669
1 791
444 1
972 1
559 1
1 635
1 101
1 494
995 1
1 105
1 529
1 374
1 21
1 659
879 1
1 412
187 1
331 1
1 217
521 1
1 58
967 1
1 655
1 836
1 75
1 581
962 1
1 933
1 146
1 922
1 637
1 88
1 631
463 1
372 1
1 254
1 249
1 70
270 1
243 1
971 1
102 1
28 1
1 427
1 1003
1 819
1 704
1 344
424 1
1 997
1 169
770 1
1 574
1 228
961 1
111 1
1 184
1 311
1 832
33 1
1 367
92 1
361 1
599 1
1 603
1 454
1 687
586 1
1 754
233 1
157 1
1 982
1 80
1 93
188 1
1 812
97 1
1 912
564 1
1 936
784 1
1 128
355 1
1 15
12 1
1 941
1 548
1 927
1 490
346 1
1 776
670 1
84 1
1 69
234 1
162 1
623 1
1 800
1 341
106 1
1 716
488 1
1 925
1 591
1 887
1 604
1 501
1 384
505 1
394 1
1 138
1 440
1 641
368 1
1 241
478 1
1 60
1 333
432 1
1 199
1 710
1 78
1 231
1 827
793 1
1 702
718 1
513 1
1 910
1 752
1 767
1 808
1 953
381 1
1 895
572 1
1 137
1 329
928 1
1 539
1 213
1 264
1 796
1 861
99 1
236 1
1 850
1 674
866 1
324 1
1 256
1 860
647 1
1 319
763 1
924 1
737 1
653 1
1 350
1 63
789 1
1 364
1 525
1 818
1 265
1 160
480 1
89 1
719 1
920 1
393 1
1 371
1 301
479 1
1 268
1 696
1 422
828 1
1 456
281 1
1 725
1 186
1 811
1 613
542 1
1 734
253 1
436 1
6 1
713 1
223 1
219 1
408 1
1 682
449 1
693 1
764 1
1 553
140 1
1 798
98 1
1 778
1 672
1 43
1 643
398 1
835 1
1 849
335 1
1 979
500 1
1 376
1 1004
415 1
295 1
1 470
989 1
1 612
1 481
1 619
1 52
918 1
7 1
1 601
1 215
1 899
1 433
1 417
1 892
308 1
1 133
1 305
1 402
26 1
929 1
202 1
1 209
192 1
1 975
107 1
1 17
1 857
136 1
1 705
1 303
1 622
409 1
629 1
1 225
1 287
50 1
937 1
149 1
874 1
781 1
859 1
1 965
1 903
1 317
709 1
1 969
1 474
42 1
1 502
1 896
1 762
1 377
523 1
1 495
893 1
1 615
271 1
1 35
1 130
594 1
1 740
1 153
1 805
1 898
144 1
717 1
1 284
489 1
956 1
360 1
1 689
691 1
1 788
1 211
1 216
987 1
203 1
425 1
1 53
602 1
1 337
1 20
1 239
1 389
164 1
166 1
1 621
992 1
1 878
681 1
1 551
1 698
1 518
1 392
1 48
608 1
1 435
614 1
342 1
1 515
1 589
1 47
984 1
668 1
181 1
1 420
460 1
807 1
1 240
1 434
958 1
1 736
1 322
298 1
527 1
428 1
1 642
582 1
1 680
363 1
1 854
55 1
700 1
1 404
251 1
336 1
252 1
431 1
1 205
884 1
512 1
150 1
1 598
894 1
976 1
1 125
1 39
1 325
607 1
625 1
1 766
634 1
1 151
1 178
357 1
1 399
977 1
1 163
520 1
1 210
1 496
1 1002
1 229
1 304
1 109
889 1
914 1
946 1
1 514
1 517
354 1
142 1
174 1
292 1
1 68
1 504
1 943
1 126
1 561
1 862
406 1
1 806
942 1
657 1
1 250
1 119
1 722
103 1
117 1
870 1
1 493
751 1
277 1
201 1
450 1
1 658
1 873
565 1
1 503
963 1
1 618
1 356
1 71
349 1
232 1
663 1
400 1
1 32
1 464
1 327
1 96
1 67
1 207
1 220
147 1
1 875
1 41
988 1
9 1
1 824
1 940
1 248
309 1
1 595
34 1
1 888
785 1
255 1
1 871
853 1
616 1
880 1
25 1
1 285
1 790
176 1
498 1
869 1
1 37
902 1
104 1
611 1
1 666
1 395
1 738
11 1
221 1
1 636
978 1
1 347
1 985
1 839
1 204
1 695
555 1
981 1
822 1
1 155
131 1
1 113
526 1
624 1
1 538
1 549
353 1
1 769
139 1
441 1
1 263
1 638
524 1
1 823
1 108
235 1
724 1
1 821
390 1
1 773
1 439
172 1
1 461
16 1
403 1
134 1
1 904
1 531
175 1
419 1
1 794
332 1
1 814
1 522
748 1
1 76
820 1
1 85
237 1
1 289
1 765
1 445
122 1
1 605
1 484
1 177
560 1
1 467
983 1
442 1
731 1
1 476
405 1
49 1
1 294
661 1
208 1
1 189
683 1
516 1
726 1
120 1
1 282
566 1
2 1
451 1
756 1
1 214
610 1
1 339
711 1
959 1
1 568
31 1
701 1
1 673
1 783
590 1
855 1
224 1
1 185
438 1
1 64
528 1
1 258
378 1
632 1
851 1
1 118
1 852
1 837
1 116
1 112
947 1
744 1
1 23
863 1
829 1
1 307
1 226
1 73
83 1
115 1
1 939
1 273
1 597
1 986
414 1
66 1
1 660
1 171
1 321
1 585
90 1
838 1
340 1
908 1
544 1
931 1
77 1
576 1
46 1
909 1
1 768
957 1
757 1
951 1
95 1
1 362
864 1
1 383
1 286
482 1
1 290
1 723
1 506
280 1
1 82
534 1
1 318
330 1
1 312
1 269
813 1
158 1
558 1
916 1
152 1
654 1
1 758
1 536
382 1
27 1
556 1
1 161
1 56
1 685
1 733
352 1
59 1
777 1
1 62
1 22
246 1
1 314
8 1
1 492
1 386
1 708
1 802
1 900
320 1
897 1
326 1
761 1
707 1
926 1
950 1
917 1
1 720
588 1
79 1
656 1
1 649
1 370
1 86
519 1
257 1
1 291
165 1
1 825
1 847
183 1
543 1
923 1
913 1
1 998
577 1
306 1
1 779
1 772
1 960
1 365
1 841
667 1
732 1
1 579
1 477
1 775
1 730
1 272
797 1
299 1
648 1
1 296
1 919
1 759
1 124
1 262
945 1
1 567
366 1
1 452
557 1
554 1
1 721
1 803
1 206
1 410
1 173
385 1
1167 404 4
1162 1
1 144
1 904
99 1
914 1
237 1
1 1103
215 1
1 1138
192 1
1069 1
1 158
846 1
597 1
416 1
762 1
620 1
1 60
1 162
309 1
1 253
1 759
1 456
972 1
855 1
818 1
1 717
756 1
1 702
952 1
1 23
86 1
306 1
1 1147
57 1
1 1137
287 1
1 905
1 133
102 1
604 1
184 1
446 1
7 1
1121 1
1163 1
814 1
1 448
265 1
450 1
789 1
1 878
355 1
1 292
611 1
67 1
1 146
691 1
1 409
1 1066
1 45
1002 1
602 1
1 307
1 241
1 489
1 922
910 1
1 209
1012 1
1 239
732 1
777 1
827 1
1 997
1 924
925 1
1 795
1 364
16 1
1 894
1036 1
1 168
1 453
229 1
1052 1
1 775
807 1
683 1
1 737
1005 1
733 1
173 1
484 1
1 17
321 1
578 1
999 1
136 1
675 1
1 43
1 633
1 974
1 568
224 1
521 1
1 866
1 653
64 1
42 1
1 68
1 414
1 351
1 48
901 1
139 1
460 1
317 1
377 1
1054 1
1 223
1 1167
284 1
1003 1
596 1
668 1
1 1038
352 1
735 1
958 1
230 1
1 70
78 1
407 1
1166 1
562 1
1 589
886 1
283 1
1 156
1 928
298 1
1 782
1 379
1 569
1 334
598 1
1 105
1 387
1 992
62 1
140 1
308 1
1 850
1 53
900 1
1 107
1133 1
250 1
603 1
201 1
1116 1
1 410
783 1
1 564
1024 1
418 1
1 131
1 1114
1 14
1152 1
1 1006
66 1
1 854
1 987
1 163
595 1
28 1
1 225
838 1
246 1
1 433
1008 1
1 627
1050 1
61 1
1 199
1 768
842 1
1 1087
897 1
1 533
480 1
1 613
149 1
1 648
1 754
946 1
110 1
1 898
1047 1
1 931
1 758
662 1
193 1
190 1
1 984
1 858
646 1
310 1
1 723
1 1015
1 609
1068 1
1 431
1 1000
1 565
415 1
1 405
1 706
1 817
1151 1
1083 1
707 1
1 921
1 293
1026 1
1 121
171 1
1 482
1 751
1 862
955 1
207 1
1 739
934 1
1 319
1 511
801 1
684 1
1 142
92 1
1 540
10 1
46 1
1 981
354 1
1122 1
1 128
892 1
275 1
226 1
1 1029
380 1
432 1
218 1
1 384
1 1108
36 1
1089 1
547 1
175 1
628 1
1 907
1 372
1 746
764 1
304 1
1 618
1 552
1 908
1 392
971 1
195 1
816 1
1 126
543 1
849 1
720 1
961 1
1 333
1 180
1 260
1 833
90 1
1 213
731 1
600 1
1096 1
1 383
1080 1
699 1
513 1
582 1
1 84
1058 1
1 926
470 1
1 776
1118 1
1 826
1 101
1 13
1 212
1 527
884 1
85 1
1 919
1 995
585 1
1 185
1 637
744 1
1 1014
832 1
1 570
7 6
6 5
507 1
1 532
867 1
780 1
457 1
1136 1
587 1
1 541
1 1106
1 1135
528 1
567 1
276 1
291 1
1159 1
279 1
1 423
1 520
1 815
1041 1
187 1
1 381
1 127
1 157
738 1
1 906
1 477
865 1
1 985
252 1
1155 1
1 1117
1 1057
802 1
1 116
208 1
755 1
236 1
1 710
1 809
346 1
1 396
875 1
1 1161
1 844
1 586
747 1
920 1
1 461
1 558
403 1
1 366
1 792
1 821
1039 1
1 1097
1 505
1 692
1010 1
1 1157
696 1
400 1
1150 1
1040 1
975 1
233 1
194 1
1 197
313 1
1 100
1 1090
281 1
374 1
65 1
853 1
1 784
1 417
1 93
514 1
1 978
338 1
4 5
438 1
1 553
698 1
1 1021
1 973
1 556
1 695
365 1
640 1
617 1
1 665
994 1
654 1
268 1
1 729
932 1
1 679
1 166
1064 1
935 1
1 134
1 824
425 1
1 745
1 965
303 1
1 442
1 659
883 1
990 1
426 1
325 1
1 497
1 812
1 72
1091 1
1 785
178 1
1 419
877 1
428 1
1 459
1 20
89 1
469 1
1 331
1 258
286 1
1 174
1 766
35 1
54 1
1035 1
264 1
1 395
786 1
1 151
1 797
167 1
666 1
388 1
71 1
834 1
1 1148
1 124
1 179
1 583
368 1
27 1
1102 1
742 1
1 969
752 1
829 1
1 75
1 1145
82 1
1 823
819 1
1 636
488 1
639 1
607 1
1 948
222 1
686 1
1112 1
1 290
1 316
1 572
1 760
1 439
471 1
888 1
1 51
1 538
1 748
989 1
9 1
1 988
1 12
1 1032
1 825
839 1
1 872
498 1
1 657
350 1
159 1
1 353
893 1
3 2
1 1131
1 336
719 1
315 1
1154 1
337 1
1 245
1 344
1 526
1 681
91 1
465 1
440 1
1 500
1 1061
614 1
1 509
1 404
1 1030
652 1
1 429
909 1
1 1160
1 1004
1 962
1 727
1 805
135 1
390 1
1 122
728 1
1 1130
1 676
1 343
1 621
1 160
655 1
270 1
8 1
1 87
593 1
1 242
206 1
1094 1
1126 1
1 700
1 734
1 887
1 544
1 743
496 1
1 588
1 340
1 112
523 1
623 1
427 1
1 703
713 1
1 641
708 1
1 619
718 1
1 770
1 716
530 1
899 1
1099 1
790 1
773 1
1 808
455 1
724 1
976 1
1 329
1 677
804 1
1 394
1 688
41 1
18 1
712 1
721 1
1 911
257 1
1 581
1 138
1 74
263 1
1 763
1 411
1 259
1110 1
1101 1
701 1
822 1
1 285
979 1
1 964
1 996
445 1
1 644
667 1
1 232
1 831
398 1
1 341
1 837
634 1
1 311
412 1
205 1
1074 1
1 803
1 143
1 59
1 1073
52 1
25 1
1 968
282 1
531 1
1 177
141 1
594 1
1 19
630 1
518 1
557 1
998 1
1 235
1109 1
1 1065
1 951
1 669
1 63
1 483
1 913
1 1140
1 420
1 413
1 361
80 1
1 1125
1 1078
1 605
1 891
1 1059
300 1
1 478
1 880
1 339
1 169
1020 1
579 1
349 1
1 608
1 551
1 828
1 769
1 406
3 4
537 1
1 535
1 81
1 248
1 129
960 1
1 680
1 154
1 939
1 573
278 1
161 1
864 1
1 800
297 1
1007 1
1 616
793 1
1 114
1 930
111 1
697 1
1134 1
1 690
1093 1
949 1
1 848
1 1056
682 1
1 165
571 1
1 323
856 1
549 1
1 345
1 631
1 761
320 1
444 1
1 671
1 508
1 378
491 1
647 1
234 1
806 1
1 289
610 1
1 389
186 1
288 1
1 774
1 1123
1034 1
1 590
1 266
953 1
1119 1
1139 1
155 1
50 1
1 536
1132 1
1 622
1 1076
709 1
1 522
238 1
1 79
98 1
466 1
1 342
1 942
148 1
1 1141
318 1
1018 1
501 1
1 937
463 1
1 966
624 1
1 147
1 221
1 11
843 1
204 1
1 145
1 271
1 599
869 1
1 936
1 94
254 1
1 375
1 490
358 1
1 1060
493 1
584 1
1 649
1 486
1 38
1 1124
1 772
295 1
1 109
479 1
373 1
211 1
1062 1
635 1
781 1
32 1
360 1
76 1
554 1
1 132
788 1
830 1
1 203
277 1
1 1063
421 1
437 1
1 367
1 517
705 1
1 15
1 1100
362 1
1 642
330 1
1 462
1 56
1 555
658 1
1 663
991 1
980 1
1 741
1 871
1 813
970 1
1071 1
1115 1
1 1067
1 244
1 172
189 1
231 1
1 1053
1 371
294 1
963 1
504 1
1 1107
1127 1
1 757
1 370
1 1011
650 1
115 1
1 550
626 1
1 629
1 108
1 1019
1 1049
386 1
1 302
1098 1
1 525
1 767
1 778
1 1082
1 55
1 335
1 916
1 458
1 1144
369 1
799 1
1 474
1079 1
1 1046
73 1
1120 1
200 1
548 1
314 1
1075 1
1 31
685 1
1 1085
1 1164
492 1
561 1
214 1
615 1
150 1
857 1
113 1
1 519
515 1
356 1
993 1
1 324
1 612
1 798
1 529
836 1
917 1
1 69
1 1081
1 49
876 1
1 945
1 933
1 915
1043 1
1 451
1023 1
879 1
1 1128
1 22
1 954
1048 1
1 452
1 870
687 1
1 487
1 256
1 704
516 1
575 1
1 96
1 216
1 986
1 576
959 1
940 1
661 1
1153 1
506 1
485 1
1 592
1045 1
424 1
153 1
422 1
881 1
1 473
1 715
1165 1
33 1
1 591
1 26
1 632
1 670
1 385
1 1111
1 820
1 512
885 1
1 95
787 1
1 1017
918 1
524 1
1 1072
1 495
267 1
1 749
280 1
228 1
559 1
1 47
2 1
1 436
563 1
678 1
1 730
1 542
1 840
1 903
220 1
1 476
1 1028
1 1143
123 1
1013 1
1 861
1 510
1 164
868 1
673 1
118 1
240 1
1 983
1 382
977 1
895 1
1 693
472 1
1 299
1 261
1 1055
841 1
357 1
468 1
441 1
1 24
1 467
1 882
1 765
1 29
255 1
1 656
714 1
1 481
1 725
750 1
1149 1
1 645
249 1
1 606
181 1
1 247
1 889
1 30
464 1
863 1
88 1
1 982
664 1
1 217
475 1
1 577
1 58
957 1
722 1
391 1
449 1
811 1
1 363
1113 1
397 1
625 1
272 1
1 262
1 198
430 1
1 119
1 847
1 794
1 219
736 1
1 1142
1 950
1156 1
1 672
546 1
326 1
1 956
771 1
1070 1
711 1
1 851
1077 1
376 1
1 40
845 1
1 494
332 1
327 1
740 1
873 1
103 1
1 1105
1146 1
1 77
779 1
1088 1
1 791
1129 1
1 104
694 1
1 859
1 408
1 726
1 890
274 1
1 348
183 1
1095 1
502 1
638 1
1 152
188 1
1 534
1 1084
499 1
1051 1
852 1
1037 1
1 227
210 1
1027 1
1 312
1 545
835 1
1 674
1 1104
1 176
941 1
503 1
1 328
1 393
1 1001
927 1
944 1
1044 1
1 1009
359 1
1 1042
1 874
566 1
1 938
1 273
1 929
1 601
21 1
1 796
97 1
967 1
1 401
1 402
1 539
1 34
1 810
1 37
574 1
1 296
1 130
1 1025
1 137
860 1
896 1
1 117
1 196
1016 1
305 1
1 301
1031 1
434 1
660 1
191 1
943 1
1 39
1 912
435 1
560 1
125 1
322 1
269 1
44 1
1 399
1 753
1 454
1022 1
1 1092
1 947
1 120
1 689
1 447
1 580
1 182
106 1
1158 1
1086 1
1 643
1 1033
923 1
1 443
202 1
1 347
251 1
1 651
902 1
1 83
1 170
1 243
1371 50 4
354 1
883 1
828 1
1 802
1 782
156 1
1 677
1111 1
1 223
405 1
1 823
683 1
1140 1
696 1
1 370
1296 1
1 114
1 1333
1 776
165 1
1 218
66 1
720 1
1082 1
191 1
1 1259
382 1
1 1341
1 323
1 430
166 1
1 1076
1 851
228 1
321 1
976 1
1 476
426 1
1 198
1 353
1 637
204 1
318 1
1 592
94 1
311 1
1213 1
811 1
881 1
613 1
247 1
1 153
1 648
1163 1
1141 1
1 54
1 695
242 1
1 1013
662 1
1 516
255 1
1 444
1 1295
1 746
1 1160
1155 1
310 1
1 737
1 361
913 1
1 1348
862 1
852 1
663 1
1275 1
128 1
334 1
343 1
1 1009
2 1
506 1
481 1
770 1
449 1
1107 1
1 1128
1 1164
1 1171
1 1180
793 1
330 1
999 1
1 1345
1 787
728 1
1170 1
649 1
1 1338
1 619
842 1
1 457
1091 1
363 1
14 1
392 1
1 178
1207 1
1134 1
754 1
704 1
1 571
1 686
1 1172
1 706
144 1
261 1
1 892
60 1
1 1252
834 1
1 133
1 794
1118 1
825 1
1 91
248 1
252 1
1 1103
1303 1
745 1
462 1
1 465
1081 1
1 1266
89 1
1 461
1 1222
1 1038
1346 1
725 1
1004 1
756 1
1 511
1354 1
1 1281
569 1
1132 1
1 161
1012 1
1 551
1 632
1 659
826 1
479 1
925 1
1 603
742 1
647 1
610 1
810 1
1 90
1 744
1 1020
436 1
1 25
1 707
239 1
1 1032
591 1
1062 1
1 1212
1 586
962 1
1148 1
1 325
1144 1
731 1
1223 1
192 1
1 605
1 378
1359 1
1044 1
1 544
1319 1
1 827
1 1021
644 1
1 872
1 875
1 480
185 1
1030 1
1 791
1176 1
1 850
111 1
458 1
790 1
1 225
16 1
1 1068
466 1
1 1002
498 1
288 1
1 1353
1 211
259 1
376 1
1 268
697 1
645 1
1 1321
1027 1
1 279
1251 1
1 783
124 1
1 155
1239 1
856 1
832 1
1 1086
1 705
1177 1
1055 1
628 1
1 478
244 1
1 664
537 1
1 402
312 1
453 1
1 1325
1 715
1 324
1 552
587 1
764 1
946 1
509 1
1 171
1 1260
1 575
590 1
1314 1
1 283
1 411
600 1
1194 1
915 1
1350 1
68 1
621 1
438 1
767 1
747 1
795 1
1073 1
1 8
1 367
1 1015
1 302
1 131
1 348
670 1
1 869
1 48
167 1
1 299
1 399
4 3
1 809
1 70
1 1330
459 1
1349 1
1158 1
1018 1
140 1
1 1358
1 812
1364 1
878 1
1033 1
1 389
931 1
1 698
1 271
1 188
1 710
1 1058
1 1175
1 990
1 908
1 110
1 732
1 1167
1 598
978 1
1 51
1184 1
1 187
1 215
1165 1
1 33
1 687
71 1
1 761
1 1200
1 1075
1 1272
1 817
1 538
1 996
1 112
967 1
630 1
277 1
292 1
1 372
7 1
1 1042
1 679
1 607
1 771
1 977
1000 1
1 536
1 1291
1098 1
1 1146
1 1255
174 1
1 429
1 1245
274 1
474 1
315 1
1046 1
1 721
1189 1
1085 1
347 1
1309 1
81 1
765 1
487 1
678 1
173 1
1 657
1131 1
364 1
1 1198
1 276
482 1
373 1
581 1
650 1
1228 1
866 1
1 157
500 1
914 1
1 1265
905 1
1006 1
471 1
1077 1
870 1
47 1
1 1056
512 1
1 147
1 1234
1 199
1 1125
441 1
1 1205
358 1
1 788
1 1126
1 1078
450 1
217 1
1320 1
250 1
1196 1
815 1
377 1
1 886
1 1298
1280 1
1 298
932 1
1 254
1183 1
1 739
339 1
245 1
1 162
1 181
1024 1
79 1
122 1
1 953
1 655
519 1
1 419
349 1
595 1
577 1
1 853
947 1
109 1
1 116
505 1
1 275
1 210
424 1
890 1
1 431
840 1
496 1
1 206
1 593
1 408
1 58
921 1
1014 1
894 1
1 207
1279 1
1 20
865 1
926 1
1 294
1 407
1 230
1 1063
527 1
1 243
1 126
1 1220
939 1
1 1133
224 1
974 1
1 1361
1 282
1 955
1 1060
1 1352
69 1
1 360
711 1
1282 1
1 63
1250 1
837 1
1 1219
1 1150
1 309
1 1010
855 1
652 1
611 1
555 1
709 1
785 1
1 189
508 1
1 368
1 1292
988 1
1022 1
1 113
1 1318
1340 1
622 1
777 1
1 236
1 800
1 492
1 201
1 722
1 1289
1 100
1 1294
1 92
820 1
594 1
1227 1
1 38
1 1335
1 854
1 1074
1 1156
1 760
1 433
938 1
1 304
1 533
563 1
693 1
1 203
1 716
1 495
289 1
568 1
1 1035
1 1142
891 1
1 992
1121 1
19 1
1 1270
1249 1
1 342
1 727
1 445
1 532
1 260
1181 1
469 1
1059 1
1 1104
1 944
1 1050
730 1
1 1355
397 1
1079 1
1 1304
1 733
1 1190
1 660
1 475
1 1362
2 3
517 1
596 1
1 300
352 1
1 43
570 1
1242 1
863 1
1 1011
1 839
331 1
351 1
1 434
615 1
1 549
297 1
1 1029
861 1
672 1
1 836
1203 1
102 1
1 1084
994 1
1 847
1 748
1 21
332 1
1 406
1 1347
1 601
691 1
1 200
232 1
1 95
1 99
1 616
1248 1
1 1215
1138 1
735 1
919 1
1 501
1092 1
88 1
539 1
1 991
928 1
1122 1
1 209
1 1049
1 456
1238 1
1 62
859 1
308 1
1 1065
396 1
1 987
1 484
1209 1
1 1283
1151 1
1 154
971 1
1 454
929 1
1 885
540 1
680 1
993 1
386 1
1 267
1 219
952 1
1210 1
1 1313
969 1
1269 1
1 643
1 52
335 1
1 740
37 1
1 483
1 708
464 1
1 369
1317 1
612 1
1 135
1 313
547 1
970 1
1 934
1 646
1048 1
1 1232
145 1
1263 1
1 692
6 5
548 1
1 1119
28 1
1017 1
1186 1
1 341
1 525
1 285
1 1241
1145 1
1339 1
1 32
1037 1
1129 1
1 136
807 1
554 1
1 286
293 1
1 718
380 1
1 1124
1 1197
57 1
651 1
801 1
1 172
998 1
599 1
640 1
1328 1
346 1
1 132
904 1
400 1
786 1
1 848
1 1308
1 414
17 1
1229 1
597 1
1 813
653 1
510 1
763 1
1311 1
858 1
769 1
1 935
1 900
497 1
1 641
1 583
588 1
676 1
557 1
1 824
1 833
1 291
1019 1
1 234
1 39
208 1
1 440
1 1217
1 256
1 849
1225 1
1 1369
1051 1
1208 1
1 513
106 1
1 85
123 1
1 24
1 486
1 654
1 1246
1 529
668 1
1 631
418 1
1 149
249 1
1100 1
1 1057
1 333
1 968
829 1
520 1
26 1
477 1
258 1
448 1
375 1
1 1357
1 344
1 671
1 421
371 1
1 956
345 1
1 685
1 558
1 1244
906 1
1257 1
395 1
96 1
74 1
1367 1
1278 1
781 1
35 1
1 303
1293 1
152 1
120 1
337 1
485 1
413 1
1 1028
30 1
661 1
1 882
163 1
618 1
1 804
1 1185
1 629
1 518
1 759
514 1
1 118
572 1
1 127
877 1
1095 1
121 1
138 1
910 1
1 1070
1 1334
1327 1
888 1
949 1
608 1
1236 1
1 772
1 379
1271 1
40 1
880 1
808 1
1 251
822 1
1 1288
1 50
830 1
472 1
1 499
1351 1
838 1
278 1
1101 1
1 1214
1 137
78 1
1 340
160 1
432 1
1 490
390 1
1135 1
1 336
1 241
169 1
1 504
1 76
1 214
1 1188
1 6
1 36
818 1
528 1
1064 1
545 1
945 1
1 398
1 290
755 1
67 1
1 688
1 979
237 1
1 1166
158 1
134 1
1 860
139 1
1007 1
1127 1
1 606
626 1
1 889
694 1
1267 1
958 1
141 1
1 1087
1 876
253 1
1 56
1 1324
463 1
1 1243
1047 1
1 1273
673 1
1 328
1 584
556 1
1 1169
1310 1
1 942
1 205
546 1
1 1331
751 1
1 314
326 1
1 903
1226 1
1 322
1090 1
937 1
1 550
1 1008
909 1
867 1
1 997
1 442
1 1211
959 1
1 1025
1 1300
1 1312
524 1
1 222
18 1
119 1
443 1
1 712
1 175
1 366
1 1299
1 107
566 1
1 320
1 1023
1277 1
307 1
1120 1
381 1
798 1
301 1
263 1
1 177
585 1
1 981
1 573
1001 1
1 898
559 1
1 84
494 1
503 1
799 1
388 1
1287 1
1 1363
922 1
493 1
1 1031
1 674
507 1
534 1
1 49
1 183
1 502
1 1105
1 125
1 1256
1149 1
1115 1
1 1045
1302 1
1108 1
269 1
1 623
409 1
1036 1
531 1
1 22
1083 1
1 1093
1 179
1 857
1 34
1 265
642 1
966 1
917 1
226 1
936 1
1 780
873 1
240 1
1 774
437 1
64 1
1 1136
1 1147
1365 1
1 1110
1 625
1143 1
1 669
1 1130
1 1043
272 1
1 1218
1 1201
1 338
1 374
920 1
1 1041
296 1
1 1371
1 65
1039 1
682 1
749 1
422 1
1159 1
61 1
1 101
1 985
365 1
1 912
1116 1
845 1
423 1
1 1284
1 1179
1 117
1 714
1 522
1 186
589 1
146 1
9 1
97 1
1174 1
202 1
1 468
1182 1
1 83
105 1
1 638
1005 1
1069 1
350 1
1 784
489 1
1 420
1 13
1 306
1114 1
1 960
975 1
1 565
470 1
986 1
1 1231
1123 1
1 635
1 1199
1066 1
1 235
1315 1
473 1
617 1
1 1178
984 1
1 1204
1 295
1 317
1322 1
1 681
675 1
59 1
1221 1
82 1
170 1
620 1
435 1
1162 1
1 805
1 941
27 1
879 1
741 1
1290 1
1052 1
115 1
1 743
1 717
896 1
1 383
1 553
1323 1
543 1
982 1
1 1258
567 1
387 1
1040 1
1 634
29 1
1 1316
1 1109
562 1
1 44
1 1157
1 806
1 1253
1 542
98 1
1 143
819 1
864 1
923 1
757 1
425 1
1360 1
636 1
1 1356
729 1
1 768
1 460
1 451
227 1
1 1224
1326 1
86 1
752 1
753 1
1072 1
196 1
1285 1
1094 1
103 1
415 1
1 846
983 1
578 1
1 1154
1 270
1297 1
797 1
1 238
1 1153
447 1
1 624
329 1
667 1
1286 1
1 488
843 1
1 564
281 1
1 142
1 902
535 1
703 1
257 1
410 1
1 1344
1 831
1 197
1 1053
194 1
1 193
1 357
1 1332
1 719
355 1
1254 1
927 1
1 792
45 1
1 576
924 1
180 1
1191 1
1168 1
77 1
604 1
1306 1
1 273
911 1
75 1
1 1370
1 104
1 1113
1202 1
1 356
467 1
1 1276
887 1
1 1161
957 1
1336 1
316 1
212 1
1 1268
736 1
989 1
1 246
5 4
954 1
1139 1
1342 1
1 724
1 523
766 1
1 385
1 895
427 1
1 1264
1 23
1301 1
1 287
229 1
55 1
1 1195
1 1034
1 1206
1216 1
1 1003
1 168
1230 1
359 1
394 1
1192 1
129 1
1 213
1 1080
1 1240
221 1
1343 1
319 1
1 726
658 1
1117 1
1 262
284 1
159 1
1 1016
1 627
1 1235
1 907
1237 1
233 1
1 1173
1 699
220 1
1 384
995 1
1305 1
391 1
1 702
1071 1
1 428
216 1
835 1
656 1
1099 1
665 1
1 1112
1 639
821 1
1 231
561 1
1 12
1 579
403 1
951 1
602 1
1 961
1368 1
1 779
965 1
943 1
841 1
1 814
1329 1
789 1
305 1
1 15
1 80
1 1088
1 950
614 1
964 1
778 1
491 1
1 874
1 758
176 1
1 72
560 1
41 1
1137 1
1187 1
738 1
1 980
1 1337
1 963
1 734
280 1
417 1
1 933
1 515
1 899
446 1
1247 1
1097 1
87 1
1 700
1 195
521 1
930 1
1193 1
1 1096
1 713
948 1
264 1
1 580
762 1
1067 1
871 1
1 327
1 184
1 1152
1 701
1 901
1 266
1 803
1 53
633 1
1 1026
973 1
1054 1
844 1
416 1
1 108
750 1
1 130
1262 1
1 151
1307 1
1 1233
796 1
1 393
1 541
1 11
1 775
526 1
1 164
1 816
582 1
530 1
1 893
940 1
1 190
1 666
684 1
1 690
1102 1
452 1
1089 1
1 10
1106 1
401 1
1 918
868 1
42 1
1 412
1 46
884 1
1 897
1 972
1 439
609 1
574 1
1 1366
773 1
1 1274
1 31
182 1
148 1
1 916
1 723
1 689
1261 1
1061 1
404 1
362 1
93 1
1 150
1 73
1 455
1424 324 4
1 694
1 296
1270 1
1 826
1178 1
1 813
486 1
159 1
863 1
1 562
293 1
862 1
511 1
1102 1
1 936
1379 1
1 442
1 98
1 747
971 1
753 1
343 1
563 1
1331 1
720 1
1054 1
1 997
525 1
1 330
1028 1
1 671
1 18
950 1
1 386
177 1
307 1
939 1
1 597
1 855
608 1
1 925
493 1
802 1
338 1
1 1190
387 1
674 1
1424 1
1 612
797 1
136 1
505 1
465 1
1 320
1 831
1 555
1 265
1 151
879 1
1155 1
1 810
990 1
1 587
1 35
1 268
149 1
1 1090
1 77
1 534
725 1
1 1319
1 204
1 425
301 1
790 1
1056 1
922 1
740 1
1 424
1 297
1 322
1042 1
1115 1
1 630
964 1
1 1229
1 1292
1 825
1 446
403 1
1114 1
1 1162
21 1
787 1
1 604
1 275
1 884
708 1
1 1226
856 1
1 256
1 795
1 955
1 337
1 356
702 1
494 1
1380 1
1236 1
1 488
1 580
1 647
1 178
353 1
214 1
749 1
1 463
9 1
1 1021
1098 1
1 932
1 841
112 1
1071 1
1 291
207 1
1 910
1299 1
1 409
1 400
1 323
1 1143
1 850
1 415
1294 1
1 7
1014 1
380 1
767 1
1 1193
38 1
756 1
1217 1
1138 1
1 904
281 1
1 1395
1 118
1 892
874 1
794 1
1 780
1417 1
1 1152
811 1
581 1
1 963
1 1156
1 508
1 706
423 1
1234 1
1 1225
775 1
723 1
1 1019
1150 1
1 1198
1 886
1 1101
1197 1
738 1
1 634
1227 1
64 1
1 586
1314 1
547 1
772 1
1 1221
1371 1
1 286
1 230
372 1
746 1
1313 1
1 1415
550 1
1 1405
1 1401
1 869
1 632
413 1
1 12
341 1
758 1
1 1055
1 577
717 1
561 1
1 1269
682 1
1 662
1 625
1 622
1137 1
1 969
333 1
453 1
1 33
576 1
1 1285
450 1
1005 1
263 1
744 1
1157 1
85 1
1 168
688 1
81 1
1 739
1 1375
1 1047
1406 1
986 1
172 1
1 294
483 1
724 1
961 1
202 1
1 669
517 1
1 1370
1277 1
1 977
1 161
1 1335
1 516
1349 1
1 1087
751 1
778 1
44 1
1 371
1286 1
1 237
1 764
1 24
1 59
659 1
1 236
1 1233
1363 1
314 1
1 288
1341 1
1 1274
1 48
1 815
1 848
976 1
1088 1
1 719
1 378
1159 1
1 1062
627 1
599 1
1 838
1 1354
1 321
1 399
1 469
1 1252
572 1
1 393
1 735
23 1
947 1
1 325
1 129
1 1267
1 107
1040 1
743 1
1 1015
1 1189
126 1
1 946
881 1
97 1
1 1049
1 82
1 611
520 1
1 57
1 771
1171 1
1 1025
474 1
1261 1
32 1
1245 1
1340 1
902 1
1 370
784 1
1 1058
1362 1
829 1
1388 1
1 583
716 1
833 1
1297 1
1398 1
1 696
2 3
1167 1
1 397
1 1223
1002 1
1 1402
92 1
377 1
1347 1
605 1
108 1
1 1275
529 1
1179 1
1127 1
1122 1
566 1
536 1
616 1
357 1
1 250
1103 1
153 1
1 1070
1 407
1238 1
500 1
1 560
883 1
1 834
1 900
1 615
20 1
1185 1
1418 1
1 1231
1 381
1 1045
1 588
365 1
633 1
1 299
722 1
1 402
1 285
1 1382
1121 1
1082 1
1204 1
1 721
1140 1
155 1
1 1018
1108 1
532 1
1148 1
355 1
1353 1
401 1
1 1337
542 1
1392 1
109 1
660 1
277 1
1052 1
779 1
1 1295
1 258
1 324
1 938
1 1264
352 1
452 1
942 1
1368 1
1 1202
1180 1
666 1
1 492
837 1
1144 1
1 40
1 235
970 1
1 1342
1 913
22 1
1067 1
1037 1
1 184
45 1
1 209
435 1
589 1
1 1351
1 99
540 1
1391 1
1 216
1 440
894 1
776 1
375 1
1086 1
4 3
1 788
1 225
300 1
1 342
835 1
1 1394
434 1
175 1
242 1
1046 1
226 1
187 1
490 1
349 1
1 1160
1 920
960 1
1 243
840 1
1 53
1338 1
1 269
1117 1
861 1
1 1390
558 1
683 1
1 311
1 1003
526 1
332 1
1 987
1 638
439 1
1243 1
1 67
185 1
799 1
1 132
931 1
1 1278
1 944
1 552
1120 1
1 507
158 1
880 1
1 1336
1333 1
1 359
1 482
94 1
437 1
1 916
363 1
1 785
1 52
1 241
1412 1
1360 1
1 1100
8 1
907 1
34 1
197 1
1 543
198 1
1 979
762 1
1263 1
1 1096
1 1196
192 1
1 84
887 1
582 1
823 1
1 1099
1 227
1 952
1 390
729 1
1265 1
571 1
1 140
1 1069
1017 1
1 992
1 429
1161 1
1 134
1 692
1 1385
1240 1
1 897
1 462
1 60
131 1
554 1
1032 1
1036 1
310 1
812 1
253 1
28 1
1 1145
1 1262
1083 1
498 1
1 49
1 90
200 1
1095 1
1 89
1 786
173 1
613 1
1 96
1 783
732 1
1 973
93 1
1123 1
1 1421
1029 1
978 1
274 1
1 1094
79 1
1 1414
1 213
1 533
37 1
709 1
100 1
1288 1
1 104
1 430
1 239
260 1
1 1079
506 1
1 620
1 1078
1 1235
593 1
405 1
367 1
906 1
1 618
1030 1
1 102
631 1
1 668
1 715
864 1
731 1
1 537
61 1
70 1
1293 1
73 1
1 873
215 1
1 467
1 752
1 1369
1 1289
1 1065
249 1
218 1
803 1
1 982
1 1276
1192 1
1 644
1 447
1093 1
116 1
1321 1
1076 1
1 142
1 1407
1 847
556 1
481 1
1 282
1 117
1 26
141 1
592 1
1 836
832 1
416 1
1 395
1 1366
598 1
1118 1
1 951
351 1
967 1
1332 1
208 1
1059 1
1 1126
1 427
528 1
110 1
882 1
1 221
1 733
1303 1
1 1187
1 130
860 1
1 994
1 133
1 846
1 1373
1 160
1 1158
27 1
548 1
909 1
1 78
1 391
1 1031
46 1
1149 1
1 270
1 914
489 1
1 1397
1 889
1218 1
1 1033
1 43
1 1365
444 1
1345 1
1 653
1 755
1 865
1 220
1 76
1 189
876 1
1 223
1 1411
1 808
1271 1
1 949
707 1
1 652
1 642
206 1
1 373
817 1
1 211
456 1
1376 1
287 1
656 1
1 1057
741 1
103 1
943 1
1 713
1 513
629 1
1174 1
1232 1
245 1
1 676
1 610
163 1
1 745
820 1
1 1001
1 935
1 396
143 1
1 1176
557 1
1250 1
1 945
1 1348
1 1010
1 896
1195 1
859 1
1 410
1 1035
531 1
1 1168
1 678
701 1
1 1328
146 1
1 63
1 805
1 1170
664 1
1 1066
137 1
17 1
1 1129
773 1
1 65
1 768
1 734
1092 1
1 639
1 458
272 1
1000 1
1084 1
119 1
336 1
923 1
1 1004
1 25
50 1
665 1
677 1
1220 1
1 765
1205 1
1 361
1 470
1 1215
1 680
1357 1
1344 1
1 1027
596 1
1 266
1287 1
1 1061
1 857
6 7
1089 1
1259 1
1 1324
728 1
1 121
1257 1
1 893
972 1
1280 1
1326 1
1 691
1 1107
105 1
1 383
1074 1
1 329
1182 1
1 578
1 908
1302 1
1 1308
1125 1
1109 1
1 1134
443 1
58 1
1 418
1 919
1077 1
1 1311
1 1323
54 1
635 1
807 1
1 796
1 259
579 1
1 871
1 591
1 601
1 621
1 74
1224 1
1026 1
1 1393
39 1
1 953
1 1124
1 194
661 1
926 1
1169 1
1075 1
1064 1
559 1
1 283
1 264
1 965
468 1
849 1
1 818
1 623
167 1
1 1011
918 1
1 145
441 1
88 1
1248 1
339 1
171 1
941 1
1 899
1 411
654 1
1 742
473 1
1 1219
1 1111
1 570
75 1
426 1
1284 1
1 1207
1 1172
663 1
687 1
1 1163
1 712
1 436
1 750
1060 1
1 1106
1 480
475 1
1 366
68 1
1 247
1 183
484 1
5 4
354 1
199 1
30 1
1 609
1 1091
502 1
1 335
1304 1
1330 1
1 1378
1 1281
1 710
1 144
388 1
113 1
1 858
1 345
1 921
1 271
138 1
1 684
898 1
1 1339
120 1
791 1
179 1
1020 1
222 1
240 1
1 280
1 1256
1 1273
1 2
1272 1
1 1105
313 1
1 1206
1 1203
1 845
1 157
1 890
1 658
1 66
368 1
1383 1
295 1
1 62
590 1
304 1
504 1
1 1023
530 1
364 1
1 1097
514 1
1 748
1 770
699 1
1 509
1 940
1 1043
1 1404
523 1
1 1350
1008 1
711 1
1 1410
1 736
348 1
455 1
948 1
689 1
317 1
1 649
1 1325
754 1
1 16
1 11
1 1255
1165 1
1 318
1 1268
1 1104
903 1
1 929
1 135
1 822
1 292
1 1317
539 1
1 975
1 602
704 1
681 1
1 328
87 1
614 1
1 867
344 1
1 774
853 1
1 830
1 449
1 42
1 169
1 737
1 1307
1 122
1 1283
1343 1
1 1282
1041 1
1 800
1367 1
55 1
461 1
1 254
29 1
1 106
1 186
974 1
1329 1
1024 1
1153 1
781 1
1131 1
1 148
1 13
1 927
1 1147
1 1072
485 1
1 1253
497 1
1 1181
1006 1
433 1
1 1422
176 1
1 491
1 535
1 139
1 782
759 1
1 641
1 1249
1420 1
1208 1
1 643
1300 1
1315 1
1 233
150 1
1 538
1130 1
954 1
1 651
1 937
267 1
700 1
217 1
1 340
1 843
962 1
1 210
1050 1
996 1
730 1
545 1
95 1
1 806
1320 1
1 464
1 123
777 1
152 1
1 675
41 1
1 798
905 1
1 1312
1260 1
478 1
1200 1
1 968
1 565
1 957
1 985
1051 1
541 1
91 1
1 459
1 1389
1 1358
1034 1
394 1
1184 1
1081 1
1 1251
966 1
205 1
15 1
115 1
1 1133
1 1298
1 703
1 1361
1 1318
422 1
1 376
306 1
261 1
983 1
1048 1
203 1
1116 1
1 19
1 877
193 1
888 1
705 1
1 331
1 998
1247 1
1 1408
1230 1
1356 1
1 1372
569 1
1 302
1 1296
1 232
1 636
1306 1
1 382
1241 1
360 1
1 670
196 1
1 290
392 1
617 1
1 180
851 1
1 165
1 1080
875 1
714 1
398 1
1 31
1022 1
1 757
1 457
1 251
273 1
1 995
1 519
1 1399
901 1
1 1199
637 1
1 212
1 71
1291 1
1 1132
1 793
1 417
385 1
1 86
1 248
1 655
828 1
789 1
1 1305
1 844
1 1416
512 1
1044 1
1201 1
1053 1
1 1242
989 1
1 384
309 1
128 1
575 1
726 1
1 334
958 1
1246 1
792 1
1423 1
515 1
1 574
606 1
695 1
1 471
1 228
1 181
809 1
1 1173
1 626
166 1
1 690
1166 1
1211 1
1191 1
56 1
1 101
1 1364
362 1
624 1
1 404
801 1
51 1
1 991
1 231
1386 1
1 761
1 47
1 821
1 1352
1 1164
1 1119
1 1016
1 350
1 718
190 1
584 1
252 1
219 1
1 460
1 693
521 1
1 503
174 1
1403 1
279 1
499 1
1 406
1 431
1 650
1 1254
1 1183
603 1
1 959
316 1
1 1384
319 1
1355 1
1 585
1 1346
1 727
1 238
1139 1
1 308
1213 1
1 933
1 195
1 501
1 278
866 1
1154 1
1 419
1 111
672 1
1209 1
1 1216
1 201
872 1
1 479
1 191
1 988
1 546
1 567
1244 1
346 1
568 1
1 170
1 1279
1 619
1 1316
595 1
1 911
1 885
448 1
289 1
466 1
487 1
1 956
1 476
1 816
1 472
980 1
1 895
1 1419
928 1
312 1
246 1
673 1
1 454
262 1
553 1
1 1212
1 984
36 1
1 763
1396 1
374 1
1 69
839 1
1009 1
421 1
1 414
1 607
154 1
930 1
1387 1
1 999
1 645
1239 1
1 1039
1 698
420 1
769 1
6 5
1 244
1 124
162 1
1013 1
1334 1
1 924
648 1
760 1
1 1214
1 127
1151 1
1 993
1 347
1413 1
1 1038
303 1
1 1194
1258 1
1 518
564 1
1 224
1 1113
1 912
1 72
1 814
432 1
854 1
1 852
1 80
156 1
594 1
1 1381
917 1
1 257
1136 1
1 389
868 1
1 229
1 369
1 305
1 1228
1 234
1222 1
10 1
276 1
495 1
1 182
1322 1
1 1409
1 284
1 878
527 1
1085 1
1 524
1 1310
1 697
1400 1
1 1142
842 1
1 915
685 1
827 1
1 1146
1068 1
327 1
1266 1
1 1186
1 766
1374 1
646 1
1073 1
164 1
1 1112
1177 1
1 1210
1 408
147 1
1309 1
1 628
1 1012
188 1
1 14
1 981
1 891
1141 1
824 1
445 1
1 934
1 114
600 1
1290 1
1 1175
1 412
1 544
657 1
326 1
298 1
1 315
1 510
1327 1
438 1
686 1
358 1
1377 1
1 804
573 1
870 1
1063 1
1 477
1007 1
549 1
1 125
1 819
667 1
679 1
522 1
1 1301
1359 1
1110 1
1 1135
428 1
1237 1
1 1128
1 496
379 1
255 1
83 1
1 640
1 1188
1 551
1 451
1826 650 3
1 1730
524 1
1509 1
1 129
314 1
923 1
1 500
1 765
1 1117
180 1
1771 1
1 16
1 1598
1 1308
1 1136
1619 1
1 360
1 1761
1 449
1 1344
973 1
1032 1
1 549
927 1
1 1378
1 1580
1810 1
1640 1
1653 1
573 1
1303 1
1 9
1 1743
915 1
867 1
669 1
754 1
1 970
1 1577
1 139
1334 1
1 703
1 1461
1 164
1 856
1479 1
1196 1
1 1612
551 1
1 363
1679 1
1 1267
809 1
1 178
1 132
899 1
1 18
1 1019
1222 1
1800 1
1148 1
1 557
1 881
672 1
1536 1
502 1
1733 1
1 1663
751 1
234 1
1 175
1 1346
1 653
1 1175
621 1
1 483
1 1342
801 1
616 1
1 172
1 555
1169 1
1722 1
1335 1
225 1
95 1
1 339
1 8
1734 1
589 1
1 158
1 144
1 1562
1 1687
1490 1
519 1
1 749
1 1315
1511 1
1 1408
1155 1
1258 1
1 52
1 1543
1 1779
1452 1
1 499
1 782
1 1105
1 1226
548 1
1354 1
1 987
1 294
1 1228
1328 1
1 607
1260 1
1 1364
746 1
537 1
7 1
1079 1
615 1
246 1
1501 1
1807 1
1 1231
681 1
1124 1
986 1
1 165
1 1753
1 1758
319 1
1 1330
1 1241
1284 1
1510 1
1 1003
1 576
1 1684
1 1822
1 823
1 1325
1 364
1 17
1 596
1575 1
1 1558
1 1711
1647 1
1 512
1 109
1 1697
969 1
1590 1
1 450
62 1
982 1
1 1738
87 1
1170 1
427 1
687 1
1199 1
1 949
708 1
1554 1
931 1
704 1
1 724
771 1
813 1
1 1667
1 24
1 971
1522 1
1 814
1 876
1140 1
1 916
907 1
1 928
159 1
636 1
1 1573
1014 1
1 1086
1 1177
309 1
1 468
1 1592
474 1
1709 1
243 1
1 967
1 766
1 1138
1 204
465 1
826 1
1 1269
1804 1
1 710
950 1
1 532
1 276
230 1
30 1
279 1
1 1703
1035 1
1749 1
1024 1
1 167
566 1
1 1257
1708 1
1429 1
1613 1
1622 1
700 1
481 1
995 1
1210 1
1 1559
1 639
1527 1
646 1
1 756
1276 1
608 1
1 624
1 659
1705 1
1 1526
1642 1
1 192
1 59
617 1
1020 1
514 1
264 1
267 1
1 1060
1 1607
1 1696
1 1512
852 1
1 250
464 1
1 1495
1066 1
1 456
1 1130
1 709
768 1
1624 1
1707 1
1 1316
66 1
1 1472
1098 1
1 1262
1 1055
1 1157
354 1
42 1
1805 1
1 1819
1279 1
1 1213
104 1
1 166
53 1
1 338
1 1145
598 1
1 71
193 1
1 822
1 650
1 1005
759 1
1 413
1092 1
1 886
1 1114
1 629
1 245
1375 1
1 332
1529 1
379 1
1034 1
1327 1
1 1197
1382 1
1277 1
64 1
1 630
1 1630
1740 1
1 1623
1323 1
900 1
1746 1
649 1
1 1686
1 437
1352 1
1 863
1 1695
1 1442
1045 1
1 355
1 1007
1 1440
1 1266
1422 1
1 1356
1 1454
1 1764
375 1
221 1
205 1
1366 1
186 1
1750 1
990 1
29 1
376 1
419 1
1202 1
1 280
1 1485
1 1120
1 655
1 1615
1 597
1 802
1 544
1 287
791 1
337 1
199 1
1689 1
752 1
1665 1
261 1
1 1448
1 1062
1 147
88 1
1 4
1006 1
1093 1
819 1
1 487
1 407
699 1
1 176
1 1792
599 1
1 163
25 1
209 1
1 387
1636 1
570 1
1 600
868 1
1370 1
983 1
1 830
1305 1
1 715
1789 1
122 1
1 1816
660 1
1 960
1788 1
1 1692
1040 1
1 1720
2 1
1476 1
680 1
1664 1
748 1
523 1
1251 1
1 458
1166 1
743 1
1798 1
1 352
1 56
1023 1
1 304
845 1
1793 1
1134 1
177 1
140 1
1 579
1 433
678 1
1 385
1 1602
1739 1
1 397
1 238
1 1363
1107 1
386 1
1 493
1660 1
1 796
1379 1
1074 1
677 1
1 1041
1 1103
1423 1
1826 1
731 1
1 1662
1 75
1 72
448 1
168 1
1 183
96 1
485 1
1399 1
130 1
1 134
1 542
1549 1
1 498
1 1637
1 556
1288 1
1 1144
679 1
1 80
1 1299
6 1
1 1013
1 1783
1 1295
591 1
1 805
1 438
108 1
1137 1
1336 1
1 219
1 1458
1195 1
1372 1
1268 1
1 588
1 1360
1516 1
1 972
811 1
1567 1
1 1414
1 32
1072 1
1 1139
1 1201
1 644
1 197
1 79
1397 1
1 1436
1 170
571 1
393 1
1 767
1 1217
358 1
1401 1
1 290
395 1
1412 1
185 1
1067 1
202 1
1 504
1645 1
1 1762
1 295
1 416
191 1
1404 1
1171 1
1 501
1474 1
797 1
719 1
693 1
161 1
1721 1
1 718
1 1301
1 434
1 776
248 1
1 457
1 582
882 1
1 300
1 529
1274 1
1 1791
1 569
1297 1
1 1152
1428 1
136 1
1 1416
1 686
536 1
1 1189
1 440
1 977
1 936
1 775
1 1064
1182 1
1 587
1289 1
420 1
114 1
1181 1
1088 1
647 1
763 1
1 610
1 595
1 1809
1 490
1 1230
1 63
1 342
1 1043
1 208
1 663
737 1
1 1671
1 408
1 1142
1 674
1238 1
1 83
1801 1
1 821
614 1
1319 1
1 1265
1002 1
1149 1
1 310
1320 1
1 1061
1332 1
1 1754
15 1
1 1083
1 47
1465 1
1 706
1292 1
1 1584
1 913
1594 1
1 879
733 1
769 1
1 371
1047 1
1 1786
1 1781
1770 1
1537 1
1 908
1 1698
1 1049
1491 1
1 878
1 390
1 27
1275 1
862 1
1 1670
1 872
1 590
1 662
1483 1
1 1118
1247 1
1676 1
1 322
1173 1
1084 1
48 1
381 1
836 1
1576 1
1737 1
1392 1
1 266
1 1113
1759 1
312 1
734 1
1 534
910 1
1 1649
251 1
1601 1
1 1504
50 1
1 603
1 892
341 1
1 1757
462 1
1 1198
1 1625
1 861
1 1651
43 1
947 1
373 1
1 1036
265 1
1643 1
141 1
194 1
725 1
1 567
1 46
1 1528
1 1027
1 953
1 224
817 1
642 1
269 1
1135 1
1 1004
1517 1
887 1
721 1
1 70
1 988
1 816
51 1
844 1
1 1106
716 1
1264 1
1 1811
1421 1
1 217
1 1481
580 1
1 486
1 1599
1 1381
1 446
1 665
1 378
1 1026
1776 1
1 402
1755 1
1460 1
272 1
1 1765
930 1
1 1634
1 1212
1 1273
1 1240
531 1
103 1
1505 1
155 1
1 1541
959 1
847 1
1 944
1 156
232 1
1 1713
1 401
829 1
1 564
1 1341
670 1
1 1571
898 1
1 254
1 146
1089 1
1 1628
1588 1
1 609
935 1
1 1735
1 1039
1593 1
1507 1
1351 1
1 1192
201 1
1790 1
1 720
778 1
135 1
1 1641
1 425
574 1
1018 1
1 1048
1 1050
1 702
189 1
1542 1
713 1
296 1
1 870
1 503
1367 1
1 1443
1090 1
1 1420
1 443
1604 1
1 941
1 359
1 28
1 785
1 989
1433 1
1 346
1 869
688 1
712 1
1659 1
1355 1
1 934
1 353
800 1
640 1
36 1
1 889
1317 1
1 1076
54 1
340 1
788 1
1 1570
1 394
69 1
1 1386
31 1
1 1151
190 1
1 1455
1 330
1 1773
1 958
1 625
482 1
451 1
1 118
736 1
1635 1
1 999
1 1085
1 526
430 1
1447 1
1646 1
1 890
1185 1
1712 1
1 1603
1763 1
1 13
1555 1
1 506
1 432
1 747
475 1
1209 1
1610 1
1 463
1 323
1462 1
1 547
1 361
1 1678
1 1723
1817 1
1407 1
1 412
1 196
1 10
1 998
1310 1
1 1521
1 137
2 3
1 1347
1 1281
1 1095
367 1
480 1
1 1187
1742 1
1 1796
329 1
1 1752
1280 1
1 1693
1503 1
1 1115
1 1063
1500 1
1 11
275 1
1685 1
1 94
237 1
1 1531
581 1
1 1815
1449 1
1 1439
1 90
1 812
1 1547
1 729
1402 1
1255 1
1 396
1538 1
1535 1
1513 1
1 1376
1 515
1 428
1597 1
241 1
1523 1
1178 1
1 974
1294 1
985 1
1 946
1104 1
406 1
546 1
1814 1
1 1254
1 937
1672 1
435 1
195 1
68 1
1 611
1702 1
262 1
1 1324
783 1
942 1
1 1824
1 285
60 1
1 1633
1 955
1 943
1 418
1825 1
1450 1
1 414
1694 1
1551 1
1 787
1111 1
685 1
213 1
1 1534
902 1
511 1
1426 1
1021 1
1 1470
738 1
1174 1
1 106
1 128
1237 1
429 1
93 1
479 1
1 1499
1532 1
1318 1
1 1453
1 584
368 1
1 1524
86 1
843 1
1 417
1464 1
1 333
1 922
206 1
1 562
1 370
1 976
741 1
1445 1
740 1
1 1395
1 426
117 1
1 400
297 1
1 1606
153 1
111 1
1 906
828 1
612 1
1 1384
1 1620
1 453
984 1
664 1
1 1741
1 633
658 1
174 1
1 1487
1 962
1 912
1 454
1 382
214 1
102 1
328 1
1591 1
1 5
327 1
110 1
1 1728
1249 1
1 173
320 1
1 895
113 1
635 1
220 1
1 911
964 1
325 1
1204 1
1 1497
1 996
1 1574
1498 1
961 1
422 1
698 1
1 1725
1 1046
1 439
1 739
1666 1
335 1
1 471
1 1767
1745 1
1056 1
1 58
682 1
1 162
1 656
1 1208
1075 1
1 904
1 476
1459 1
1 1564
281 1
1245 1
1 289
1 228
543 1
239 1
150 1
901 1
619 1
1 1350
1661 1
1 1486
690 1
1179 1
1506 1
1 253
1731 1
1411 1
311 1
1 1239
1070 1
1 1309
1 745
1 1477
538 1
1586 1
1 648
554 1
1 1794
1587 1
1 1112
1022 1
1087 1
1 49
1082 1
1 1484
1 1631
1 389
1383 1
1 1700
993 1
1 343
1 1756
398 1
1 452
1009 1
1 645
1385 1
1 77
1 781
1618 1
1 925
1 1717
1 1143
1 1121
552 1
1 1101
1207 1
1 1393
1 1673
318 1
545 1
1 1799
1 218
535 1
1 1172
1097 1
1766 1
1 1578
1 1028
148 1
1 897
1519 1
997 1
1 871
99 1
1 1774
74 1
356 1
1 1025
1 35
1617 1
1 893
1 627
1 1561
1 1100
1775 1
966 1
1 525
1183 1
1 723
1582 1
1 945
1 1396
469 1
1 488
1 41
1369 1
1 271
1 714
1 583
1 351
1244 1
701 1
1675 1
1 550
222 1
1 347
1 1544
577 1
1 260
1 1768
1 578
1337 1
1 1744
1 1065
795 1
794 1
1 1691
1 1054
1 1205
1 1432
152 1
1609 1
1 179
1 306
692 1
592 1
654 1
1611 1
1553 1
750 1
1 641
1 126
1400 1
210 1
1326 1
1 478
1 684
1 1071
1520 1
1 282
1 594
133 1
1 601
1 560
1 1425
652 1
1 896
1 1250
1 1359
857 1
1 866
1 696
105 1
1654 1
1565 1
1358 1
268 1
1 1478
1 1655
938 1
533 1
559 1
1 772
1 1518
1 78
1 722
1068 1
1306 1
1 127
1 807
1406 1
694 1
1 676
1 1176
1 1690
875 1
667 1
1 1221
1682 1
1 1080
1572 1
818 1
1 1427
1 101
528 1
1 1044
1 277
1 1657
1 894
1 606
963 1
344 1
1 84
1 143
1 1650
1272 1
1438 1
489 1
505 1
405 1
513 1
865 1
1 940
123 1
1502 1
1 1787
1540 1
1 673
717 1
1 345
1 149
91 1
182 1
1 742
1 203
1 975
510 1
1 926
1 954
1 380
1550 1
1556 1
1 521
257 1
1 26
1 1413
1 293
1 1127
1688 1
1 1339
61 1
789 1
1 372
431 1
1296 1
1 726
1 860
1 1161
891 1
1803 1
1 1162
1508 1
3 4
40 1
932 1
169 1
1 1621
1008 1
445 1
1 120
1291 1
1 1797
851 1
1 1282
1186 1
1 1595
1 1515
1348 1
1 1494
1387 1
1 461
1417 1
1374 1
1 1533
67 1
284 1
1415 1
1 1802
1 565
1 1683
1716 1
518 1
81 1
299 1
691 1
1 1283
1223 1
1 1441
1 884
1 1058
784 1
1 1403
711 1
634 1
1 1437
1658 1
1 1710
1 1566
235 1
1150 1
1 1388
1 1029
1302 1
1 1256
1 1818
1 1748
1391 1
421 1
1 286
1081 1
1 278
1141 1
1727 1
1 994
1 1736
273 1
1 575
291 1
1 1545
1 1220
1 1546
1 888
833 1
1 1313
145 1
1 1168
1164 1
1 1119
1563 1
744 1
1037 1
837 1
1 1747
1 1122
1133 1
1 497
441 1
1 1233
1 1278
1410 1
618 1
804 1
244 1
798 1
1 1329
34 1
1 675
37 1
632 1
415 1
1 44
1290 1
1102 1
1390 1
1 1493
541 1
919 1
1632 1
1600 1
808 1
1 1108
1569 1
303 1
184 1
1 1252
1011 1
1456 1
1380 1
1 1300
1 849
1 229
1 1211
321 1
1165 1
1218 1
1 516
1 324
1229 1
1 1560
1760 1
623 1
643 1
924 1
1 779
1 1038
1644 1
1 19
1365 1
1235 1
1784 1
1 1780
1094 1
1 695
1 1821
1475 1
602 1
1073 1
98 1
914 1
369 1
840 1
1471 1
1 492
1 171
1451 1
65 1
1 827
1 55
903 1
1 33
1568 1
484 1
1132 1
215 1
1270 1
859 1
1714 1
207 1
467 1
116 1
1 1203
1639 1
1 384
1 762
1482 1
1583 1
1 1795
1 1033
1 495
1 585
850 1
792 1
1525 1
1 820
1 1473
1 1110
1 21
142 1
1480 1
473 1
1 810
1 835
1322 1
1 249
753 1
57 1
1 1271
1 1016
1677 1
1069 1
1190 1
1180 1
1 97
1 1823
496 1
1 362
1 705
1446 1
1293 1
1 651
1 1681
1 357
1 1015
761 1
1147 1
211 1
1 874
1 1156
883 1
1 1167
1307 1
1 349
20 1
1 1648
1 1333
1 1304
1405 1
764 1
1 1656
23 1
442 1
131 1
1 638
1638 1
1 1704
854 1
1466 1
1 259
727 1
981 1
831 1
1680 1
1 968
917 1
1116 1
1146 1
1 1078
1 409
1377 1
411 1
256 1
1 777
1 1362
477 1
1 1514
873 1
1 957
1806 1
1769 1
1194 1
1 263
1 39
1 1719
1 1123
1467 1
1 939
1 274
858 1
1285 1
1 424
1 1000
1109 1
388 1
1 336
1 226
1 89
628 1
1 666
1 1158
1 622
236 1
138 1
864 1
1548 1
1053 1
1 1552
1530 1
1 1468
956 1
558 1
198 1
1 1581
1812 1
1706 1
905 1
1 1674
1 212
1496 1
298 1
728 1
1 1163
1 689
1 1353
423 1
842 1
1 1219
1 455
1 1718
82 1
1 637
22 1
1 1200
1234 1
1261 1
1732 1
735 1
1 1457
1 1820
1099 1
1 307
1 1338
247 1
1 1243
1 188
1 1435
1 1701
308 1
1 403
1 1434
1 1321
539 1
112 1
1 1077
929 1
1 1312
755 1
1154 1
825 1
107 1
1 527
1 1188
841 1
1 1626
242 1
1 216
326 1
1 1159
1614 1
1808 1
553 1
1 1785
757 1
605 1
1 707
1596 1
1 223
1 1091
626 1
1 1373
1 1184
1 447
593 1
1 1131
1 530
1608 1
125 1
1 978
1 563
374 1
1 494
1 383
1 586
1311 1
1 1030
1343 1
472 1
1 1287
1051 1
1 1031
1605 1
1 1782
1 252
604 1
1128 1
1242 1
877 1
951 1
1 151
1 520
1001 1
1 233
365 1
124 1
1 187
1 92
317 1
790 1
1 853
1286 1
1539 1
1724 1
1248 1
1 848
1 460
1 631
1 561
1206 1
773 1
1126 1
1 661
1772 1
1 1777
1430 1
834 1
1 1010
1 1726
1579 1
1 815
1629 1
1 918
1 668
1 1160
1225 1
315 1
1 979
1 1361
1 909
509 1
1 1668
391 1
1 1699
115 1
1 1389
1 1153
1 838
1 508
671 1
1345 1
920 1
1059 1
305 1
1585 1
1224 1
793 1
1 806
466 1
1 1349
1431 1
1 270
1 1057
200 1
1 227
921 1
1 1129
1 1193
1 1669
1 1778
1 302
1368 1
444 1
1 1463
1052 1
1232 1
1419 1
1263 1
1 1215
1 786
1 657
1 885
1 780
799 1
1 410
1331 1
1 38
1 181
1 1371
568 1
760 1
1627 1
1 1236
846 1
121 1
732 1
1 100
855 1
1 1492
1 45
1 436
880 1
1 1096
1 839
301 1
1 292
1 377
119 1
1 1259
1 1314
1 770
1 572
1 1246
1 350
76 1
1715 1
952 1
1 1216
459 1
697 1
1 933
491 1
1 1042
1 157
1125 1
683 1
1 258
1 288
1 1191
1 334
758 1
331 1
1729 1
1 992
991 1
1 1652
1 392
1 522
1 1616
231 1
1 1398
1469 1
620 1
965 1
1 1012
730 1
255 1
348 1
160 1
283 1
1 1488
1 73
1 1214
1557 1
1589 1
1253 1
1 1418
1 1409
1 316
1 1394
1 1298
1 404
613 1
1 1444
154 1
1 832
1 399
948 1
12 1
803 1
85 1
366 1
540 1
1 507
1751 1
1 470
824 1
980 1
774 1
1 14
1 313
517 1
1813 1
240 1
1017 1
1 1424
1 1357
1 1227
1 1489
1340 1
1080 98 3
1 524
1 350
305 1
3 2
1018 1
1 884
1 691
542 1
1 150
992 1
655 1
945 1
373 1
1 109
579 1
1 813
777 1
769 1
455 1
38 1
1 828
1 920
1 124
626 1
976 1
1 145
1 811
518 1
661 1
133 1
1 625
1 467
1 240
1034 1
1 215
125 1
1 860
1 547
233 1
643 1
1 1035
567 1
1 710
1 943
472 1
1 129
1 1021
1 160
1 302
1 707
716 1
1 159
1 904
476 1
666 1
1 979
25 1
1 389
303 1
65 1
1 936
703 1
1 580
1 836
479 1
72 1
1 101
1 161
849 1
903 1
1 857
136 1
810 1
176 1
106 1
512 1
268 1
1 442
332 1
1 399
382 1
1 521
1 142
214 1
935 1
30 1
1 827
552 1
288 1
1031 1
501 1
42 1
11 1
1 947
1 897
1 1014
1 506
1 569
1 434
135 1
26 1
1 812
319 1
1061 1
1 1071
40 1
424 1
1008 1
59 1
1 189
663 1
603 1
1 297
1 789
671 1
1 444
1025 1
241 1
1 41
1 786
765 1
1 1024
1046 1
682 1
1057 1
1 656
152 1
929 1
1 1069
70 1
533 1
1 130
923 1
517 1
321 1
1 914
1 845
737 1
92 1
1 918
223 1
419 1
1 627
1 896
1 351
1 298
1053 1
1 391
1 952
1 1027
1 329
425 1
483 1
938 1
1 371
1 381
174 1
194 1
1 994
740 1
219 1
585 1
602 1
307 1
345 1
104 1
1 380
870 1
504 1
1 431
919 1
1 1070
758 1
1 571
1 825
1 893
1 502
1 622
1 908
1 948
1 154
392 1
1 238
1 541
1 1055
1 490
594 1
1 497
289 1
1 85
950 1
1 480
763 1
1012 1
1 851
1 752
1 1065
37 1
53 1
1 416
493 1
1 523
477 1
1076 1
1 822
126 1
705 1
1 559
1 797
1 573
1 1066
986 1
420 1
296 1
120 1
1 726
526 1
1030 1
1 939
1 201
1 98
1 293
1 874
1 20
753 1
76 1
676 1
611 1
361 1
1 891
1 1077
1 143
968 1
1 275
1 341
411 1
563 1
1 404
1 462
1 74
770 1
1 754
141 1
1 869
1 808
1 645
28 1
1 620
301 1
1 1026
1 514
1 264
774 1
1 44
1 432
88 1
793 1
1003 1
1 375
1042 1
1 702
531 1
639 1
1 742
413 1
466 1
1 985
1 699
1 911
1 821
1045 1
309 1
1 360
1 601
1047 1
229 1
1 478
157 1
781 1
604 1
972 1
107 1
1 963
1 290
520 1
454 1
372 1
1 667
470 1
704 1
1 222
252 1
1 530
448 1
80 1
590 1
1 956
1 1017
1 632
967 1
1 54
829 1
505 1
347 1
1 165
863 1
615 1
1 495
402 1
1048 1
1 428
1 34
256 1
195 1
1 871
1 248
1 1059
843 1
422 1
388 1
1 959
1 1029
895 1
1 75
410 1
607 1
243 1
7 1
86 1
438 1
759 1
848 1
965 1
729 1
949 1
461 1
1 279
595 1
1 951
610 1
1 782
1 565
496 1
108 1
330 1
646 1
60 1
1 624
1 778
1 587
1 414
1 439
1 794
1 955
1 536
1 819
1 760
468 1
915 1
314 1
717 1
1 175
1 877
1 807
249 1
1 128
768 1
592 1
1 68
376 1
700 1
45 1
1 57
363 1
913 1
210 1
1 131
973 1
1 153
1 270
1 605
1 511
1 766
1 1020
1 749
1 254
925 1
112 1
110 1
886 1
1 299
1 415
1 179
1 608
324 1
492 1
191 1
146 1
1 284
1 494
806 1
1 712
1 449
784 1
792 1
1062 1
95 1
271 1
1 982
516 1
481 1
17 1
169 1
1 368
232 1
1 637
1 193
1 589
377 1
859 1
1 641
383 1
261 1
1 49
1 304
1 315
634 1
251 1
1 230
681 1
469 1
316 1
10 1
1 888
991 1
901 1
1 266
800 1
69 1
1 2
543 1
560 1
1 84
231 1
1 981
1 564
711 1
1 139
1 291
460 1
1 713
1050 1
355 1
1043 1
24 1
941 1
1 6
1 1075
500 1
1 738
43 1
1 151
1 234
1 892
1 816
1 670
1 577
62 1
162 1
554 1
82 1
1 529
365 1
1 458
988 1
1 835
328 1
178 1
654 1
295 1
1 1063
1 696
887 1
1 866
285 1
684 1
1 905
674 1
1 757
123 1
1033 1
1 728
953 1
1 340
1 118
140 1
1 445
1 423
1 23
1 181
1 99
1 236
1 961
1 327
1 609
1049 1
197 1
1 489
1 1019
111 1
1 586
1 77
1 798
1 762
1 917
199 1
1 631
1 207
292 1
137 1
39 1
486 1
433 1
1 907
937 1
1 473
1 370
421 1
847 1
412 1
357 1
583 1
1 910
158 1
114 1
1 186
727 1
148 1
237 1
878 1
815 1
378 1
889 1
1 509
1 804
1 156
1 635
1 168
1 453
989 1
998 1
1 163
1 147
1 67
581 1
105 1
450 1
1 767
276 1
182 1
1 242
1 672
1 868
1040 1
1 779
741 1
1 435
1 714
1 688
1009 1
1 183
446 1
1 317
1 572
1 13
1 593
650 1
132 1
1 171
1 995
613 1
250 1
1 990
258 1
940 1
799 1
1 50
1 756
1080 1
510 1
1 751
1 642
647 1
1 598
675 1
90 1
1 8
427 1
1 617
1 678
32 1
861 1
885 1
881 1
255 1
417 1
1 771
818 1
149 1
318 1
1 999
1 485
9 1
1 721
683 1
958 1
308 1
960 1
1 272
138 1
1 97
964 1
1023 1
1 578
1 664
1 902
1 962
1 491
1 744
1 336
1 172
539 1
348 1
1 535
93 1
833 1
46 1
488 1
1 198
883 1
692 1
1072 1
73 1
1 192
320 1
184 1
1 556
865 1
1 33
1074 1
1 397
386 1
278 1
1 177
733 1
1 698
839 1
323 1
1 456
527 1
173 1
100 1
447 1
1 1022
1 452
1 228
1 401
1 244
1054 1
1 464
1 127
359 1
549 1
1 718
1 680
970 1
116 1
1 35
395 1
1 326
1 221
14 1
1 122
1 224
826 1
568 1
1 540
1 81
220 1
1 205
1 830
1073 1
1 484
1 606
96 1
1 144
832 1
1 831
686 1
790 1
787 1
1 352
1 103
980 1
791 1
522 1
213 1
773 1
1 930
1 736
855 1
1 1056
94 1
48 1
776 1
1 975
333 1
1 1004
1 687
283 1
1 659
1 685
987 1
1 996
482 1
203 1
1 974
1 669
353 1
1 934
170 1
1 922
599 1
1 873
185 1
1002 1
575 1
600 1
263 1
1 734
1 709
719 1
1 27
1 537
743 1
1 755
640 1
1039 1
1 731
1 722
89 1
3 4
1041 1
475 1
1 715
983 1
695 1
1 629
1 853
1 306
856 1
649 1
206 1
900 1
405 1
300 1
1 71
1 286
102 1
1 190
1 944
1 875
706 1
1 724
1 697
1 119
550 1
1 188
809 1
879 1
1 346
1 644
844 1
1 928
1 204
196 1
1 854
1 79
1013 1
528 1
1 574
1 538
1 187
1 31
209 1
1 912
984 1
890 1
459 1
403 1
83 1
628 1
1006 1
58 1
1 977
1 4
834 1
1 379
1 862
1000 1
1 927
47 1
409 1
1 817
1 1058
19 1
1 909
748 1
1 633
1 246
1 1005
325 1
260 1
658 1
331 1
1 499
55 1
1 576
588 1
720 1
343 1
1 1010
155 1
745 1
725 1
876 1
1 36
1 503
1 259
117 1
746 1
1 882
166 1
364 1
430 1
1067 1
1 566
750 1
437 1
367 1
1 921
167 1
338 1
591 1
498 1
1 280
164 1
369 1
334 1
18 1
1 385
180 1
1052 1
1 287
803 1
358 1
926 1
436 1
1 561
216 1
1 872
507 1
362 1
1 265
225 1
1 824
311 1
1 823
1 558
946 1
1 200
1 1038
1 838
1 115
1 218
463 1
597 1
1 56
1 1011
1 708
1 993
1 337
1 398
1 16
1 208
1 1078
735 1
801 1
651 1
322 1
1 262
924 1
1015 1
772 1
761 1
1 273
837 1
534 1
1 441
1 546
1 253
850 1
1 408
1 471
1 788
652 1
969 1
1 864
785 1
1 701
134 1
1 1064
21 1
1 294
310 1
274 1
1 513
1 555
1 508
1 15
867 1
679 1
1 217
1 418
394 1
1 465
5 1
1 356
1 66
562 1
1 12
1 623
802 1
584 1
732 1
1 443
1 61
1 747
1 52
212 1
1 396
1 557
795 1
457 1
1 957
1 612
1007 1
407 1
1 648
1 570
1 113
630 1
211 1
1 63
1028 1
1 247
1 548
1 344
1 245
1 553
1 677
1 342
614 1
1 374
1 978
339 1
805 1
1 894
1 783
29 1
366 1
841 1
775 1
1 1032
1 545
1 852
429 1
1 931
660 1
1 226
1 267
1 596
1 657
846 1
121 1
1 78
1036 1
1 966
1 880
1 636
1 933
840 1
1079 1
277 1
618 1
1 971
898 1
932 1
1 227
1 239
1 400
406 1
440 1
269 1
954 1
1 916
312 1
1 1001
87 1
426 1
390 1
694 1
1 202
1 668
91 1
1 335
1 796
1 525
1 780
544 1
814 1
858 1
1 282
393 1
551 1
1068 1
1 451
899 1
689 1
1 662
22 1
1060 1
621 1
349 1
619 1
1 313
739 1
842 1
1 1044
1 387
1 997
730 1
51 1
1 764
820 1
1 354
1 638
1 257
1 281
1051 1
515 1
64 1
1 690
519 1
1037 1
1 616
1 673
653 1
1 532
474 1
723 1
487 1
1 582
1016 1
384 1
942 1
1 693
1 665
235 1
1 906
1980 1284 4
1 709
295 1
1409 1
1849 1
1105 1
1 1719
338 1
1 1563
538 1
1 590
1 430
1128 1
276 1
1 1583
1 1250
1 979
1 848
614 1
1 675
837 1
799 1
1 602
1 1386
1 1027
636 1
1 580
1 317
1 859
1 1753
1226 1
1 1062
1 134
741 1
853 1
1 787
1 1124
1568 1
745 1
1 92
1 775
1 998
1593 1
1627 1
1407 1
1 1059
1 1316
1 1873
1 1246
1 1967
1511 1
1 927
1 1933
1 663
1000 1
1414 1
1 199
126 1
1 403
845 1
912 1
1693 1
1 387
1240 1
1 625
1 1075
193 1
354 1
1713 1
287 1
1217 1
1 1923
1 953
816 1
883 1
1 11
715 1
1 424
1 1180
1625 1
1612 1
1 524
954 1
1 739
1 692
1628 1
1 919
1 763
1 1294
235 1
1 368
1 493
410 1
1 555
1 650
1878 1
622 1
1 1449
1 1596
553 1
436 1
1 1939
698 1
1 920
1 710
1 1253
1 1505
1 1644
1 1737
1 1843
1 1808
1 1799
1 374
1 1042
283 1
1 1493
1 1558
342 1
1595 1
1771 1
1 377
1 1580
1 1962
1 1979
17 1
1 508
1 218
191 1
1 684
1 1243
1 1704
326 1
1 606
168 1
1 554
291 1
1 1069
1363 1
1 1247
1494 1
828 1
1 22
1 1044
1 1304
1157 1
1574 1
1607 1
1 1502
1 392
1 50
530 1
1 1130
1 1185
1 721
1115 1
431 1
64 1
1 30
734 1
1 1387
1179 1
1 1566
59 1
1 1955
1 67
1377 1
1 1488
1 1510
1 1283
499 1
1683 1
1 1290
265 1
1 10
449 1
1 1376
1030 1
1254 1
1877 1
1054 1
1 195
644 1
1787 1
1 495
465 1
1 213
1 1329
1077 1
1 1219
1 1402
1 1328
1610 1
419 1
1 442
1 1114
1 87
483 1
1710 1
1312 1
1 252
1 1015
1535 1
1859 1
1555 1
1893 1
546 1
1 1746
973 1
1 1292
948 1
1467 1
1 1968
1545 1
1 1343
796 1
1 975
1809 1
399 1
1839 1
1 744
669 1
1 888
1 263
1068 1
461 1
1 513
1238 1
302 1
1 693
1603 1
1270 1
1609 1
1284 1
1 1091
1 928
1148 1
1429 1
1 1665
1652 1
1694 1
660 1
1 1549
154 1
379 1
1 793
148 1
14 1
1 433
1 1009
110 1
1 1307
75 1
1 901
1 547
57 1
1 549
5 6
1 1712
1 201
1195 1
1 1154
142 1
1242 1
1 1336
1333 1
1041 1
1946 1
1 243
1364 1
1 567
1 1802
1 1662
1083 1
1 1360
1 1544
1 1725
1 1926
1 1482
1 1584
633 1
1476 1
150 1
1 115
1 220
1 770
1 1778
1 1427
66 1
1425 1
1107 1
1 156
1 874
1 330
1 357
579 1
1197 1
1 494
1 1570
1366 1
1 1381
1668 1
1 1419
1367 1
1 470
1 1774
375 1
1852 1
1 1406
1 1332
1 891
712 1
1 1773
1861 1
1 219
1 1167
972 1
1 781
708 1
1 451
1 1880
1 785
659 1
1 563
1 1245
1 479
804 1
892 1
765 1
1 1883
1 34
1657 1
1 1370
1302 1
1695 1
1 825
1 552
1 754
537 1
463 1
1 779
381 1
575 1
1 777
1 316
1659 1
61 1
1762 1
1 686
1 1437
1 788
1700 1
545 1
210 1
128 1
1 43
80 1
1063 1
1346 1
1784 1
1 1816
1 1922
1164 1
1186 1
1 1552
194 1
1079 1
1 221
1 362
1 1813
1411 1
1 747
533 1
1080 1
1 1421
1 1917
1327 1
528 1
1 700
1 1297
1 858
761 1
1522 1
1 551
1938 1
1 821
842 1
1 320
1 1026
152 1
1 1803
1 432
1 676
1 1724
503 1
459 1
624 1
569 1
1 1671
542 1
1 621
1 743
1 1323
1635 1
1 1976
1 588
456 1
366 1
1 1060
1 1373
1 418
1 1564
1 946
1 440
1 1588
539 1
1 1221
1 613
1 434
1 1149
1 1227
237 1
1 1874
1716 1
1613 1
1 557
1 1956
1780 1
1 1169
1715 1
1 382
1 1738
1 1289
1835 1
28 1
1495 1
1 987
233 1
1 753
1 605
1 85
1 1921
879 1
1053 1
1 562
1966 1
507 1
1 1365
1 813
1 1523
1 1461
1 384
1176 1
1 1490
1 1576
1 1792
1 911
1 1166
934 1
1 727
1 86
1 808
347 1
751 1
1 1667
1374 1
1 26
1034 1
657 1
521 1
1111 1
1 887
1 1940
155 1
1650 1
1 505
209 1
1244 1
1458 1
1 206
343 1
1 1047
1942 1
867 1
1 1825
1 1698
1 655
1 1175
322 1
1342 1
1 1720
1 74
1 571
1341 1
639 1
1798 1
1 1228
1 1392
1255 1
1 260
1 412
1 526
800 1
1 619
358 1
1 870
1487 1
783 1
1 1139
1 628
737 1
1 76
1 54
1 722
1 1424
99 1
1147 1
1782 1
1736 1
1 1521
1 393
1 390
1 1215
1435 1
469 1
1 398
1 1445
726 1
1 69
1404 1
1480 1
1 1739
1 1356
1 1763
1 1600
1706 1
1857 1
1 1263
1 318
1 1929
1860 1
1035 1
1 1413
1 1022
1 1911
1 1820
1 1133
1256 1
1357 1
1140 1
1087 1
1 1727
1 1892
1 1804
1 462
1 447
241 1
1 1193
244 1
964 1
1442 1
1 1224
321 1
1 696
1819 1
1661 1
1 1702
1626 1
133 1
1 1882
1 784
996 1
1 1033
1 1534
1369 1
1927 1
1 846
1 1775
1474 1
543 1
1 234
1 239
803 1
1 1271
1126 1
1 1513
1 681
1 768
1 172
1298 1
665 1
1 391
1 1524
1078 1
1318 1
1 1350
1191 1
733 1
592 1
1 762
371 1
1 55
1417 1
1 814
615 1
1925 1
811 1
1017 1
1638 1
1 936
1 1786
1 1973
1 415
1741 1
1439 1
1347 1
1 1587
1 812
1 300
1231 1
1235 1
1 680
1325 1
78 1
439 1
93 1
1585 1
1 1622
1 835
1 1029
511 1
1 1106
1745 1
389 1
1 950
1801 1
685 1
1 1436
1 830
376 1
1 267
1884 1
1100 1
924 1
863 1
1 1388
730 1
1 782
1871 1
1 1305
1 561
1 962
1 518
1 1390
1572 1
1144 1
1 421
1 1165
523 1
1 905
1800 1
1 1261
37 1
1 1264
1606 1
207 1
1648 1
1 272
1 1076
1931 1
125 1
1 1408
1 1597
795 1
1 1542
1 838
1 406
1 1744
1 306
1831 1
1757 1
247 1
385 1
1 311
564 1
930 1
729 1
1 1528
1401 1
1 450
1358 1
1718 1
1515 1
1846 1
298 1
1 1881
1249 1
178 1
742 1
258 1
944 1
1904 1
9 1
875 1
1 129
683 1
1 908
186 1
1 1064
1620 1
1 1783
1624 1
1 1758
970 1
1 1084
1 404
823 1
629 1
1928 1
1 634
1614 1
1 1129
1403 1
1 1031
1 1237
1717 1
1422 1
541 1
1550 1
102 1
1 678
1152 1
1 829
1754 1
1 1646
478 1
1 844
1 273
1 197
881 1
647 1
455 1
1 1697
1 1537
1 177
163 1
1 596
171 1
1 570
1158 1
1 578
758 1
1 668
1 1611
1 573
847 1
1641 1
1286 1
411 1
872 1
1 1423
1677 1
1599 1
1 1234
1460 1
1 1850
958 1
1391 1
1 884
32 1
1 627
1 501
1796 1
147 1
1 299
1 1450
1122 1
1728 1
1 1001
48 1
1740 1
1 352
1 486
1 525
1 959
1112 1
116 1
1 1285
1 926
1 1930
512 1
212 1
1443 1
949 1
1 278
1 1636
1 223
1 1764
1134 1
1 1975
1 1735
1575 1
915 1
369 1
1 90
1 1171
1 1913
1 731
1501 1
735 1
1232 1
1944 1
1395 1
771 1
1 1980
623 1
301 1
1 1508
1958 1
856 1
1 336
1 1021
1 1483
1 601
1 452
1353 1
679 1
1 498
1 473
760 1
1 1481
1201 1
585 1
1 662
386 1
1 1553
609 1
1 481
1 790
1837 1
1498 1
1 1117
1 764
250 1
1259 1
1525 1
1348 1
1 1978
1 850
1690 1
922 1
395 1
1 245
550 1
1 599
1 506
1 1265
1 446
1 351
289 1
1 365
1 1002
1319 1
339 1
1 1562
1 1936
1014 1
1230 1
1344 1
1 224
1 1251
1398 1
581 1
12 1
1434 1
1485 1
1 236
402 1
1291 1
1362 1
1 1711
1 429
1 1832
1 1309
1043 1
560 1
1 165
1 1384
1 995
820 1
230 1
1 1653
1 1288
6 7
1 903
935 1
315 1
1 1664
1 1586
58 1
482 1
1452 1
1721 1
1504 1
1548 1
1581 1
1 810
1 1469
1 687
1 1088
1 1113
1 1577
880 1
1168 1
1058 1
1 535
94 1
1 1565
1 378
1 1543
1170 1
119 1
1747 1
1 1908
587 1
1188 1
1 192
642 1
1 717
1 1811
1551 1
1280 1
1 122
1 200
1 1561
1308 1
890 1
1660 1
1734 1
1 73
1 145
1 517
1 645
1 955
1 1924
1 826
1750 1
1 1691
1 217
1 296
582 1
1194 1
205 1
1070 1
1037 1
1 438
703 1
1385 1
1 990
1953 1
1 1895
1794 1
1 1886
1258 1
284 1
1971 1
1964 1
1539 1
18 1
1 70
292 1
1 96
1 1430
189 1
1 1977
1 866
1 104
1 1682
196 1
701 1
153 1
1 646
1322 1
1 861
1 1630
1864 1
1 1172
1 1947
1 604
1 1499
914 1
1 1248
1412 1
1 672
1 1337
1 1875
1 19
1898 1
1 1518
471 1
1639 1
1692 1
1 1210
1 1516
1 227
688 1
1145 1
1 114
118 1
1 1455
1 305
1 1032
1556 1
1 960
1 1368
1 865
1451 1
1 427
319 1
1 1038
1 7
1045 1
1 428
240 1
894 1
1 409
1 1141
1673 1
1 345
1 24
1 618
1536 1
1 1118
1433 1
1 1590
1 951
1 1701
1 1057
1 1821
1637 1
1 1204
1 181
79 1
1 840
1 1507
1 682
1 1678
1 337
184 1
1 860
1 1781
72 1
897 1
397 1
1 1202
656 1
1 1790
1 993
1 303
1 1279
1 1199
900 1
1 274
898 1
1214 1
1 435
222 1
1190 1
1099 1
1594 1
1767 1
1 485
1 1207
1 1643
1 1618
1 806
1748 1
1 285
1 1262
1743 1
1103 1
1 871
843 1
1 664
1 766
1 1949
1 1887
1071 1
1656 1
1 1512
353 1
1732 1
187 1
1 923
53 1
1 62
1 929
333 1
1276 1
1143 1
933 1
413 1
1 1239
1 1571
1 1531
1 702
1410 1
931 1
1 1326
1 740
1 1441
759 1
1685 1
1 522
1844 1
1 460
121 1
1 480
1 635
1 617
945 1
1 1382
1 68
158 1
169 1
1 600
1684 1
1655 1
1472 1
1776 1
1842 1
1 1212
1 515
1 1509
1788 1
1 1674
1 1810
1267 1
1 794
1879 1
1184 1
666 1
1 906
1 328
1432 1
1 81
1 1756
1 1468
1 1211
1 1608
1 1354
855 1
1 1189
556 1
1 1621
1 229
1 652
1 71
1 1601
1696 1
1897 1
445 1
1 791
1121 1
1615 1
20 1
1 179
1010 1
1174 1
394 1
1 1456
1132 1
1324 1
1823 1
1 1950
982 1
1 1051
1218 1
1 107
63 1
1052 1
1 1559
1569 1
1 1769
1 852
1275 1
1708 1
616 1
720 1
1663 1
1 1963
1 1102
131 1
1833 1
1315 1
1714 1
47 1
1 324
262 1
630 1
1 889
1426 1
1 364
1 211
1 111
1 1081
1 902
868 1
1 786
1 1496
1 1183
89 1
1 531
1 1300
1 270
1 190
1 175
1 246
314 1
1733 1
1 767
1 994
1530 1
1 776
1 39
1 1651
1 1723
1 1688
548 1
332 1
1 1310
367 1
691 1
1902 1
1 1954
1 1567
1616 1
1 792
1335 1
103 1
1 817
1 774
1 516
653 1
597 1
323 1
1 559
1050 1
307 1
1 453
1 256
127 1
1 388
921 1
1 510
1 416
1 1573
1 797
1 1177
1 423
1791 1
674 1
1 1273
1829 1
1306 1
1 1274
1 1352
1 1478
1703 1
1 963
422 1
809 1
527 1
1 1541
719 1
1 1394
1 1623
1 1094
1 1960
185 1
1 904
534 1
1055 1
1909 1
1072 1
1 778
1 1345
968 1
1 750
1 877
1 344
1 1459
1 35
484 1
1965 1
1 603
468 1
1848 1
1 1547
1 297
1 1056
1 757
1 1705
1 1359
1814 1
1 491
1 819
1 1339
1 1477
1 1448
1320 1
1 334
370 1
658 1
1 1095
1 594
215 1
780 1
325 1
1 748
1 1707
228 1
1812 1
1779 1
1162 1
1903 1
65 1
137 1
1 643
598 1
1 1431
1 815
1 1709
1131 1
408 1
266 1
1 1163
1840 1
1 1301
1972 1
257 1
1 1331
444 1
1223 1
1 216
807 1
1 1672
1 1520
1 1642
1617 1
1943 1
1 532
1658 1
1 1730
1 475
1789 1
1 1675
1089 1
1654 1
1 349
1 123
1 146
1951 1
1 1885
1489 1
1 356
1020 1
1 1372
1 893
1393 1
1 1900
1 282
1 101
1 1085
1 1321
1 1013
27 1
1 648
1 1876
1 1906
1466 1
974 1
749 1
620 1
1 1463
1 1182
1 940
1970 1
141 1
896 1
1 1749
589 1
1 1766
1 214
1 755
1 1888
1604 1
1827 1
1 1379
1383 1
1125 1
1 396
38 1
1 25
1 166
1 226
1 1096
15 1
1039 1
361 1
1 1206
488 1
1 626
1 991
1 988
31 1
1 1868
699 1
1 309
1 520
1036 1
225 1
728 1
1 280
1851 1
1 1101
978 1
1 426
1 173
1765 1
1 1127
1 1722
1 1136
1475 1
1470 1
1 1491
1 1011
1805 1
1 1418
1 1826
1 1334
1 1086
1 907
1 113
1 1351
1 1500
593 1
1 1945
1 938
1 932
1866 1
1 1082
1420 1
670 1
1399 1
1 677
496 1
941 1
1097 1
1506 1
1 1589
1 294
1222 1
1464 1
736 1
1 1629
1834 1
1503 1
348 1
1 961
1 1634
1 1959
1914 1
1 106
1 1338
772 1
1330 1
1 1855
1 716
1 752
13 1
1 1680
1 98
1 1277
1233 1
1 1533
4 3
1 1632
1 251
1159 1
1 1670
1287 1
1 454
1 23
1 980
798 1
1 568
1 805
1890 1
1 8
1 1957
695 1
913 1
1 242
1 448
1 29
1 1974
1 279
1278 1
1 1400
1205 1
1486 1
836 1
1104 1
1 329
1841 1
176 1
1375 1
1 1269
1457 1
441 1
1514 1
1 818
1 401
1 180
1 1196
1361 1
1 310
1 124
1 1492
1519 1
1 112
1 918
1 882
1 360
1679 1
1 1160
607 1
1 885
1 487
1187 1
82 1
1004 1
1 969
1527 1
957 1
1 769
1 1497
1969 1
1948 1
1 97
1 1540
1731 1
1008 1
1048 1
1 140
1941 1
965 1
1 1554
1 1912
1 1317
1 340
1007 1
1 91
1282 1
1 1546
1 476
1225 1
1 1313
492 1
437 1
1 1003
966 1
1 1198
474 1
1 1123
1 1822
1 986
1 1428
1770 1
1 576
1669 1
1090 1
1 1465
1 1687
916 1
1 711
1 723
925 1
313 1
1 1260
1065 1
1 985
208 1
405 1
1 1726
1116 1
1856 1
1 288
849 1
1 268
1 1666
1 1699
1266 1
1 346
671 1
1 21
577 1
1 304
1 2
60 1
1138 1
1 1863
1 584
1 1151
1049 1
1 1686
1415 1
661 1
1 756
1 52
84 1
1378 1
1836 1
1 269
876 1
1 1768
1645 1
275 1
407 1
1173 1
1 472
1752 1
841 1
1 989
1 1006
1 942
1 714
595 1
984 1
1 1241
689 1
1 834
1 281
1 514
565 1
1074 1
204 1
1 1872
341 1
802 1
1203 1
1847 1
1 1023
1 425
1 1901
1 188
1 149
1 851
1 1380
1 1371
1 56
1 1777
271 1
586 1
1 566
1 977
1119 1
1 869
1 359
612 1
1 1905
1 1181
1 1689
1935 1
1 1579
976 1
308 1
952 1
1 574
1 540
350 1
857 1
151 1
886 1
1 1952
1462 1
372 1
638 1
355 1
1797 1
1 1785
746 1
1 1355
1 254
467 1
1 1479
1817 1
1 1446
1 1216
1640 1
1 654
1 162
1 707
1 504
1 1155
1438 1
1 1598
4 5
1 136
1 572
1896 1
1 331
1 1389
1 1135
1 1919
1066 1
167 1
1760 1
1 1557
917 1
864 1
673 1
873 1
1 1444
327 1
1619 1
1633 1
1 839
1 1092
1 1296
1 1854
1 159
1 1870
1 1484
1 457
1 718
1755 1
1 1061
1 489
832 1
1 1681
1 88
509 1
1793 1
46 1
182 1
1910 1
1109 1
801 1
286 1
1 999
1647 1
1742 1
822 1
1040 1
1340 1
1 1649
1 971
1 231
1 967
1 631
1 1729
651 1
983 1
1 202
1605 1
1869 1
1 1471
40 1
1 519
1 591
1591 1
697 1
1 1295
108 1
1137 1
1807 1
1 1862
1 1858
1 1920
705 1
1 36
1 1473
277 1
1 1299
1213 1
1 1252
1918 1
1 1120
1824 1
1303 1
1 1208
1 937
1156 1
1 117
1 41
1 264
1 1416
1 640
690 1
1 1153
1795 1
831 1
956 1
1 1899
1 1891
1016 1
1 83
33 1
1 120
1 45
1 161
1 1110
583 1
477 1
1397 1
1 1592
667 1
1272 1
1 1916
1 1676
1 1209
878 1
1314 1
1 824
1932 1
738 1
373 1
1405 1
1538 1
1 1772
1828 1
1067 1
1 981
293 1
1 1853
1 42
500 1
1 249
1161 1
1 1349
1 290
1937 1
1 1751
1 1005
1 1178
160 1
992 1
1 139
1 1529
1 1200
1 909
1582 1
1 164
109 1
1108 1
895 1
261 1
1 458
1229 1
1961 1
1 943
1 312
1 255
1 170
529 1
1 1257
157 1
105 1
400 1
1845 1
1 827
1 232
183 1
1293 1
1 1838
1281 1
1311 1
1440 1
725 1
1 939
1815 1
95 1
1 1867
77 1
704 1
1 502
608 1
1 253
1019 1
3 2
143 1
1 833
1 1012
1578 1
1517 1
1 694
248 1
1 558
997 1
1 49
1 198
724 1
1934 1
1453 1
1 138
420 1
1 335
1 1532
1 1028
1 1024
1073 1
1889 1
1 1907
1560 1
16 1
1 380
1 1818
1236 1
1 1396
1 1046
649 1
1098 1
259 1
144 1
632 1
706 1
641 1
1268 1
1150 1
174 1
1631 1
1 910
132 1
1 1830
1 490
1 1759
363 1
1 1447
899 1
203 1
536 1
1915 1
1018 1
1 130
637 1
713 1
1 1806
443 1
1 1526
1093 1
44 1
51 1
1 1025
1 238
1 947
544 1
862 1
1 610
1 1220
1 383
1454 1
789 1
1 1146
1 497
773 1
135 1
1 1602
1 466
1 854
1 1192
1 414
1761 1
1 464
1865 1
1894 1
732 1
417 1
100 1
1 611
1142 1
1988 1164 3
1 358
1285 1
1 1941
1 400
1 1161
1656 1
1145 1
1 98
1 238
737 1
844 1
1 1906
1 653
1 1018
1668 1
900 1
500 1
1047 1
1541 1
743 1
1076 1
830 1
1648 1
244 1
1 662
1804 1
1 1800
1 849
1 1465
1 1491
1449 1
1 832
1887 1
1 1812
1 1051
449 1
434 1
1237 1
1219 1
1126 1
1 1014
1923 1
1 1390
208 1
1637 1
1 1254
1 723
321 1
1 410
650 1
1 1289
603 1
1454 1
1 565
1934 1
1 1349
1 1006
826 1
1132 1
1 1924
416 1
1836 1
92 1
1 209
1 1337
1 763
1133 1
1204 1
1 702
489 1
1 1852
413 1
458 1
605 1
360 1
1527 1
1 1687
1 1753
1 860
1 1875
1 1046
1 88
298 1
1 155
994 1
1 1372
1 1630
1 120
1 1582
668 1
1 368
1 833
1 435
1399 1
1 1102
545 1
1 1092
1 411
811 1
1 697
1310 1
1 1961
1 1439
1 1463
1 470
757 1
1 1428
54 1
1 1288
1217 1
1 1928
1 1065
199 1
1761 1
1 1154
1850 1
1 30
1 684
1 111
1 913
1153 1
1576 1
1 1103
1 448
1843 1
1 1393
1876 1
1 1423
1 1734
388 1
151 1
1741 1
1 1974
1 532
1208 1
1889 1
1922 1
1466 1
915 1
1 1471
1915 1
1 1025
1 507
699 1
1 1642
1 265
1 451
1 1616
868 1
938 1
1 1845
967 1
1 1739
203 1
978 1
1 1243
1207 1
351 1
487 1
6 1
1104 1
1 105
1 479
1 313
119 1
1 1880
1 1128
1163 1
1 1847
1 1516
1430 1
1 1013
1701 1
1 431
1 1178
1019 1
1916 1
1 1480
1 1005
1396 1
1 544
1960 1
1 197
29 1
1105 1
1809 1
1 801
1 1987
1034 1
1 1358
1 1131
1802 1
1 1811
1 802
1 728
1 779
735 1
1022 1
456 1
1355 1
1 1234
1 607
1 904
1362 1
1 1305
1 1594
1 557
1 720
1422 1
1 952
1 359
331 1
1538 1
1181 1
300 1
1 60
1985 1
1 1405
307 1
1048 1
264 1
1 848
23 1
1534 1
1 586
754 1
843 1
1781 1
271 1
730 1
1367 1
1120 1
905 1
268 1
51 1
1 131
1 444
235 1
1952 1
1 391
1 177
1 1201
1963 1
968 1
1167 1
534 1
1 1813
1 1162
1 933
1918 1
1857 1
1 1899
1 787
1 1223
1 28
1 99
1 672
1803 1
1 824
1 1894
751 1
857 1
621 1
1 920
1 609
1747 1
1 295
452 1
338 1
658 1
1 1935
1 1619
1095 1
1 803
112 1
522 1
1 468
100 1
1 509
1 1185
1 433
1 691
950 1
1 1982
1521 1
688 1
314 1
1 1651
1 1805
1 617
1 1762
1 501
1489 1
594 1
1066 1
1779 1
1 1135
800 1
613 1
643 1
1 1696
1537 1
1 1575
1 1279
745 1
1101 1
1 1062
917 1
660 1
1 267
52 1
1953 1
1 170
1 127
1 550
1038 1
1 791
1401 1
1561 1
1 1490
1 576
76 1
1 1192
1452 1
1 1499
1 1743
1926 1
822 1
1795 1
611 1
1685 1
1451 1
1 1427
1767 1
1114 1
1 357
1618 1
1 639
695 1
1 375
1 854
1 1350
31 1
1381 1
488 1
1398 1
1 1883
588 1
1024 1
1 461
1 690
1 166
1 454
590 1
1 40
548 1
1 1884
1321 1
1433 1
1 1715
1972 1
1 718
366 1
1073 1
1 103
1 1728
1 669
1 1137
1 279
243 1
1 429
797 1
1 659
873 1
1 1043
1 1360
392 1
1 1691
1 1888
931 1
1 1228
424 1
1 53
1129 1
1 1229
1775 1
26 1
1 1462
1699 1
1 1419
1 1627
1 529
255 1
1536 1
1 186
381 1
1294 1
1512 1
1 812
1168 1
508 1
1840 1
1 324
1 1455
1 1917
1 747
496 1
1 494
207 1
941 1
273 1
1 1842
671 1
3 4
1 1016
1711 1
1 251
1610 1
1 354
1309 1
70 1
1688 1
1342 1
1 1565
189 1
173 1
1 1786
651 1
1 1530
239 1
1259 1
1 1609
1 1278
1069 1
838 1
568 1
533 1
346 1
1792 1
1 1331
1986 1
266 1
1 1194
1896 1
1 1079
401 1
1778 1
569 1
1 1158
1 1784
1 1603
1 1125
1 1230
1068 1
922 1
704 1
1281 1
1 237
380 1
1 182
1831 1
1957 1
1958 1
1 116
1 772
1 749
1 997
1 1866
308 1
305 1
1 546
1 350
516 1
1864 1
47 1
1 1300
1 1482
405 1
1862 1
809 1
1 1108
753 1
395 1
1567 1
1659 1
1940 1
1323 1
1 1164
1 910
1258 1
1 1236
930 1
987 1
1382 1
1 1354
1 947
1 855
1 553
1 364
755 1
1 1284
1 1617
1 1634
1 427
1903 1
319 1
856 1
1 44
1 610
333 1
33 1
1 1712
18 1
1 278
1 513
972 1
95 1
1 14
883 1
1 272
1936 1
1023 1
846 1
1 1677
1 1146
1 1041
1672 1
1276 1
412 1
1 1160
1 1639
1 1981
254 1
1 475
903 1
1 225
1138 1
827 1
1 341
1 1470
1 256
1188 1
1190 1
1 1189
1679 1
1375 1
1052 1
2 1
1 236
1735 1
1 1793
232 1
1 277
1 408
340 1
1764 1
114 1
1 428
1 1059
1 181
925 1
281 1
1356 1
1921 1
1 1389
1 1577
1714 1
1 194
2 3
1977 1
1 63
1 1072
1629 1
1 134
1 709
1407 1
1 1844
1 682
1 1801
67 1
1274 1
1311 1
1 1705
985 1
614 1
1658 1
1 1838
1184 1
1 1965
1 624
902 1
1 65
596 1
851 1
1 1402
1 1233
1816 1
184 1
1 442
1 117
1 1085
932 1
1 480
1 1220
276 1
1 457
195 1
1165 1
1559 1
1 1587
652 1
1 881
1 813
1 234
1 819
1 1511
389 1
1 1971
135 1
1 1067
1 1412
1174 1
1736 1
504 1
1 527
1 1376
1 1954
1 897
1 891
1970 1
1 1644
94 1
1 825
1 1379
1 799
559 1
1631 1
1 1646
1 384
1 419
1124 1
990 1
1 304
1444 1
1020 1
1 864
1 770
1523 1
1 585
85 1
217 1
1 142
1911 1
1 1255
1 1724
1 1209
1584 1
1136 1
1 483
1299 1
1 724
1 1874
218 1
290 1
1951 1
1429 1
1 622
1 1528
716 1
1 1574
1267 1
821 1
1 1316
940 1
1 1361
1 1593
258 1
1 1920
1 35
1497 1
1 1873
1180 1
1853 1
1 140
1 796
1 312
1 425
1 648
1 1552
1438 1
1 1823
1 1472
1 144
1 1003
283 1
1 48
1555 1
572 1
1304 1
1045 1
1 13
1 767
1373 1
1 732
1 1053
1 752
1855 1
1457 1
1 147
1 1860
1 1002
297 1
270 1
712 1
908 1
1493 1
1446 1
955 1
1 230
1 233
1 1395
1 175
1 1177
1 1966
1009 1
145 1
1 118
1 976
705 1
1 1488
1468 1
1 386
1 192
247 1
473 1
1 365
1 293
15 1
1 1807
1 37
1 934
1 476
421 1
128 1
1081 1
1027 1
1 130
762 1
1 78
1 945
1 1545
443 1
1082 1
1769 1
906 1
1 896
1 591
1 964
1 794
1031 1
1 685
675 1
815 1
1235 1
807 1
1404 1
1 253
1 367
823 1
1 1508
1 96
1270 1
555 1
1605 1
1 445
1 1902
1721 1
1441 1
219 1
1615 1
1621 1
1 581
57 1
1 861
1487 1
1633 1
1727 1
1 1722
573 1
1700 1
1703 1
1 246
761 1
1391 1
1 196
1 404
1 726
1 159
73 1
1 327
1070 1
1 1586
1 524
1371 1
1 1142
1 874
1782 1
1 1980
1 1242
1 700
1 961
551 1
1 261
937 1
1799 1
575 1
25 1
731 1
1 478
1600 1
1328 1
1798 1
1 1591
889 1
1606 1
1612 1
828 1
1 499
640 1
1 1742
1460 1
1 379
1 1797
486 1
1 957
1 1152
1199 1
1 1456
679 1
1 1664
1039 1
1 414
1 373
1543 1
1 1211
1 250
1 1440
1 923
472 1
1481 1
1519 1
599 1
1570 1
1956 1
564 1
1833 1
210 1
1662 1
1 178
1 1535
1 696
1 125
1 1504
1214 1
1 1186
1 466
1 1484
1461 1
1 1011
453 1
1 566
24 1
1 1353
975 1
1409 1
132 1
1 1378
1 280
1384 1
462 1
831 1
136 1
1 960
1 115
1 1042
1 1121
1 38
1 766
1075 1
1 1244
1834 1
306 1
1 242
1653 1
748 1
1794 1
216 1
852 1
1 786
1907 1
1 231
584 1
1 1886
1579 1
1 64
1 885
1 259
1 1946
11 1
595 1
311 1
886 1
1 1596
1 394
1 601
1 879
1 1583
1 21
1 160
126 1
1 625
744 1
205 1
383 1
1 729
1 1623
1203 1
686 1
863 1
1 667
1 222
1 1061
1365 1
91 1
635 1
12 1
1291 1
1 687
1 1418
836 1
167 1
363 1
1315 1
377 1
1239 1
1955 1
1 1503
491 1
1 707
1 1071
1507 1
1 1134
1 1077
183 1
1040 1
1 459
1 792
647 1
1265 1
1 974
1 710
1 1632
1 942
958 1
1032 1
1 467
8 1
1 725
1 1253
1 1748
212 1
9 1
1942 1
107 1
1 1988
1846 1
93 1
1 1759
1 441
490 1
1060 1
1 1925
1 1729
1 775
536 1
1 998
1678 1
593 1
79 1
1690 1
1 1967
1 1500
1 485
1 353
1 1601
1 1720
758 1
515 1
1 1927
1 1317
1694 1
263 1
1945 1
1 187
1 1313
211 1
680 1
241 1
1 1385
1 862
535 1
722 1
420 1
834 1
1869 1
1388 1
1674 1
1 1327
1702 1
1127 1
1 1757
1215 1
1450 1
1 592
1 1171
1 977
865 1
1 1771
1 422
1 742
121 1
1263 1
1297 1
1202 1
1 157
165 1
1 589
69 1
783 1
1 1336
1224 1
1 661
1 1063
521 1
1055 1
1 670
1 344
1 612
630 1
1 1030
1 1984
328 1
1 1571
1 1322
1 240
1 1494
1 1280
1 1772
1808 1
1 309
579 1
759 1
946 1
1937 1
898 1
818 1
1828 1
1 1654
665 1
1697 1
1 1179
335 1
542 1
376 1
61 1
1 634
315 1
1 563
1 471
646 1
1 174
1 866
1 921
1117 1
1544 1
1 1893
1 396
1 1962
1 1056
139 1
1 1225
1505 1
1338 1
1 1232
1 1912
19 1
146 1
1 407
1 1250
1 143
1 727
1 1416
1344 1
1149 1
1 1569
1 287
1 899
1 1897
1 1476
1 1822
1650 1
1709 1
1410 1
1195 1
1392 1
1 228
109 1
1 1231
124 1
1359 1
554 1
1 1839
511 1
790 1
645 1
1 1725
1546 1
1835 1
948 1
1 5
1213 1
1718 1
785 1
1383 1
706 1
1 867
1464 1
1 1529
1141 1
1 924
1485 1
1 1015
1 20
1914 1
1 156
1 1150
778 1
1 1726
1 152
1 1247
1626 1
1 784
1 970
1777 1
1 608
1 1756
387 1
1 1425
1598 1
869 1
1706 1
1139 1
1 1057
1 829
765 1
1895 1
1975 1
1 1732
1 390
1 774
1357 1
1849 1
694 1
736 1
1796 1
1 927
393 1
1406 1
1245 1
1 1824
1 1473
1861 1
996 1
1909 1
850 1
1 734
1 275
764 1
1 951
1 1187
1 835
1890 1
1 984
872 1
1 317
1 1522
620 1
1 158
1 1904
1 1341
703 1
1 530
1 1123
1 347
1 138
1 1492
1 644
528 1
740 1
463 1
1054 1
1036 1
1 1939
1 83
1271 1
1 370
788 1
1 436
1 1774
1 995
316 1
1 981
884 1
1 636
1 888
1 46
678 1
1518 1
1 1832
330 1
1 1638
1 495
526 1
1661 1
1599 1
1 719
1502 1
1074 1
1614 1
1302 1
1496 1
1 289
1 1434
1157 1
1260 1
1 374
1324 1
966 1
1611 1
1414 1
1 1033
1558 1
1 1905
541 1
1 1182
1 1568
1 1307
1 1303
1 291
492 1
1 1106
1 1791
1394 1
438 1
185 1
385 1
1 1969
1 214
1872 1
1 798
1240 1
895 1
1 1938
1 1814
1620 1
1 474
1 1098
1 1166
1 853
294 1
1 1017
58 1
1 739
1578 1
1352 1
1514 1
1 325
1 1148
1 39
1290 1
1 939
1282 1
1238 1
1 1751
1 1408
543 1
817 1
525 1
1 1049
1 1749
781 1
1483 1
1100 1
1 10
1868 1
1 1789
1 571
1 1363
1 262
741 1
202 1
337 1
224 1
1 558
1657 1
1 540
1 1089
1 982
1681 1
1064 1
1 1949
110 1
1 1825
1 1118
1 108
1901 1
1 1340
1983 1
1943 1
1 689
839 1
1 1364
893 1
1607 1
336 1
1 1269
1 506
1707 1
1 928
1 628
1 227
1 1436
1 72
1301 1
1078 1
201 1
538 1
1 349
1877 1
1 1673
656 1
1 878
1475 1
1524 1
1 22
1 284
62 1
1 1421
1 1343
1 68
399 1
1590 1
1130 1
1773 1
1 97
1 842
1 1737
1093 1
1 583
1 911
1319 1
1 1660
1 1431
1 602
1740 1
123 1
1750 1
1173 1
1 1948
1817 1
1 1669
215 1
1 1562
1665 1
1 1863
1 371
1585 1
1 1947
992 1
213 1
1 1663
1 285
1898 1
1 198
733 1
1 180
1 464
1 1788
1689 1
1624 1
1 418
1933 1
1 1517
245 1
1 1200
1 356
1459 1
1273 1
1768 1
446 1
1 1275
1 721
1666 1
361 1
1 1841
1 845
1 56
303 1
871 1
1 150
1 1262
133 1
1 1296
1539 1
1 858
1467 1
1770 1
1 1272
1 161
440 1
1 1716
510 1
1597 1
793 1
1176 1
1 681
1 1119
1097 1
1 1780
1 1010
1 1183
1 1553
1155 1
1 1001
1 1295
1 912
249 1
1 398
482 1
1 1532
282 1
1713 1
1826 1
1973 1
768 1
1655 1
1 1652
1 1608
1 59
760 1
1636 1
1 701
1 1871
1 642
1116 1
1 355
1 409
1 498
1 1950
1556 1
1498 1
1 1091
1 163
1 406
1683 1
1 106
1 988
1 1445
1 248
1810 1
1821 1
1 1746
1 1113
1326 1
1549 1
1 439
1 1878
1931 1
74 1
1 1560
1222 1
926 1
929 1
1785 1
1191 1
604 1
1641 1
1 1640
1 1257
1 1686
7 1
1 1783
562 1
1 342
1 991
481 1
1 663
1159 1
750 1
1251 1
1 693
901 1
1292 1
1 1547
1 1268
1090 1
814 1
1 296
469 1
1 437
179 1
1 345
1 1885
1486 1
1 1264
1144 1
1 1320
1 1112
1 1477
537 1
1 1474
1 1339
989 1
1 1026
1 1058
1 1542
323 1
1978 1
1 1760
1 1374
1 936
1 523
1 1007
1622 1
102 1
1 260
1 914
41 1
1 1531
176 1
1684 1
1 698
1 223
1 1806
1 1403
1 1592
1 547
1 816
1 711
1 1891
1140 1
1 632
963 1
1 1432
1 1509
1 637
1 841
1 1330
1 875
1 1671
600 1
1 1882
999 1
1000 1
1581 1
1050 1
1 983
288 1
1333 1
1 221
1 1345
1 713
1554 1
484 1
1 1968
82 1
5 4
1 1437
1819 1
1 1325
190 1
1766 1
415 1
619 1
75 1
1 820
1 1698
1870 1
286 1
1515 1
1854 1
1 1334
1919 1
1248 1
674 1
692 1
1 943
1 1548
1 1859
1 1820
1 329
1 450
1 666
1 1580
1 1733
638 1
1411 1
1 1087
1 137
1 1175
1283 1
1 1028
1318 1
1 859
1369 1
1346 1
582 1
907 1
1 1815
1510 1
1 397
1332 1
1 1643
1 1478
962 1
1 1787
1851 1
973 1
1 101
1 539
1 777
1037 1
1 956
1197 1
1314 1
1670 1
806 1
1 42
1 531
423 1
1 493
1 465
1692 1
1 1589
580 1
1 1495
1 274
1 1205
1 320
1 87
1 403
935 1
1249 1
1 1329
1 27
512 1
776 1
1 870
1 90
1 1413
1 877
153 1
1170 1
1 1913
1 1226
1 1881
1115 1
1 1526
1 497
1 1776
1172 1
122 1
1763 1
649 1
1218 1
141 1
1 519
1979 1
1 206
1892 1
552 1
597 1
1458 1
1 1944
570 1
1252 1
1 1004
129 1
808 1
149 1
104 1
1424 1
1 677
577 1
1676 1
172 1
1 1731
1 1286
1 220
1 574
919 1
339 1
1 1564
36 1
1 631
1 606
1210 1
1 1261
229 1
1 654
1710 1
1 477
1628 1
1 1613
1 954
1 1169
1 1044
1 191
1216 1
715 1
1908 1
1 226
1 164
1 880
1 1525
1 890
1 561
894 1
1387 1
1 623
1 1386
556 1
655 1
1717 1
1 1206
1 1086
369 1
1 1110
1 200
1 618
876 1
1 1448
1 1765
1 810
1865 1
1 1469
49 1
71 1
1 1227
1 657
1 1122
560 1
1 1858
1 795
1856 1
1084 1
1 148
1 1143
1 1094
1 505
641 1
1 460
916 1
1193 1
1 426
1 1738
352 1
1109 1
1 892
965 1
1566 1
432 1
1 1266
1 1335
318 1
1 1212
80 1
1930 1
1380 1
89 1
1848 1
1 909
188 1
1 378
430 1
847 1
616 1
1 517
1745 1
1479 1
1 1829
1625 1
1573 1
633 1
1695 1
1 789
1818 1
299 1
1704 1
193 1
1929 1
993 1
840 1
1 1293
1708 1
1693 1
887 1
1506 1
86 1
1241 1
629 1
1426 1
1 1453
1867 1
1 310
1 1647
1 17
746 1
1550 1
1 578
1 664
1277 1
1 1035
1 518
45 1
1 1400
949 1
1744 1
1 1397
1 771
1 1420
1 1649
55 1
738 1
1 16
1 1417
252 1
1 1443
1 780
1 1879
1964 1
756 1
1348 1
1520 1
615 1
1 683
1088 1
1 77
1 979
1 332
1 1595
1 382
1 455
417 1
1221 1
1 805
1 1377
1099 1
503 1
1 882
1 1830
673 1
1 676
1306 1
1 1682
362 1
1675 1
1 1572
1 1837
1298 1
1 326
1287 1
1 804
1 1083
1 549
1 1680
322 1
1 1667
1 587
1 1029
1 1147
1 1602
986 1
1959 1
1111 1
626 1
1 953
1 1021
1 402
162 1
1 1012
1 1540
1 1308
769 1
1 708
1 43
1 1366
1107 1
1 1557
1 1351
944 1
1 1080
1 1368
1 204
717 1
1 1533
1 1501
1 837
1256 1
66 1
1347 1
81 1
1 918
1 1719
1 598
334 1
782 1
567 1
1 514
1196 1
1 1790
1008 1
447 1
1 257
1 154
1 1198
1 1447
1 1755
1 1754
1 1513
1 372
1604 1
502 1
301 1
1 1645
1 1900
1 343
1 171
34 1
1 169
1551 1
1 1635
1752 1
84 1
1 32
1 168
1 520
1 627
1730 1
1096 1
1588 1
1563 1
1 1246
1156 1
1 1415
1 1758
1 1442
1 1370
302 1
1 1435
1 348
292 1
1 1723
50 1
1 969
1976 1
1932 1
1312 1
1910 1
1 269
1 1827
1 959
1151 1
971 1
773 1
1 113
1 980
714 1
1242 826 2
1 334
938 1
1 1231
1 1189
287 1
1 18
597 1
111 1
1215 1
1 157
1073 1
1003 1
1 595
947 1
1 665
1147 1
197 1
1 681
996 1
1 1001
1 670
1018 1
382 1
774 1
1 643
1 1236
1 1154
1 1090
803 1
819 1
182 1
1 406
906 1
968 1
1016 1
1051 1
889 1
527 1
145 1
52 1
158 1
1167 1
682 1
776 1
710 1
1 953
1 971
1 766
99 1
358 1
134 1
1 493
1 139
1 918
1 859
1 534
1 187
1 445
860 1
1 951
1 1096
857 1
1 179
1 994
988 1
1 149
356 1
1 233
1 267
255 1
1 801
1 853
320 1
1 207
1 845
772 1
313 1
1 475
1 192
1 236
1 174
1 837
1 729
1 1193
1 586
426 1
1 1109
1 4
1 804
454 1
742 1
1 926
1133 1
1 241
1 8
1 82
1 554
228 1
1 383
1 685
737 1
1 905
869 1
389 1
1 1185
1 201
264 1
1 604
1 764
191 1
1 931
672 1
1 1140
1 745
1 941
583 1
1105 1
1 500
1177 1
1045 1
1043 1
1 45
798 1
1 1156
248 1
660 1
993 1
1 126
78 1
1 27
31 1
1222 1
1 752
1 913
1 102
423 1
1 816
447 1
1 992
1 1241
1 909
1 261
765 1
210 1
568 1
1 340
961 1
1 626
243 1
440 1
858 1
1 743
684 1
1172 1
170 1
1 1142
88 1
1 1114
216 1
1 1047
1 957
227 1
1 717
401 1
1 361
1 1169
912 1
1145 1
1 451
458 1
1 276
1 7
956 1
641 1
890 1
952 1
1 311
1 1168
1014 1
379 1
601 1
689 1
1 347
542 1
112 1
1 323
1 1155
317 1
1 296
1 1000
1 726
1 266
116 1
1 1068
593 1
1004 1
1112 1
1 650
525 1
1 495
407 1
1 760
1 787
983 1
611 1
1 486
1 1111
1 669
1079 1
1 1153
1 728
1044 1
1 25
1 800
1 975
642 1
1 439
1 1191
1 1106
452 1
1104 1
985 1
1121 1
884 1
870 1
1 520
411 1
1 686
1 374
1 763
1 893
840 1
35 1
1 230
1 629
377 1
1 455
690 1
1 1074
156 1
1 203
1 238
1 943
904 1
1 246
119 1
1 400
1 854
1086 1
901 1
391 1
998 1
1200 1
1 636
79 1
1 895
1 56
325 1
831 1
1 780
1 1098
1 123
1072 1
417 1
1 1026
1 1210
1030 1
1130 1
781 1
1 564
489 1
797 1
162 1
1 907
701 1
915 1
573 1
208 1
386 1
1 921
1 671
1 664
699 1
708 1
1 48
887 1
1 1015
954 1
1 1150
1 814
1 258
1 279
1 1100
608 1
1 868
1227 1
1 357
775 1
1 694
68 1
213 1
442 1
1 1190
404 1
1 698
1 622
1 891
691 1
196 1
459 1
421 1
1 306
732 1
1 675
341 1
557 1
1 807
1 547
1 1175
1171 1
556 1
1 169
1 1062
1 920
649 1
1 529
278 1
1 263
535 1
195 1
1 506
1 1064
755 1
799 1
1 711
1226 1
1102 1
1 286
1 1099
522 1
1 1095
655 1
1 841
1 1027
466 1
577 1
1 297
1160 1
1 707
1 372
1 1061
1 1077
908 1
1 919
366 1
1 198
818 1
1 1093
658 1
747 1
1092 1
125 1
75 1
253 1
1 322
709 1
1 69
1 828
109 1
1 217
1 888
1 62
130 1
1 955
1 679
561 1
1 453
1 925
966 1
484 1
1 980
1 1164
219 1
1 1089
1143 1
1 58
339 1
617 1
935 1
1 396
137 1
1 140
696 1
1 477
700 1
1 592
159 1
784 1
1 19
647 1
656 1
1 1238
1 457
922 1
1 460
1 844
164 1
1 239
1 481
1 614
1198 1
1 688
754 1
1 1033
1 846
551 1
802 1
1 155
1 712
791 1
605 1
474 1
1 211
218 1
1 47
316 1
330 1
1 393
1035 1
390 1
1 1186
1 970
648 1
1 590
1 565
468 1
13 1
736 1
1 514
1 1181
463 1
1201 1
499 1
1 1059
348 1
1 12
1 1141
1 188
1 974
154 1
1 412
1 695
1 937
864 1
769 1
1 76
1 173
1 773
1217 1
1 723
83 1
1 1128
97 1
662 1
1 1188
1 572
777 1
871 1
1 618
344 1
1029 1
9 1
1122 1
1022 1
1 178
129 1
620 1
1 6
1 959
548 1
532 1
1 1037
1 1146
354 1
10 1
152 1
1 624
1 630
186 1
825 1
1 3
976 1
872 1
1 49
1 185
1075 1
1 644
758 1
1 1234
702 1
1 1081
302 1
362 1
1 1162
1 715
177 1
1 1239
1 133
1 722
1 380
827 1
1 659
948 1
1 327
1 281
519 1
1166 1
1 118
1 245
1 244
1 734
1 1126
1 1149
1 502
1180 1
832 1
1 822
793 1
268 1
1 815
1 225
1076 1
1 639
103 1
1 1119
1 46
779 1
960 1
1 806
916 1
1 172
790 1
1 429
471 1
1 104
911 1
676 1
1242 1
1 1208
20 1
128 1
485 1
530 1
1 1117
1017 1
434 1
1 1107
515 1
1 42
143 1
1 60
631 1
1 425
538 1
1 21
1 1129
1 521
1 1024
165 1
603 1
932 1
1165 1
718 1
251 1
1237 1
1082 1
167 1
298 1
824 1
1 146
1 741
1134 1
428 1
555 1
903 1
1 24
526 1
41 1
1 240
1 415
365 1
381 1
524 1
1135 1
1 205
783 1
1235 1
1087 1
1 2
1 1209
461 1
1 369
1071 1
1 490
1 166
329 1
821 1
504 1
1 270
1 856
470 1
1158 1
738 1
1 326
1053 1
1 596
661 1
1211 1
697 1
183 1
706 1
305 1
1 1152
1 148
1221 1
1 563
1049 1
731 1
473 1
1 882
923 1
1 878
1 114
1 1080
273 1
1 1042
1 616
1 930
1 621
1 269
559 1
1 1183
138 1
30 1
761 1
91 1
29 1
202 1
817 1
1 602
1 875
456 1
398 1
861 1
751 1
571 1
1 1048
1 1058
1 969
615 1
1 472
1 402
1173 1
1005 1
43 1
333 1
1038 1
1 124
687 1
503 1
1 226
865 1
1 574
753 1
1 949
640 1
1 262
517 1
531 1
839 1
1194 1
171 1
1 1041
1 1008
1 64
1 767
1 444
1 720
1 108
117 1
1 351
1 885
589 1
328 1
397 1
1 371
1 346
632 1
914 1
967 1
1 1178
1 1212
1 549
1207 1
1 74
1032 1
1 378
184 1
1 735
1 416
570 1
1 310
1 581
1054 1
1 724
308 1
222 1
1 345
141 1
1 294
1 1218
989 1
1 324
1 1196
193 1
1 927
1110 1
855 1
1 199
1 730
1 98
1 307
1010 1
1 873
663 1
1040 1
1225 1
757 1
945 1
748 1
1 1240
1 414
1 950
94 1
569 1
1 750
1084 1
1 190
1 1148
886 1
1 929
833 1
84 1
1229 1
683 1
163 1
1205 1
1 375
431 1
303 1
739 1
1 420
16 1
1 101
77 1
1127 1
321 1
1 778
1 315
1 843
1 204
1 363
1 1232
331 1
771 1
40 1
1 973
1 587
1 5
881 1
1 544
1 567
113 1
482 1
1 161
1 582
1 852
1 898
1 924
756 1
1 977
566 1
1 1063
600 1
1 1009
343 1
1228 1
543 1
1 436
1125 1
352 1
92 1
1 214
1 1116
1 892
788 1
1 1023
1204 1
972 1
1 999
1 880
1 733
1 820
1069 1
1 430
38 1
1 1031
115 1
1 53
1 441
89 1
1 786
309 1
1216 1
746 1
1 26
1 623
1 606
1 353
1 57
1 987
63 1
215 1
812 1
651 1
498 1
1 505
1 497
1 1184
1 744
1 67
770 1
1 591
289 1
1 1013
1 450
1 1124
1 22
1 492
1 813
1 509
15 1
628 1
1 1161
847 1
1 1192
384 1
1 1213
1170 1
1 1179
1 1214
418 1
1 1132
1 96
1 958
1 399
1 61
1131 1
1 275
762 1
1 1233
432 1
36 1
1 516
704 1
1 476
1065 1
1002 1
2 3
405 1
894 1
674 1
625 1
409 1
1 576
560 1
1 39
1 654
1028 1
1 33
1 488
419 1
1 1220
1 719
95 1
1052 1
1 120
427 1
480 1
28 1
370 1
1 448
1056 1
1 552
877 1
1 153
1 422
539 1
940 1
1 1136
1 65
121 1
312 1
1 282
257 1
1 1139
1 72
1 247
1 32
229 1
1 575
1 1021
80 1
842 1
483 1
1 965
1 899
487 1
1 829
410 1
1012 1
1 936
588 1
469 1
1219 1
200 1
1 749
964 1
388 1
394 1
910 1
1 256
1 703
1199 1
1 1230
1 433
1 249
1 122
314 1
1 638
963 1
713 1
550 1
1 635
1 714
131 1
1 810
705 1
1 1138
288 1
293 1
59 1
1 1019
1 1144
1 150
982 1
1 610
1 867
408 1
1 142
501 1
1 1046
194 1
1 349
928 1
1 337
513 1
1 11
613 1
1 292
1 809
645 1
796 1
1 147
1 1097
1 1115
896 1
1 693
1 1083
1 637
221 1
285 1
180 1
71 1
1 438
523 1
106 1
1 939
1 823
1 558
1 725
1 335
541 1
1 17
1 759
997 1
1 879
653 1
1 536
1 594
1163 1
727 1
1 990
1 546
1 609
1 1034
1 933
1 1088
364 1
100 1
1 716
986 1
271 1
395 1
1 805
1 132
900 1
835 1
252 1
1 338
1020 1
1 1203
1 1007
1 834
1 81
1085 1
127 1
14 1
830 1
1 403
1 1039
1 585
1 794
1 90
1 291
1 978
1 93
1 740
528 1
1 1195
1 1103
368 1
1 507
1 50
1 86
467 1
235 1
1 280
1 189
355 1
1 511
1 789
680 1
1 851
1 135
73 1
1202 1
496 1
1 220
290 1
464 1
811 1
1 808
494 1
1 435
373 1
1 598
826 1
942 1
1108 1
1067 1
1 44
612 1
367 1
1157 1
318 1
387 1
212 1
1 1120
1 424
1 181
1 1036
1 478
1 209
1060 1
224 1
223 1
300 1
1 272
1 85
1 392
259 1
168 1
232 1
1055 1
785 1
1 537
231 1
917 1
1 984
1 54
274 1
1 692
1 176
1 721
1 1078
1 87
1 1151
1 652
1 237
553 1
1 897
1 962
850 1
1 981
1113 1
1 242
944 1
1159 1
1 449
144 1
599 1
265 1
1011 1
666 1
1 491
1 1070
1 1224
540 1
1 979
1 55
1057 1
1 1137
1 250
1 902
136 1
284 1
1 254
376 1
1 34
1 234
1 1094
1101 1
838 1
1 545
1 782
848 1
627 1
1 1050
1 332
1197 1
836 1
350 1
946 1
23 1
1006 1
437 1
1 342
792 1
1 866
533 1
260 1
443 1
678 1
579 1
580 1
1091 1
584 1
1 668
1 110
160 1
1 37
1187 1
1174 1
1 1206
1 359
1 319
1 413
206 1
66 1
465 1
1 646
1 673
768 1
510 1
1 295
301 1
607 1
1 512
1 446
1 863
1 667
1 578
70 1
862 1
1 1123
1 633
1 995
336 1
1 283
1 795
107 1
1 508
1 934
360 1
1 876
1 175
991 1
1 1223
874 1
1 105
1 1182
1 299
634 1
562 1
849 1
1 1118
1 304
1 619
1 1025
1066 1
462 1
883 1
1176 1
1 518
1 479
677 1
51 1
1 385
277 1
657 1
1 151
1524 1479 4
499 1
429 1
1 600
1 587
1 1213
841 1
184 1
715 1
1110 1
56 1
620 1
1 1356
381 1
901 1
1 1098
73 1
1 285
1 1405
1 1384
971 1
1 1064
1 605
1 733
1 235
761 1
584 1
1 1018
1159 1
1059 1
1 884
1218 1
1 467
128 1
1 782
1 937
497 1
1 789
1336 1
1 1039
670 1
1 1045
1 1239
317 1
147 1
1 1246
783 1
102 1
55 1
1 159
1166 1
106 1
1 1210
415 1
1 1337
1195 1
1 1217
480 1
1323 1
2 1
1252 1
1 638
1 781
1 97
1 816
1135 1
897 1
1 33
1 956
1 274
883 1
661 1
6 1
881 1
1216 1
625 1
202 1
328 1
1 1032
1 991
1 487
1 671
234 1
703 1
230 1
502 1
1 12
1 242
1 448
1 704
1309 1
1407 1
771 1
1 913
1 1370
1 749
1338 1
1 315
1274 1
1156 1
1 1221
1 1115
602 1
1 424
1237 1
120 1
1 1199
266 1
1 507
1 276
547 1
973 1
168 1
910 1
1 954
1 687
1 557
1160 1
252 1
1 1242
1 757
1009 1
444 1
810 1
1 1202
485 1
1042 1
1 1066
1 297
1151 1
1 657
289 1
1146 1
1 1412
945 1
1 44
1144 1
1 1497
1 770
1276 1
1249 1
1 459
1000 1
1022 1
1 1090
1 123
756 1
1 794
679 1
1 1280
697 1
1 262
870 1
66 1
43 1
1 1273
675 1
472 1
1451 1
1 591
1 1007
1 433
1 533
1 132
1130 1
1 1029
576 1
310 1
1 895
1 85
874 1
1 510
1 562
377 1
1 200
406 1
358 1
232 1
768 1
154 1
1 553
1 1293
1201 1
1 1435
1 1305
1 17
1 153
1 1349
1 1403
1 1491
385 1
1 1013
1107 1
1 1089
374 1
54 1
1 1220
1 1324
1 966
1 1418
1 776
1 254
88 1
1 549
161 1
1 663
1 843
1 1102
1 542
1058 1
568 1
1041 1
815 1
1095 1
308 1
738 1
514 1
1 1345
1076 1
975 1
1424 1
1 113
1 989
1 1235
1 903
1366 1
1 1138
341 1
1 1390
1014 1
1 42
345 1
1 652
1 141
1 1163
904 1
981 1
1 711
565 1
216 1
463 1
157 1
489 1
1 391
630 1
948 1
616 1
1 944
1 1238
649 1
1 399
537 1
819 1
1 488
1 409
606 1
1 1303
1 196
1 830
1 292
1271 1
1255 1
1223 1
1260 1
846 1
394 1
1 166
320 1
1 963
282 1
984 1
790 1
1 107
1 119
572 1
1 1513
1 797
1 716
1231 1
91 1
1 1196
1 1287
1 672
259 1
1187 1
1 454
635 1
1519 1
1 1121
1251 1
1 483
1 364
1 1171
1 1522
213 1
1 432
13 1
1054 1
1 667
346 1
885 1
388 1
847 1
1044 1
1 988
1 708
1 1340
1 316
401 1
248 1
474 1
1 994
1 329
1475 1
1 1387
1037 1
1 79
773 1
1 1478
1259 1
1 1521
1 916
1 1394
1 1372
1 208
1 512
1 1329
221 1
1 1129
1 350
1490 1
1 1328
1360 1
1419 1
1284 1
1 714
1 1247
149 1
1 627
1 1105
1 835
686 1
849 1
130 1
1 1379
1 972
498 1
522 1
1 1140
1 201
1 592
1467 1
116 1
241 1
1 1086
500 1
1 1299
1 378
1 458
1 1509
1228 1
1335 1
1 1473
1 484
650 1
1 410
1 176
1 380
1 1092
582 1
1 14
4 3
827 1
178 1
728 1
1 875
528 1
1 706
684 1
941 1
678 1
1176 1
1 435
851 1
632 1
1 840
1 586
419 1
1 699
1279 1
1 775
867 1
145 1
1402 1
1 750
1 1317
641 1
1 742
1301 1
1 356
802 1
455 1
1523 1
1399 1
692 1
1 917
1 75
1 698
170 1
1 1197
1 1417
1504 1
1 596
1 1369
1 933
825 1
1 636
245 1
1 29
631 1
183 1
1 612
666 1
140 1
1 1200
326 1
114 1
1352 1
1 420
199 1
505 1
674 1
1 109
1 270
1 125
955 1
1 1499
1 131
1447 1
395 1
1 16
1 1314
1 725
142 1
579 1
1 1241
1 523
753 1
1 144
1269 1
1 731
83 1
414 1
1 1343
942 1
1 1099
1 521
1 1153
1378 1
1383 1
1250 1
1 294
1 293
1 1266
456 1
1 1021
1 352
1 1450
436 1
339 1
935 1
1357 1
813 1
34 1
1433 1
1 978
1 1474
1 511
340 1
1 993
694 1
1155 1
104 1
1 509
1460 1
524 1
755 1
1386 1
1388 1
1 372
1 583
1 751
1 38
580 1
1 443
1212 1
1 1353
1 1133
1 359
1 866
425 1
1463 1
1 122
980 1
700 1
898 1
1 416
1 1346
1 828
1 691
1094 1
1 1515
1 92
1265 1
1 1381
1 90
386 1
1 1091
1 77
1485 1
1033 1
333 1
1 251
1 303
278 1
594 1
1 1003
26 1
1 520
1 705
403 1
608 1
729 1
1 1057
1026 1
152 1
886 1
1327 1
764 1
1312 1
1389 1
1 911
108 1
1 745
309 1
1 623
1 892
1 22
1 304
681 1
1 1425
1 283
1321 1
865 1
224 1
1 193
1 1393
1 1391
48 1
1038 1
1 1320
534 1
1004 1
842 1
1262 1
1 1082
717 1
1 1510
1120 1
859 1
1430 1
257 1
375 1
1172 1
1192 1
319 1
1 804
1 634
1124 1
1 1010
24 1
1456 1
35 1
1 179
1096 1
190 1
1109 1
800 1
1 1073
1227 1
1 1051
1 1364
990 1
1318 1
1123 1
1 1420
1 1177
1 1437
539 1
426 1
277 1
1 737
186 1
1 136
1404 1
1174 1
1 676
1 746
1 588
1 1442
554 1
920 1
1358 1
1 677
712 1
1472 1
1 519
1 76
1204 1
624 1
643 1
1 905
1 28
1 924
366 1
1 1139
1 877
1 271
1 927
1 225
1 1256
1 893
566 1
1 774
1 1184
1 662
1 680
1 887
541 1
1 540
1310 1
805 1
1 138
1 713
1 1306
215 1
888 1
1363 1
1 730
1 471
1 82
63 1
1085 1
860 1
1 117
1354 1
227 1
1 469
1 868
1 1179
1448 1
1 651
1 58
1 1067
1514 1
492 1
1 724
1 1362
1 983
1413 1
1 759
1 192
1 194
348 1
460 1
1131 1
655 1
1 151
1 457
1 1077
603 1
256 1
610 1
15 1
1 1245
1 1034
321 1
1 30
1 1479
1 570
100 1
1 1015
1286 1
1215 1
1 986
1 296
1 1445
1 1282
1 501
70 1
1 96
228 1
845 1
1 438
833 1
210 1
1186 1
1 646
858 1
1125 1
1 240
1248 1
1 1492
1 878
1 307
1 465
1006 1
80 1
1 496
1 1017
1 1043
1 974
121 1
129 1
601 1
1 1147
1 452
1 902
1261 1
1 124
1 1459
263 1
1281 1
957 1
1 300
741 1
491 1
1 1070
1392 1
1 1486
1 943
823 1
1505 1
793 1
133 1
1 552
614 1
1 390
1 370
1 181
656 1
621 1
1 1053
1127 1
1088 1
1190 1
361 1
72 1
1 824
1 217
1 1016
1081 1
1 647
1 530
1178 1
1 689
754 1
175 1
1 461
1 1277
398 1
1183 1
258 1
1 1496
1078 1
1 284
854 1
1 177
1 155
1 938
78 1
137 1
1 1449
1 1068
1 446
1465 1
1 1114
1 165
949 1
247 1
548 1
1 726
1322 1
1 961
1 613
1117 1
1 788
1 1093
1 545
311 1
707 1
1185 1
1 494
1 648
1 150
81 1
84 1
1 312
255 1
968 1
1 1385
536 1
964 1
1 538
1 891
960 1
743 1
1 934
1 890
637 1
1 1126
264 1
1 384
818 1
1 1031
1 1083
197 1
1 669
1501 1
1 27
1 939
1230 1
1 611
1291 1
1 777
1452 1
1 826
1 1351
1 723
1101 1
1002 1
1 1365
785 1
1464 1
921 1
1 383
173 1
1149 1
1 1119
1380 1
1 160
1 226
947 1
1 1376
718 1
1 185
1143 1
1 477
1 1502
1 468
1371 1
1422 1
1 1253
1 1470
290 1
1069 1
617 1
1 778
1431 1
1 156
1 59
1 1511
1 1080
1 595
1047 1
1440 1
1 683
1158 1
373 1
1294 1
640 1
654 1
1466 1
1 428
267 1
1 299
1 803
1 1191
564 1
1516 1
1453 1
1 1116
660 1
1 1406
1 189
1 1161
1 1128
1 205
396 1
1 236
992 1
110 1
1 322
1157 1
1 1289
411 1
857 1
261 1
1 74
1 569
1 863
1 1458
1 447
1 451
1 353
558 1
191 1
578 1
1487 1
1 1411
1 513
1 323
848 1
1036 1
772 1
400 1
1316 1
1 1495
279 1
1 422
50 1
1 1154
1 233
405 1
642 1
1 331
1 327
1 253
1 907
918 1
1 1443
1 1477
1481 1
744 1
526 1
1240 1
798 1
1 1484
799 1
1270 1
873 1
1361 1
1 135
1 301
1075 1
932 1
1 478
1483 1
260 1
1 218
589 1
1150 1
1 852
1 1441
1275 1
1 503
195 1
1 1462
837 1
1 763
940 1
1148 1
882 1
39 1
1 1375
1307 1
619 1
1 690
295 1
1 337
1 1142
5 4
832 1
1 10
1 1225
239 1
1 382
1 393
1 796
1 561
1432 1
1 1278
1 229
493 1
517 1
1 1507
1 525
1 367
244 1
688 1
281 1
1 915
1330 1
504 1
1005 1
332 1
1 404
1 1020
5 6
970 1
1326 1
1136 1
365 1
1 668
275 1
1 811
1 1169
1 360
449 1
952 1
607 1
1 1304
1 709
1 23
1 976
1 466
1209 1
453 1
1 1423
1 1134
417 1
1 143
1 355
1 1339
551 1
1 180
1 41
1272 1
1427 1
1170 1
834 1
1 1137
1 914
829 1
1 94
1 198
1 831
1 387
1 529
8 1
1 105
479 1
748 1
1 1469
1 850
1 626
1 958
368 1
1 464
1062 1
52 1
1 1167
1 1395
1 1141
1 1498
1181 1
86 1
1048 1
734 1
115 1
1 567
1 11
1 696
1 1288
853 1
1 806
950 1
1446 1
1 1342
1 51
1 476
1 645
1 1434
1 1055
543 1
899 1
1 1268
795 1
1198 1
169 1
1 163
1415 1
817 1
1 1087
1 430
1208 1
1 1219
1 349
1 747
1 727
214 1
1 171
1298 1
856 1
1 739
206 1
1 900
36 1
330 1
1 820
985 1
1 9
1 1233
1 1084
880 1
1 946
1 37
807 1
1 1165
1254 1
1 490
111 1
1 922
1012 1
112 1
1355 1
1 1292
1 1122
408 1
1 923
1 222
1476 1
1 418
1508 1
1 573
1 238
437 1
644 1
1334 1
682 1
1 1400
1 61
1 1152
1 791
1046 1
1 1315
1 1319
334 1
1512 1
1436 1
1455 1
1 1027
814 1
1 421
357 1
809 1
1 95
1 103
1 598
821 1
906 1
1 765
1 470
685 1
172 1
1023 1
207 1
801 1
659 1
962 1
1 1454
862 1
1 1488
1 995
1 280
7 1
1244 1
1 450
1 508
1182 1
1 431
1 516
969 1
1 1444
1 926
67 1
1 936
118 1
1 628
599 1
1112 1
1 982
286 1
1 62
1 560
1 1175
1 344
1 758
1482 1
146 1
343 1
1 571
1 959
965 1
1 1471
237 1
413 1
1050 1
1 1030
1 427
1222 1
710 1
1 574
1 1258
1377 1
1 49
318 1
1348 1
719 1
967 1
1461 1
1061 1
1145 1
1 658
1 1439
18 1
126 1
1 999
314 1
1 291
1 1506
1 544
1211 1
363 1
1 338
1 362
1108 1
1341 1
1 855
1 792
25 1
1 246
32 1
1429 1
369 1
1408 1
953 1
722 1
127 1
1 305
1 1232
1 445
1 1368
1 515
1332 1
1162 1
1 47
1 1008
1 581
1 187
1 590
1 1111
1 287
209 1
31 1
1 1313
1 1194
162 1
1 495
1203 1
1 931
231 1
633 1
752 1
1100 1
1 53
585 1
392 1
1 439
1 1300
1367 1
204 1
1 1206
1 1001
1 721
1028 1
203 1
101 1
1 1500
1 732
1 1397
1480 1
3 2
1 577
1426 1
1331 1
1 1295
1 1518
1 1257
979 1
1 951
1 532
1 822
220 1
1 1493
1457 1
1 69
1 1398
188 1
1 40
889 1
1236 1
212 1
1 693
302 1
1 780
1 1347
1 1438
1 1113
442 1
894 1
1 1428
1 615
1 736
879 1
1173 1
1 306
1 563
1224 1
1311 1
211 1
1 701
482 1
1 1207
1 223
1 298
1 167
1193 1
1 720
1 555
930 1
351 1
486 1
1 1489
1226 1
1302 1
1214 1
164 1
1421 1
925 1
313 1
987 1
347 1
1 1520
1 434
1 89
336 1
371 1
1074 1
639 1
1 1290
462 1
1205 1
1 919
1 1097
597 1
506 1
1 787
1 219
665 1
1285 1
1 412
929 1
1283 1
1 20
1 158
1 531
673 1
1104 1
1409 1
1 335
57 1
1374 1
1 1401
864 1
64 1
812 1
1 1024
1243 1
1 1180
1 784
1060 1
550 1
1035 1
182 1
618 1
1 481
1 786
1 766
1 1267
872 1
1 844
1040 1
1 1333
767 1
1052 1
1168 1
1 1063
1 99
1350 1
1 836
1 997
1 622
376 1
1 896
1 762
354 1
1 1164
1 1118
1373 1
1 1296
265 1
272 1
1 402
1 46
575 1
664 1
653 1
1 1359
148 1
1103 1
1 1079
423 1
1 876
1297 1
1 1325
1 60
998 1
996 1
1 68
1 1410
1025 1
604 1
1416 1
740 1
1 909
1 861
1 1071
440 1
1 1468
977 1
1 473
1 249
1 871
389 1
342 1
1 808
1 838
1 1344
1049 1
45 1
1 19
1 397
1 1229
1524 1
1503 1
1 1517
869 1
1 407
1 735
1 1263
1396 1
1 1414
593 1
1 1065
1308 1
174 1
912 1
1 609
269 1
379 1
71 1
1 535
1 559
1382 1
1 268
1 1132
1 441
1 1189
93 1
1019 1
1 325
908 1
1234 1
1 769
1 475
1072 1
1 1011
250 1
928 1
1 1264
87 1
1 243
324 1
1 629
1 139
1 273
1 1056
546 1
1 1494
1 65
1 98
1 779
1 1106
839 1
1 21
702 1
1 134
1 1188
556 1
288 1
695 1
760 1
527 1
1 518
1333 907 4
1 1317
308 1
914 1
1119 1
1197 1
1 735
1 765
1273 1
1 1319
1 880
1 139
31 1
1 382
1 962
1 969
918 1
1106 1
550 1
1 1236
1 1281
1 436
207 1
1 172
1148 1
1 805
1 1172
1 374
1 535
1 1146
1 14
1 671
1 883
1 906
1 111
1 1116
848 1
781 1
1 234
266 1
674 1
1 42
1 1069
1 803
1 878
1 321
1 98
1 1163
970 1
1 567
1124 1
1049 1
1 484
1 1233
1 492
1 1173
425 1
1 1022
1 763
1 820
272 1
1 240
1 584
841 1
1174 1
1 177
1 9
33 1
582 1
1305 1
1 1052
1 348
1 1103
1 660
1179 1
802 1
1 1201
744 1
1 171
1 1063
146 1
1 301
565 1
860 1
566 1
1 508
673 1
600 1
314 1
1 1046
1 1019
587 1
342 1
1 941
1328 1
1 733
1 613
1 1109
1 202
1 785
1 1322
1 318
907 1
1 886
1112 1
182 1
1 97
599 1
1 418
1 922
192 1
1 743
476 1
1 833
951 1
750 1
1 822
1232 1
1041 1
186 1
121 1
1 793
619 1
1 1013
1 354
607 1
1 1323
239 1
1 212
179 1
1 637
1 896
328 1
1 577
1 624
1 168
1 700
1 403
1 958
1 766
56 1
991 1
1 656
1 1160
1 901
223 1
1142 1
1 1325
1 892
1 527
1 1178
398 1
1 1240
1 664
663 1
279 1
352 1
1 490
1 226
1 1137
1 866
739 1
1 1000
250 1
1 434
1 1082
1 686
1 611
1089 1
1 327
609 1
147 1
486 1
86 1
460 1
390 1
123 1
1 953
1307 1
813 1
1 977
1 903
1 245
298 1
1 1156
1 634
1 162
1 447
1 576
881 1
1 408
1 976
262 1
1292 1
303 1
1 868
717 1
1 1300
213 1
1143 1
1 1244
1 666
180 1
1064 1
1 1131
421 1
1 703
1099 1
1 924
1 26
1259 1
1 459
7 1
1 776
306 1
775 1
905 1
1 934
1253 1
407 1
491 1
957 1
1267 1
888 1
808 1
1 1282
5 4
12 1
1186 1
467 1
1 817
1 913
1 30
1024 1
1001 1
948 1
362 1
1 1043
1297 1
1 18
1 558
1 804
1298 1
280 1
721 1
1 219
154 1
1191 1
954 1
626 1
138 1
692 1
707 1
1 932
1 1308
126 1
771 1
1 140
1161 1
1 330
1 1293
339 1
832 1
1 343
712 1
1050 1
1127 1
1 1238
1 380
1077 1
815 1
1 48
1 647
92 1
19 1
1 1242
1183 1
1 63
11 1
1 260
1 966
1 819
1 464
1 334
1 336
1 1128
1 194
1 116
1 1027
366 1
1 564
1 1120
404 1
1 174
143 1
1 1255
806 1
935 1
1 701
1 127
1 714
300 1
1 1313
829 1
175 1
890 1
1 152
1 622
1 82
1185 1
214 1
1121 1
1 724
981 1
488 1
1 947
402 1
1 409
1333 1
1 726
1 1159
1 468
1 483
1 1058
1 253
1 107
1 1044
1 612
1 1122
509 1
1 131
161 1
1 1007
575 1
525 1
1 777
1 1021
715 1
1 295
1 1086
1 38
694 1
169 1
836 1
628 1
1 136
326 1
242 1
1 230
1 999
1 621
512 1
1 1198
1 1210
132 1
1 1081
1 463
1 521
1 770
1153 1
1 420
561 1
101 1
1 255
209 1
1 1139
1 472
1 1225
193 1
1 474
520 1
144 1
921 1
1 769
1016 1
167 1
57 1
1 510
950 1
1330 1
1199 1
1 590
1 1212
524 1
1039 1
458 1
1 895
964 1
1 1074
1 335
1 602
1 55
1 1168
1 746
1 1096
1010 1
1 149
1088 1
1110 1
1269 1
1004 1
1 547
277 1
636 1
1 562
329 1
1 1144
1 74
1 1175
1 753
1 435
1 665
1 963
270 1
1180 1
767 1
1 364
1 1101
790 1
443 1
1 1327
967 1
1 995
513 1
828 1
1 1271
1 367
1 294
264 1
1 1014
1 204
1 586
629 1
1 1252
1 996
453 1
1 745
259 1
667 1
307 1
946 1
99 1
80 1
1125 1
989 1
1 229
1274 1
1 93
401 1
1 1192
749 1
29 1
479 1
1266 1
515 1
1117 1
1 225
1187 1
333 1
246 1
1 1202
1 625
10 1
1 927
142 1
1 157
361 1
1 231
684 1
710 1
682 1
1 782
1 574
1 185
1 1141
1 859
497 1
748 1
537 1
1215 1
158 1
21 1
28 1
801 1
1 839
1 589
827 1
1 871
618 1
572 1
873 1
528 1
1 297
1 469
414 1
899 1
1 504
627 1
1 1291
1 571
383 1
1 554
699 1
412 1
216 1
1 540
1288 1
1247 1
956 1
188 1
1 1030
875 1
1 824
552 1
134 1
1012 1
1279 1
296 1
243 1
323 1
1296 1
1 1003
1 416
798 1
1 916
761 1
1 286
1 1032
556 1
1 920
1 653
1 1295
1243 1
1023 1
1 1280
71 1
1 968
1 191
1251 1
441 1
480 1
1 22
1 1055
594 1
1278 1
1 583
1 45
1 731
1 975
1031 1
1 1268
1 523
1129 1
1 67
942 1
1 730
1 728
1 481
1 1207
1 784
1 439
1 974
615 1
1 711
375 1
1 768
1167 1
1136 1
1 1080
1 1248
389 1
1 311
1 997
1 1209
1 740
519 1
1262 1
103 1
1 159
77 1
1 68
1 884
655 1
1318 1
312 1
560 1
1228 1
1090 1
452 1
1 658
46 1
1 130
979 1
1 372
1 616
324 1
120 1
1 271
291 1
1 649
1 1075
1 64
1 1033
205 1
6 5
473 1
385 1
965 1
1 773
461 1
195 1
872 1
704 1
1 783
1 1196
1 961
1135 1
823 1
812 1
400 1
898 1
1 1134
1 211
1 309
792 1
1 50
1 1214
215 1
1 787
137 1
853 1
1 894
115 1
1 597
1164 1
1 986
34 1
1 1097
1 448
1237 1
410 1
1 569
1 429
356 1
1 1235
1061 1
360 1
59 1
980 1
1 1239
752 1
1151 1
1 861
1 442
984 1
596 1
605 1
1 1008
850 1
284 1
1 1067
1 578
1 972
370 1
742 1
238 1
456 1
1182 1
591 1
1258 1
1 541
432 1
1 263
685 1
1150 1
1 105
487 1
843 1
662 1
1 1060
1 677
1 949
1 276
718 1
1 538
1 475
1 1188
1 236
347 1
869 1
580 1
1 543
1 218
317 1
1 1118
1059 1
79 1
1 251
534 1
505 1
1 1306
845 1
288 1
1 183
992 1
292 1
23 1
1 816
526 1
83 1
1 877
1 670
1 933
1026 1
470 1
818 1
598 1
1264 1
1 478
548 1
73 1
1 849
1 8
1051 1
1 257
716 1
640 1
1 316
943 1
462 1
1 1204
1 698
489 1
1 75
1203 1
1 1018
224 1
904 1
1 32
1301 1
415 1
800 1
879 1
1 676
851 1
244 1
1 1037
1 283
1147 1
1 1190
1260 1
197 1
1 844
1 427
1 755
751 1
1 1029
1 1149
1 695
551 1
1 672
608 1
1 16
200 1
1 122
1 438
1 791
654 1
1 902
533 1
69 1
638 1
1 928
1 100
1 117
1 506
779 1
1 516
632 1
1 422
865 1
378 1
1 355
502 1
915 1
1170 1
923 1
944 1
1 847
1 814
1 413
1 908
1 705
500 1
644 1
1 1083
119 1
1 87
772 1
1 495
1 1133
1223 1
1 394
1 539
1 426
386 1
1 1165
1 641
856 1
1 384
151 1
1 449
1 998
1 690
1 614
39 1
17 1
357 1
774 1
1283 1
588 1
1 522
282 1
1 937
1091 1
178 1
1 736
287 1
811 1
1094 1
1176 1
445 1
1 727
165 1
465 1
397 1
1 897
1 393
1 825
1 365
1231 1
1 870
1 1219
222 1
531 1
858 1
929 1
1208 1
220 1
1 503
43 1
1245 1
1 546
1035 1
1 145
517 1
1 650
1 1002
47 1
1 1321
1 1206
1 261
706 1
1152 1
709 1
518 1
1 854
141 1
1 1331
1 945
1218 1
254 1
1078 1
273 1
559 1
1 302
1194 1
1 285
1254 1
1311 1
1 1093
1265 1
1289 1
1 494
1 635
1 741
1257 1
1 1102
1 1025
1066 1
1 1140
955 1
252 1
794 1
1 982
189 1
1169 1
61 1
1 555
454 1
1 1224
1 269
41 1
1 973
1 1054
1 325
1326 1
1302 1
758 1
482 1
1 110
857 1
1 471
780 1
681 1
1 557
128 1
1 1065
1 81
661 1
993 1
1272 1
1 20
1 864
1 1158
124 1
1 1085
1 1299
1 1084
1309 1
1 1230
106 1
1 164
1 210
1 49
1 760
1 258
1275 1
176 1
1 293
1028 1
1 645
1 1310
108 1
173 1
1 1332
1105 1
911 1
1 838
544 1
697 1
233 1
1 405
450 1
268 1
1222 1
1062 1
1073 1
1 160
1181 1
319 1
363 1
1123 1
1 573
657 1
1 1315
1 278
358 1
826 1
1 419
1108 1
1 930
1 340
1 830
51 1
1 274
891 1
1 971
1 595
1 1071
1 1098
1 1057
153 1
1 553
842 1
1 1076
1 377
1 396
1193 1
1290 1
1 133
1 1070
1 1277
1038 1
683 1
1 592
876 1
1 187
623 1
371 1
1 1087
1034 1
1 648
725 1
433 1
1155 1
1 668
446 1
499 1
1 232
3 2
70 1
112 1
757 1
1 78
1320 1
444 1
985 1
1 203
1 181
267 1
392 1
507 1
936 1
988 1
1 1217
1 732
1227 1
109 1
1 1287
1 1329
1 387
208 1
652 1
1 351
102 1
1 1045
1 1276
1 1138
720 1
1 639
1 376
1 585
1 399
4 3
1 76
498 1
568 1
2 1
1 530
190 1
1 1126
1 917
514 1
1 593
834 1
759 1
1 511
1 58
1 691
1 659
1 919
1 196
1 235
1 938
1 579
1 1211
1 37
1 651
1 249
1162 1
1 1036
1 722
1284 1
359 1
581 1
1 601
104 1
646 1
1 846
35 1
1 1107
1068 1
747 1
1270 1
1 54
994 1
1 217
1 1095
1 1216
27 1
1 807
1053 1
1294 1
1111 1
135 1
331 1
322 1
799 1
1 978
1 1130
1 1011
1 545
1 24
1166 1
1 960
1 536
1 1285
926 1
1 788
1 789
729 1
762 1
1 1312
155 1
451 1
1 1226
1195 1
1 241
373 1
1 1015
1 754
1 256
620 1
1 796
1 248
1 493
1 1249
1 1250
910 1
350 1
320 1
368 1
60 1
1 437
1 428
1 114
1286 1
1 795
693 1
1 65
893 1
1 1145
1304 1
341 1
62 1
315 1
570 1
1 809
1 1205
687 1
6 7
764 1
1 166
338 1
91 1
1 281
1 345
689 1
680 1
275 1
669 1
1048 1
1 53
983 1
1303 1
1 170
925 1
1 1017
221 1
1 198
1 1104
1316 1
912 1
1 1056
1 532
1 1115
290 1
1 696
310 1
13 1
1 1200
1 606
1 1020
604 1
1 1256
679 1
1 496
1 1114
369 1
395 1
184 1
1 840
88 1
1324 1
85 1
206 1
1 862
455 1
1 1234
633 1
887 1
1 25
631 1
1157 1
708 1
1072 1
466 1
430 1
1 431
797 1
1 125
1 346
1 959
337 1
1 756
1 987
1 835
1005 1
1 737
702 1
1221 1
199 1
1 889
1 1047
1314 1
1 379
529 1
1 156
1 332
1 406
1 381
265 1
610 1
1 549
1006 1
1 855
96 1
863 1
1213 1
1 939
1 1189
289 1
1 485
1 719
1 44
1 477
1 909
786 1
1 940
1 66
643 1
1 1171
1 129
1177 1
150 1
688 1
675 1
1 227
1 237
118 1
84 1
201 1
882 1
990 1
349 1
247 1
1220 1
1132 1
1 678
1009 1
1 885
1 15
1 723
1 900
1 148
1 113
1 72
344 1
852 1
1 90
1100 1
542 1
1 417
1 440
1 831
1 299
563 1
1 931
305 1
353 1
1 304
1 424
1 228
1 642
778 1
94 1
1 89
1113 1
391 1
952 1
1 1246
713 1
1 1184
1 52
1 423
1 1042
1 95
1 810
457 1
1 1229
630 1
1 837
163 1
1 313
1 738
1 734
1 501
1 1261
617 1
40 1
867 1
1263 1
1241 1
1 1040
821 1
1 1154
1079 1
603 1
1 874
36 1
1 1092
1 388
1 411
1451 776 4
1 1080
1 1334
1161 1
1 1330
1 1065
1 973
1214 1
422 1
1224 1
294 1
189 1
501 1
1 553
343 1
1 986
1 55
1 359
1 904
1 1390
1 1449
1 146
1 144
1 866
1 703
1 816
117 1
1 1223
1 760
1 802
1 1160
1 179
1288 1
1304 1
387 1
607 1
955 1
640 1
80 1
1 264
1374 1
1 303
1 434
1 516
1 1135
933 1
1 602
1 740
1 520
1 198
836 1
1 917
155 1
1 411
1140 1
233 1
960 1
1 557
1 1320
957 1
1 398
327 1
1391 1
278 1
1219 1
35 1
1 543
1 1020
1 1010
769 1
173 1
471 1
940 1
1272 1
1 1284
241 1
1 1062
680 1
1 124
414 1
1 405
1 1046
1 638
1442 1
1253 1
918 1
95 1
1 846
134 1
1365 1
1 550
1 1237
1 369
1085 1
138 1
185 1
1 551
1 905
1 1431
1093 1
1259 1
704 1
1164 1
1 444
1 1125
1210 1
729 1
217 1
817 1
1 1006
388 1
1047 1
1 469
1 753
972 1
1 476
1 364
511 1
1 287
175 1
1052 1
1379 1
503 1
1 1385
1 1359
1 733
1428 1
1 837
1 559
510 1
732 1
1 347
93 1
1 1060
1336 1
1 668
1 1001
44 1
642 1
1376 1
1 455
1 149
1 228
1193 1
62 1
1 322
1 662
899 1
1 431
1430 1
1 1398
546 1
605 1
746 1
481 1
1 1350
1 984
1427 1
1 176
1 348
771 1
1 395
1 1086
12 1
1 11
1381 1
1 1128
1244 1
674 1
1 1138
1 1019
449 1
1 1394
1 318
1 350
1186 1
799 1
580 1
497 1
577 1
614 1
1 1246
782 1
1 211
1 320
1 1188
1 766
887 1
1 482
1121 1
1325 1
84 1
1440 1
1 971
71 1
1 1318
1075 1
1 239
1 426
195 1
786 1
297 1
260 1
1 1124
1 295
1388 1
1 1095
1 999
713 1
357 1
1 814
1369 1
1 491
1 1165
1 82
1182 1
709 1
1208 1
1 1197
1 1392
41 1
513 1
645 1
1 135
1 1235
1 851
1 1089
403 1
1 561
1 967
342 1
1061 1
1 259
1 915
1 446
163 1
1 886
1 204
1059 1
1 506
1 89
1 958
1 948
1 1157
1 1217
261 1
408 1
731 1
728 1
1 742
976 1
1 716
1148 1
1 1056
1 170
763 1
400 1
1 1329
1 563
1 362
1 949
1109 1
1 1142
989 1
13 1
98 1
101 1
1 276
1349 1
409 1
1 1399
995 1
1 1450
1 991
1 842
1 1258
1389 1
877 1
924 1
1 72
487 1
1 119
1035 1
916 1
1 1025
708 1
796 1
1 335
1 1395
1311 1
1 669
1 439
1 1380
1 1347
1232 1
858 1
1196 1
888 1
1 1307
495 1
867 1
566 1
311 1
1058 1
1225 1
1250 1
1122 1
1435 1
718 1
861 1
1 218
1 1090
556 1
1 588
549 1
1 1444
1 447
1 1036
1 1094
139 1
467 1
485 1
1 1013
687 1
1 792
1 10
1 1363
1 1254
283 1
936 1
1 678
1053 1
710 1
334 1
1 184
1 690
3 4
1102 1
1 483
1 637
1 689
1100 1
1 1419
391 1
1 393
366 1
440 1
3 2
1 1438
1 644
726 1
230 1
1 1332
568 1
988 1
1 721
1 795
941 1
541 1
1 407
1 315
245 1
1162 1
1263 1
1207 1
1 1401
927 1
1 112
950 1
1133 1
1 91
406 1
1 937
1 712
1231 1
1 612
1 75
1 697
258 1
293 1
1 878
1 1192
881 1
1415 1
1 255
1 1238
906 1
1 977
1 325
780 1
1 848
583 1
752 1
1 1063
430 1
1 894
935 1
1 316
652 1
684 1
1 1092
1 715
1136 1
1 363
1 892
1 270
1 27
1 454
340 1
182 1
776 1
1 267
1 679
331 1
1368 1
1 1421
1 234
954 1
901 1
1 755
191 1
1 649
26 1
1 947
1 346
1 165
1 1265
30 1
1 730
1 670
1 1262
1436 1
1 857
1305 1
1 355
56 1
323 1
536 1
1 1252
641 1
130 1
1 558
1 914
1 194
804 1
81 1
1 1029
313 1
1264 1
1 1243
1402 1
734 1
1 420
1 617
1 1014
1 301
1 909
1150 1
1 682
1337 1
1 650
1 1054
122 1
1 238
1 504
1 810
1 109
688 1
1 673
1 632
1156 1
92 1
415 1
1 686
1 885
384 1
1 1446
99 1
1 1009
889 1
1370 1
1 1373
1 523
907 1
1 1221
360 1
88 1
920 1
389 1
1 225
1 1278
1 890
980 1
1 423
1096 1
1 750
859 1
470 1
1230 1
692 1
1 1280
1 542
1 1134
1 463
1 775
751 1
1 1115
1 993
288 1
1 368
1220 1
1 1306
6 1
700 1
1 332
1 468
724 1
1301 1
723 1
653 1
500 1
1 150
1 25
532 1
1 104
1 42
1 208
1 1088
1 1342
1 472
338 1
1 841
1 1045
23 1
608 1
1312 1
1 1247
671 1
1123 1
1 1185
1 1245
1352 1
1 959
1171 1
1 87
1 1297
1 1406
1000 1
1 480
4 5
1 210
996 1
1 1078
1 982
1 152
1 797
1 831
584 1
1144 1
68 1
108 1
1 60
1 1324
896 1
1 872
436 1
825 1
275 1
812 1
1 214
1 1044
1 1017
1 162
1027 1
1 821
1 736
1 908
1 530
1 856
1 73
764 1
1199 1
849 1
1 1313
180 1
1 512
1 1194
1 1309
1 457
341 1
1066 1
1434 1
1 965
1 207
969 1
589 1
1076 1
1206 1
1 326
1 987
236 1
1 249
1 754
1152 1
544 1
1356 1
1249 1
1108 1
585 1
1 963
923 1
1 319
147 1
990 1
1 1178
1 834
1 1294
943 1
694 1
1 911
727 1
1 120
1 515
1 269
1184 1
1 743
1072 1
196 1
1236 1
1 711
1 1289
1 593
1087 1
1 576
961 1
1 865
594 1
801 1
1 1322
1 1055
1131 1
539 1
456 1
1079 1
1 296
1 188
1051 1
1 1117
1 610
1 1151
263 1
177 1
1 1400
1038 1
1034 1
1 749
1364 1
1 118
271 1
921 1
1 100
1 1279
272 1
1 437
507 1
1 1007
1 377
285 1
931 1
595 1
1 49
1 1168
448 1
132 1
1119 1
1 1451
1 396
1026 1
205 1
1 789
1 39
992 1
1 538
1 951
1 634
615 1
1 827
1 531
1 758
581 1
1 1107
1 309
1 169
1 509
1387 1
1 994
1 661
1 373
1071 1
1 1271
1 1314
1 289
701 1
286 1
90 1
560 1
1 526
767 1
1 575
1 618
790 1
425 1
597 1
1 844
284 1
1 224
1 824
1240 1
1 985
1 219
443 1
873 1
1 1130
1 596
1 344
1 1077
517 1
1 137
1 654
1 1291
1 1300
167 1
111 1
1 537
1 1191
1 378
912 1
1 893
1070 1
1 282
1 1101
171 1
609 1
1 1169
1 1018
1 1228
787 1
1 757
1 719
854 1
1 397
1 40
1 128
1 1149
600 1
1 235
1282 1
1 660
1 798
794 1
1067 1
1 1114
1327 1
1 1012
1 725
159 1
1 902
681 1
1 738
639 1
1120 1
1 548
1 939
1028 1
1 392
658 1
1 833
805 1
432 1
67 1
1069 1
1 1407
251 1
266 1
1283 1
1118 1
1 1348
590 1
1 1371
979 1
1 1083
1361 1
1 1040
938 1
1 43
1 627
1 665
1 192
1 306
1 376
1 1267
1 330
534 1
1 299
1 1110
1 1362
1 492
646 1
1 1209
1204 1
349 1
811 1
1 1202
1 413
1174 1
154 1
1 107
1 417
79 1
1 252
1 860
1 199
254 1
1 129
1413 1
5 6
1 274
9 1
385 1
1 466
1 356
1 1126
1 781
1 1227
1 720
1103 1
499 1
478 1
1 404
229 1
768 1
1 66
741 1
952 1
1 1198
1 110
1 629
333 1
1 1408
1 8
862 1
1 1339
1 123
643 1
281 1
1 353
528 1
699 1
822 1
1 1173
48 1
1183 1
1 772
770 1
784 1
1104 1
1 1106
1 777
1321 1
1 222
1 974
1 452
591 1
367 1
74 1
823 1
1 903
1 1298
329 1
1 1269
1 280
1 657
63 1
598 1
1 143
1 161
1 1328
1285 1
1 410
656 1
1 419
698 1
174 1
628 1
1 529
1 1016
1 115
1187 1
1132 1
1 187
1 1200
1 484
1 262
243 1
1 586
1 535
1 525
737 1
1 1404
800 1
1048 1
1 399
1146 1
498 1
474 1
345 1
1 54
1 970
186 1
613 1
1 1338
1 1255
1181 1
1 131
1 1353
1 875
626 1
1 1326
1 677
1 158
762 1
1 1166
1 1218
1296 1
1 227
1 453
1 317
1375 1
1 1137
1 142
855 1
1 253
964 1
371 1
778 1
1 579
1242 1
1 1340
172 1
1 1033
1 200
1 28
1 69
1 1099
1 765
1 1397
1 302
1 246
845 1
7 1
493 1
898 1
587 1
1 1393
1 826
1 839
1139 1
1 361
998 1
1 113
521 1
1377 1
1 465
1 651
273 1
298 1
1 65
375 1
1 1345
1 390
1 1423
1 572
1346 1
1412 1
843 1
1 213
442 1
1022 1
809 1
1 153
1 835
1 1290
573 1
1 372
1 438
1 1153
1 1426
1 942
1 619
1 265
620 1
1 105
1 519
402 1
1 840
1 290
473 1
707 1
1 1351
1 1175
1 328
1 314
1 1222
64 1
32 1
1 569
1 450
864 1
1 748
1145 1
1 570
1 461
514 1
1396 1
1 685
1 428
1 1042
1155 1
1333 1
178 1
1 1064
1 966
1 820
1 667
1 1422
1 1360
562 1
1 29
1 1420
913 1
756 1
1 429
151 1
1 202
1 76
1302 1
125 1
1 1179
1 975
1023 1
1 565
1 1303
223 1
1 1383
215 1
46 1
1 1233
1355 1
181 1
1 1343
1 706
1 168
1 1037
518 1
15 1
788 1
1212 1
1 1260
1004 1
502 1
1 664
336 1
1292 1
1 524
1190 1
1024 1
1112 1
1 1341
1 308
744 1
1 1277
1021 1
1 1409
981 1
1 1367
1317 1
1 1403
31 1
554 1
1 379
1 441
695 1
310 1
592 1
1 900
793 1
1091 1
1039 1
1 997
1266 1
1 625
1 1287
785 1
759 1
1 190
140 1
351 1
747 1
1344 1
807 1
1 386
1 774
1 94
1 83
1 47
1111 1
1 945
1 1143
34 1
1 910
1 1251
1 773
1 321
1 863
1 53
418 1
1003 1
1405 1
45 1
761 1
1 1011
1 1030
489 1
37 1
232 1
1 930
1 61
1 156
21 1
1 1084
1 242
231 1
1097 1
277 1
1 932
103 1
1268 1
1 696
256 1
717 1
459 1
655 1
1358 1
1 226
197 1
1 1270
1 292
1 1439
1 545
312 1
693 1
1 1437
1 193
1170 1
815 1
735 1
1433 1
1180 1
257 1
1 116
458 1
1 828
1 78
1 20
1 870
412 1
496 1
1163 1
1 421
956 1
968 1
1310 1
244 1
1 1154
635 1
381 1
86 1
1239 1
1 962
739 1
880 1
1 374
702 1
1 1293
1331 1
1 1308
1 540
1147 1
1378 1
1257 1
929 1
1 1032
300 1
1 1074
1 22
647 1
1275 1
1 868
1 1441
279 1
1 307
1 879
1 148
1 1229
1 97
1 1211
1 1116
1 691
1 1424
1081 1
555 1
1 16
1 895
1248 1
552 1
1 829
1 435
1 383
871 1
1 305
1015 1
1 925
571 1
1176 1
1 33
1 126
1 268
1 944
427 1
1050 1
57 1
1 1113
1 203
1 1216
206 1
141 1
891 1
1 1215
394 1
1 2
1 51
1445 1
19 1
1 1448
475 1
1418 1
1 451
1 876
666 1
1 1049
1 164
1 1201
479 1
1 745
621 1
1 250
50 1
1261 1
934 1
1 852
1 663
1 183
1 819
1 630
1 166
1 1234
1 803
14 1
1 922
1295 1
1 247
1 1432
1 623
365 1
522 1
926 1
1 527
1195 1
808 1
1 616
1 1382
1 102
416 1
599 1
337 1
354 1
601 1
1 160
779 1
1 380
850 1
1 604
683 1
1 464
494 1
1 424
36 1
1 508
1098 1
636 1
978 1
1 1414
1226 1
1 1286
1 847
1 1203
1 1384
1 221
806 1
1 201
783 1
339 1
1 897
564 1
1 433
567 1
401 1
462 1
676 1
1 324
1 1105
1 1316
1 1008
533 1
791 1
24 1
1 1411
1273 1
1041 1
1 832
220 1
1 582
1189 1
1 212
1 946
1 1205
705 1
1410 1
1 157
1 578
1 1082
1274 1
1 1129
1 1372
85 1
1 622
52 1
1 77
838 1
240 1
1 1299
1 1167
1 611
1 1417
460 1
248 1
133 1
121 1
1276 1
1 874
59 1
1 714
1 606
1 633
1 114
1 1425
722 1
1 869
1073 1
1 1429
1141 1
1 477
1 624
1 1241
1 486
1 490
1 631
1 813
17 1
1031 1
1 1158
1 818
1416 1
1 648
1172 1
1 1005
304 1
675 1
58 1
382 1
1 145
370 1
70 1
919 1
1 547
1 884
1 672
1 1043
1177 1
1323 1
1 1357
603 1
1 96
1213 1
1 209
1057 1
830 1
853 1
1 1443
1447 1
1386 1
352 1
1 237
1 445
127 1
1 1002
1 358
1 1319
983 1
1256 1
1 216
1 1366
1354 1
1 1335
1159 1
1 1068
1 1281
505 1
953 1
1 18
1 488
1 1315
106 1
1 136
1 574
882 1
1 38
659 1
1 291
1 928
1 1127
1 883
1485 673 3
1 645
1 512
964 1
804 1
865 1
1 195
1 1483
1 478
1 1126
1 63
1 525
1 1228
1 74
813 1
1286 1
1 244
1114 1
1118 1
383 1
1 289
1 221
1235 1
1 1387
1137 1
1 552
1 403
1430 1
1 151
598 1
1 601
1 1342
1 1238
1 1296
2 1
1 710
1 1465
565 1
1358 1
1276 1
1 152
1 53
1 1224
465 1
1 606
1417 1
697 1
768 1
405 1
1 894
1 450
1 220
1 1109
1 459
1367 1
1097 1
1 1133
1 56
815 1
286 1
1 6
1 1452
1 482
1 624
1 705
1 207
902 1
1 1045
194 1
546 1
1183 1
1 633
250 1
1221 1
1 1014
1 361
903 1
308 1
1473 1
162 1
1 72
1 50
350 1
1 212
37 1
1 688
733 1
1334 1
943 1
891 1
1 1058
1 930
1 1211
1 680
1 965
1 1310
1195 1
264 1
1 1384
1 1108
847 1
1053 1
1 1194
1291 1
1 1295
1 180
1348 1
1 1015
1044 1
1 1022
58 1
1 574
486 1
584 1
1 396
1404 1
698 1
932 1
1 632
1423 1
1 316
1 323
1067 1
1 1245
852 1
463 1
1037 1
1 1219
281 1
1 39
293 1
826 1
1 1095
863 1
1130 1
1 923
1 977
1378 1
1 388
1198 1
1210 1
1 690
143 1
398 1
1 1410
1 1091
750 1
1 651
1 1084
1 415
1 252
1 1474
1 647
897 1
1467 1
1 1257
1 763
1078 1
1 1005
503 1
906 1
1241 1
469 1
1122 1
1318 1
160 1
1 248
1 1003
1 949
99 1
1 1397
1482 1
1 406
1 1105
1455 1
146 1
1 487
1 1445
1123 1
1 568
547 1
188 1
867 1
1 637
1380 1
1 263
1 1136
1480 1
780 1
1 69
397 1
1 1312
628 1
7 1
1062 1
1 870
253 1
1 183
1 1262
1 781
1085 1
1 480
1 1449
799 1
1 776
230 1
886 1
1 1154
1 572
17 1
1247 1
1 604
305 1
1385 1
1 1340
1 1134
312 1
1 785
1 436
892 1
1300 1
1260 1
1 654
1 1434
1 1477
358 1
1 443
1121 1
1 498
1 972
1 464
1 407
1 1181
1 36
754 1
1284 1
1083 1
1 83
1357 1
1 629
1 788
1 530
1 357
790 1
1 744
1307 1
89 1
1362 1
1 1336
1 1023
473 1
1 378
1206 1
1450 1
62 1
537 1
1 342
596 1
1 861
1107 1
1 1401
1 1283
1110 1
1408 1
163 1
1 157
314 1
1 408
1369 1
1 919
1 391
592 1
1 1234
277 1
1119 1
43 1
335 1
585 1
1 1214
878 1
298 1
1 1057
1 575
1290 1
1 808
1 556
206 1
1 833
507 1
1 1099
842 1
108 1
1 774
1 1426
1 100
182 1
672 1
841 1
297 1
320 1
895 1
722 1
394 1
1079 1
1 448
1 580
1 740
457 1
1232 1
1 326
634 1
1 278
514 1
438 1
1 783
173 1
1320 1
1 542
390 1
561 1
156 1
1365 1
1 1051
91 1
1 899
322 1
1 1146
466 1
1 889
1 1187
1 1321
1 429
1 1333
1 492
1 1018
1 1205
1 992
792 1
1 926
1377 1
382 1
963 1
782 1
1 751
1212 1
1030 1
393 1
1 1253
1 1478
1402 1
409 1
1 504
1 276
701 1
1047 1
947 1
1 911
1 384
500 1
1 1351
1 640
1 827
1161 1
1 691
562 1
1 801
1 418
767 1
174 1
280 1
1 1459
1216 1
1 602
1 979
1 302
506 1
231 1
1192 1
564 1
1 461
268 1
87 1
1 869
315 1
1 269
1 266
92 1
730 1
1 1390
1337 1
766 1
1 1456
1 359
1 419
1 532
675 1
1 313
1 812
1 193
1 197
1 890
1 541
1 753
925 1
219 1
1 578
1 709
1 271
1 1313
1 1278
1 236
71 1
217 1
1 203
1 52
45 1
59 1
1179 1
1 121
934 1
1 472
1 610
1 1461
770 1
1 1196
1 1220
324 1
135 1
1396 1
159 1
1 858
587 1
1 1072
1024 1
1150 1
944 1
1 1027
1453 1
428 1
617 1
1 1302
1 970
112 1
684 1
1 23
1 843
1 171
399 1
1382 1
1 694
317 1
1 345
1 1132
1 687
893 1
26 1
1 433
685 1
1 711
191 1
1267 1
368 1
1 1088
209 1
70 1
208 1
1 1244
757 1
337 1
1 728
630 1
910 1
1202 1
1 1055
571 1
1 213
1 1131
1144 1
1065 1
1 1444
778 1
493 1
1 962
759 1
377 1
484 1
1 1135
1 392
1 936
1304 1
1 1176
872 1
1329 1
1 204
1 702
1 192
1 258
334 1
775 1
1 284
746 1
1 224
1 1484
1 32
1 66
291 1
4 1
1462 1
1006 1
247 1
140 1
877 1
1 1020
1 521
1314 1
1 1349
1 1457
1 1031
1 798
1 1025
1 689
588 1
1 5
1 553
1 513
820 1
1 426
1 145
1 1323
1 609
1263 1
1 150
1142 1
1 912
539 1
1 456
1 1416
1 122
1 24
1 536
1436 1
619 1
301 1
1 1199
996 1
1 1029
423 1
1 931
1 137
1 636
1 1373
1 1102
1421 1
1 579
496 1
844 1
19 1
674 1
479 1
1 879
1 254
1392 1
1 1043
1 558
1432 1
132 1
88 1
165 1
1 47
1256 1
1 9
1 1273
223 1
1 1075
1 555
1 969
794 1
1 18
1 260
1 1431
1 1243
1 1213
164 1
1 61
131 1
1 385
1 310
1 829
1 262
793 1
1 502
557 1
1 210
1 1331
1 35
1 1168
101 1
1 1112
1 1039
44 1
1156 1
237 1
102 1
1 295
884 1
1 917
545 1
1 896
369 1
1 569
1 216
1 515
845 1
1 881
1412 1
106 1
1 560
1 113
510 1
738 1
1239 1
607 1
1 97
1 523
1427 1
1 814
1207 1
1104 1
363 1
760 1
371 1
1 366
339 1
1 983
1 615
65 1
128 1
1 1153
1 1060
1 155
107 1
1 1272
1 189
1 42
451 1
838 1
1 1059
1 49
822 1
726 1
1258 1
1 941
20 1
1125 1
1 1356
15 1
1 946
1 1354
1254 1
544 1
882 1
1 240
1 1270
1 667
1 595
551 1
1 292
1 518
109 1
1 1186
1 259
1 692
238 1
1 400
1 816
1 745
77 1
3 2
1 1394
1049 1
255 1
1 1282
1 1481
940 1
1 81
898 1
1 1438
488 1
1 1080
990 1
1391 1
1 147
1 435
1 1350
458 1
957 1
696 1
681 1
1 920
1 955
1 442
1 734
1325 1
1082 1
1 127
1 1077
1 700
1 1073
1 340
111 1
1381 1
621 1
10 1
1069 1
454 1
1 1471
1 1098
1 756
924 1
1 677
1 559
495 1
1 1163
1 968
1 98
1 257
1395 1
437 1
1361 1
1 1115
1 505
11 1
497 1
1 330
1339 1
978 1
460 1
1 600
1 126
199 1
855 1
981 1
616 1
110 1
1 471
1 474
1 1458
1 311
1439 1
1 327
828 1
1 676
169 1
1 854
1 1089
1 516
1 737
1 723
1 1371
256 1
1 343
275 1
1 30
758 1
1 900
540 1
1 246
1 1414
1 668
1 416
1 1472
1 1441
811 1
837 1
1209 1
373 1
344 1
1 1464
1157 1
787 1
1 299
1 638
1 795
915 1
386 1
290 1
1032 1
1335 1
1 549
1 848
1 133
1 1298
179 1
1 715
1 563
1113 1
1 1328
1 1204
1435 1
1 550
1 1233
1 622
1 1259
1 670
1 1429
1 1009
1475 1
1363 1
432 1
901 1
1 1141
1 725
1 154
967 1
1251 1
1388 1
48 1
1 336
1271 1
1 718
1 570
1352 1
1 1250
1 908
1 1124
307 1
856 1
1 678
1 1261
1 1096
1094 1
1324 1
652 1
413 1
1 185
1 1160
1 1066
1 325
817 1
591 1
1 34
1 417
1 1405
1 658
431 1
8 1
866 1
1 1303
1 538
1 1011
362 1
1052 1
1379 1
1 124
1 868
1001 1
304 1
1 411
1 1116
501 1
1 683
1 228
1 57
1 14
997 1
806 1
1100 1
1 830
1 318
1 1173
444 1
1 453
731 1
1 78
686 1
1 1485
1 1140
1048 1
1327 1
1 161
1 1266
1 1149
1008 1
440 1
1 752
54 1
1 445
823 1
1 1218
375 1
661 1
985 1
1 1182
1 761
1 41
1 1012
1 511
1 953
134 1
387 1
1007 1
1 119
118 1
1 819
1 1158
1 524
1 984
657 1
1 267
1 1147
1409 1
1 300
764 1
1 1151
1230 1
1 1090
1 973
1 818
1 590
1 1400
612 1
929 1
1 1068
786 1
25 1
1 522
1470 1
1 374
84 1
1 1311
1 975
1 825
351 1
1279 1
1 666
201 1
1 707
1 117
1 229
485 1
381 1
1 1242
664 1
1344 1
1248 1
1002 1
1 446
948 1
1193 1
1 441
1 727
1 834
1 75
1 1087
1 356
1155 1
1 1040
1 491
1281 1
1 181
1 509
1 283
489 1
347 1
1 655
641 1
1148 1
1 242
1 33
434 1
765 1
1 1411
1 529
379 1
1 534
846 1
716 1
1074 1
1372 1
1 548
1 526
736 1
1 662
1 353
1 21
1165 1
1 348
4 3
1280 1
839 1
1 1138
1 605
1226 1
1454 1
1 989
404 1
1 695
1319 1
153 1
1 76
1170 1
1 1164
1038 1
1437 1
483 1
1 535
724 1
1 982
1 354
1 177
1285 1
1 249
980 1
850 1
1265 1
1240 1
130 1
1 239
1 620
1 96
959 1
1016 1
367 1
708 1
646 1
1 1393
449 1
679 1
1 1162
1 777
1 809
1 699
1 178
372 1
120 1
167 1
1 158
1 1159
1 1376
365 1
1 1028
1 1103
1 1222
1 939
202 1
1 235
1237 1
1 273
1 663
1364 1
251 1
1 1292
1 73
1 995
1 706
1468 1
1 80
1225 1
1 611
1 810
1264 1
1 871
656 1
1 803
1274 1
1299 1
1174 1
1 1217
341 1
141 1
1 376
64 1
1 913
1 1229
742 1
115 1
1277 1
880 1
1 12
222 1
1 309
648 1
1 986
1 618
1289 1
1 741
1 1479
1 1326
1368 1
642 1
1 176
1 425
1 1050
719 1
1070 1
1268 1
573 1
1 528
1185 1
1288 1
1 554
603 1
1 103
123 1
1 1359
1 942
769 1
735 1
1 693
927 1
1252 1
1056 1
1 966
1 421
1 1180
1 1330
294 1
1 669
60 1
1420 1
332 1
1 1081
1201 1
31 1
1 1200
430 1
1 1106
1 329
476 1
125 1
1 625
807 1
129 1
1 958
1 389
1 51
1 1139
1042 1
1 1184
1 215
1 1448
951 1
1 876
594 1
1305 1
1 349
1 772
956 1
1 1127
452 1
68 1
93 1
1178 1
1 265
1389 1
1 67
1419 1
1 1249
1 94
851 1
918 1
1 643
1347 1
1403 1
1 226
1004 1
1 1169
1255 1
1 1370
1 1064
836 1
1 38
1 1175
1 887
214 1
29 1
1425 1
1424 1
1 704
282 1
589 1
954 1
1 172
1 1152
1 95
1 1190
1 1375
1366 1
475 1
650 1
1 599
916 1
988 1
517 1
1 1406
1415 1
1 1010
1 370
1 885
1 104
1 346
1 402
148 1
1191 1
671 1
789 1
1 1021
1 1297
1 1026
721 1
481 1
1 608
914 1
1 961
1 593
771 1
1 581
1 1315
935 1
1 1101
1 1353
1 1177
1301 1
1 614
1 1343
1 13
1 1203
427 1
1 577
1 960
1 971
1463 1
1236 1
1341 1
566 1
1 462
659 1
928 1
1 626
796 1
85 1
1 1063
937 1
1 196
1 703
1 1166
243 1
1 627
974 1
1 904
82 1
1422 1
1092 1
1 631
1 490
1035 1
1 527
1 1447
1 1346
1 16
1 1451
1360 1
1 800
211 1
1 1317
175 1
1227 1
1 860
1 319
1 922
1 1171
714 1
1 583
1 187
1 333
644 1
1338 1
1 40
144 1
1399 1
840 1
1 1275
1 729
1 1428
1 234
1 1093
1 1442
1 717
739 1
200 1
1 1433
1 477
791 1
439 1
245 1
1017 1
499 1
1 288
1 205
1 779
296 1
1 1086
1 218
233 1
1 116
138 1
1294 1
1 79
328 1
1 533
1223 1
395 1
1 784
1476 1
1 665
1 749
1 468
849 1
1 1076
1 821
1189 1
1 447
597 1
1 1231
1 401
1 1443
1 938
420 1
1 1041
1129 1
874 1
1 303
1 921
455 1
1 1398
1 831
873 1
1 857
1 755
582 1
1172 1
1 1460
991 1
1383 1
905 1
1 673
1 1036
1 519
832 1
1 1120
142 1
424 1
907 1
1 883
1 414
1 241
1440 1
1 136
1 321
279 1
1054 1
1322 1
1 853
1 773
1 1188
1 660
994 1
1 720
1 543
1 467
364 1
1 748
1246 1
762 1
1 835
797 1
976 1
1 55
1 1345
859 1
1 993
1 1167
1 747
1 27
1413 1
1 1386
1143 1
1 1071
1 1000
166 1
1 531
1033 1
1 639
1 306
1407 1
1 86
1 802
494 1
1 1309
1 380
1 186
1117 1
1 613
567 1
1355 1
28 1
1332 1
875 1
649 1
331 1
1 1374
1308 1
139 1
1 520
712 1
90 1
1 945
1 713
1306 1
1046 1
1 950
1269 1
149 1
105 1
1061 1
1 270
1 412
1 1316
576 1
1 352
1 287
1 586
1 998
1 1111
1 360
1 232
114 1
909 1
338 1
1 635
508 1
1 1197
1 1215
862 1
272 1
1 1466
952 1
184 1
198 1
190 1
1 410
1 732
1034 1
1 1128
623 1
168 1
743 1
1 987
888 1
22 1
1293 1
1287 1
1 933
1 261
355 1
1 1013
1 864
422 1
227 1
46 1
999 1
1145 1
1469 1
274 1
470 1
1 285
1 653
805 1
1446 1
225 1
1418 1
682 1
824 1
170 1
1019 1
1 1208
1129 233 3
1 1022
199 1
1 175
1 677
1 554
1 892
516 1
1 729
1 92
1 911
623 1
915 1
341 1
1 57
1 835
1 255
140 1
671 1
978 1
1050 1
1 1097
1 369
1 834
1028 1
685 1
243 1
1 908
1 802
936 1
1 581
513 1
1 617
1 429
1 38
1 137
1 504
613 1
1 337
580 1
193 1
384 1
1 408
1 499
1 856
1046 1
1105 1
1 949
1 1065
1 125
1 240
1 805
1 845
1017 1
890 1
1 649
1 1035
609 1
1 925
570 1
1 1120
544 1
1 932
1096 1
1 793
447 1
1 997
1092 1
1030 1
1054 1
1037 1
728 1
1 116
1 33
1 1113
1 39
109 1
470 1
473 1
508 1
1 1104
104 1
1 820
1 178
250 1
34 1
1 106
1 854
1 648
1 521
1 370
1 1039
105 1
166 1
1 897
1115 1
1 518
1 1002
1 900
215 1
1 639
333 1
1 268
1 414
848 1
1 622
1 119
1 235
1 1079
1 540
620 1
1 10
1 836
1 757
1 763
128 1
1006 1
1 679
1 547
1056 1
584 1
841 1
986 1
694 1
1 549
1 568
509 1
628 1
1 990
1 606
1069 1
1 800
822 1
232 1
1091 1
1 67
1 567
30 1
1055 1
1 577
1031 1
1 201
1 676
1129 1
593 1
362 1
338 1
1 612
218 1
1 275
457 1
1 428
1 254
1 480
1 815
15 1
783 1
1 899
1 1008
324 1
1 75
1 99
1 503
419 1
1 224
42 1
1 519
869 1
421 1
1 411
269 1
1 355
1 979
1 405
1 83
764 1
1 520
1 380
1 279
56 1
1 327
127 1
1 425
1093 1
1019 1
1 222
710 1
1 231
849 1
289 1
957 1
37 1
999 1
1 1066
1 673
1 755
1033 1
1 713
1 136
1 804
62 1
1 363
1 244
1071 1
1 468
1 1061
555 1
1 659
1 486
837 1
1 913
492 1
859 1
1101 1
1 1004
1 1051
1 217
1 665
510 1
1003 1
1 779
1 90
885 1
1 703
817 1
605 1
1 523
756 1
1 656
52 1
1 26
884 1
1 345
1 211
1 423
1 645
1084 1
358 1
302 1
573 1
1 205
1 161
1 203
1 277
449 1
752 1
307 1
1 973
168 1
1 433
1 592
684 1
498 1
826 1
352 1
1 1060
1 171
1 557
945 1
65 1
903 1
478 1
1 668
311 1
794 1
7 1
1 813
880 1
194 1
566 1
323 1
390 1
1 1099
1 1095
1 14
82 1
1 977
1 971
879 1
431 1
1 529
450 1
664 1
1047 1
933 1
1 440
533 1
674 1
253 1
618 1
1 160
1 1122
13 1
1 108
1 657
1 460
1 395
1 582
1 102
1062 1
53 1
1 795
1 591
1 312
170 1
1 678
154 1
1 959
1 274
1 19
1 912
285 1
1 574
939 1
1 208
1 11
1 278
94 1
1 565
955 1
1 776
1 515
734 1
1 733
778 1
436 1
1 406
475 1
718 1
775 1
134 1
47 1
1 403
247 1
579 1
233 1
760 1
1 76
1 696
1 1118
608 1
1 538
1 585
1 251
1 77
1 695
1 1064
1010 1
1 1074
1 261
1 415
1 1041
843 1
898 1
1 198
1 472
1 946
964 1
1 902
1 669
1 339
985 1
821 1
1 920
650 1
1125 1
1 202
976 1
680 1
1 625
1 43
551 1
482 1
131 1
1 287
814 1
1 937
867 1
1 417
993 1
823 1
385 1
1 857
1 951
1 397
1 619
59 1
319 1
1 981
376 1
142 1
353 1
1 896
1 798
1121 1
78 1
111 1
441 1
1000 1
1 332
865 1
8 1
646 1
96 1
1 61
1 91
45 1
1 542
1 788
1 81
921 1
359 1
1 299
1 153
1 1012
263 1
810 1
860 1
1011 1
863 1
1 1082
654 1
176 1
1 801
1 888
344 1
1 699
50 1
1 514
1124 1
924 1
1 1087
1 769
1036 1
1 491
1 17
167 1
740 1
1 1107
393 1
1 1067
1 1024
1 72
784 1
422 1
984 1
182 1
89 1
303 1
909 1
402 1
1 392
413 1
1 381
624 1
228 1
1 838
1 357
1 185
1 387
157 1
1 378
1 497
1 28
1 590
452 1
1 626
1 467
80 1
1 1110
1 103
930 1
60 1
893 1
1 180
1 1117
1 829
1 1081
572 1
1 49
782 1
1 742
48 1
1 141
195 1
495 1
1 969
536 1
866 1
197 1
1 956
1 770
418 1
716 1
534 1
1040 1
169 1
963 1
1 448
1 737
1 600
1 443
340 1
1 587
1018 1
24 1
1 245
1 123
1 371
144 1
1 394
1 851
1 12
1 286
1 974
537 1
1 929
1 162
961 1
717 1
906 1
145 1
1 139
954 1
1 399
1 690
1 686
1 594
1 326
1 562
1 994
1086 1
23 1
290 1
1 304
1 895
877 1
1 306
715 1
267 1
526 1
712 1
1 850
996 1
500 1
1 58
881 1
972 1
230 1
1 725
1 539
825 1
931 1
745 1
31 1
328 1
682 1
1 262
246 1
469 1
210 1
1 528
1 164
1 361
563 1
768 1
511 1
409 1
70 1
1 711
1053 1
1 705
1 550
941 1
1 458
401 1
1 938
512 1
610 1
1 226
1 862
1 396
553 1
454 1
88 1
368 1
1 719
124 1
543 1
706 1
234 1
595 1
1 660
1 759
1045 1
374 1
1 947
147 1
1 239
1 493
305 1
1 213
1102 1
4 3
1 807
642 1
1 321
1 726
1 1128
1116 1
1 308
910 1
1 607
1 874
1 112
40 1
266 1
883 1
1 1073
1077 1
1 917
832 1
1 179
923 1
1 282
546 1
653 1
462 1
1 367
604 1
1 583
1 709
1 636
904 1
702 1
1 944
1005 1
1 100
831 1
120 1
1 32
1 427
878 1
1 797
1 322
1038 1
942 1
701 1
689 1
1088 1
115 1
1 301
1 746
1 791
887 1
1 571
1 73
133 1
1 151
1 1119
1 348
1 630
1 1063
1 173
525 1
1 291
1 265
400 1
615 1
889 1
1 318
522 1
3 2
259 1
227 1
1 748
611 1
129 1
1 803
1 183
687 1
1 698
487 1
225 1
548 1
1 276
527 1
434 1
461 1
1 870
1 204
501 1
1 1001
731 1
578 1
886 1
1 16
1 463
693 1
736 1
919 1
1 1072
214 1
1 864
84 1
372 1
614 1
707 1
1 773
36 1
1 346
1 667
1 101
1 439
95 1
1 200
1109 1
55 1
1 688
1 597
1 922
765 1
1 388
284 1
700 1
455 1
672 1
875 1
1 349
313 1
839 1
811 1
1 351
635 1
1 723
732 1
1 121
934 1
1 1052
300 1
1 2
818 1
1 683
787 1
762 1
1058 1
1 1025
833 1
354 1
1 22
1057 1
315 1
1 20
1114 1
1 871
1 430
1 189
808 1
229 1
1 771
1013 1
1103 1
1 1126
1 432
1 314
812 1
1 158
1 331
317 1
1 827
329 1
1 294
927 1
792 1
1 132
1059 1
1 281
720 1
149 1
1 404
220 1
918 1
386 1
586 1
1 873
730 1
293 1
1 241
1 505
1 637
627 1
1 320
589 1
1 325
1 535
375 1
1 517
761 1
476 1
754 1
1 257
1034 1
1015 1
1 172
1 916
1 780
1090 1
722 1
1 772
741 1
714 1
373 1
271 1
506 1
1 496
1 219
1 9
670 1
799 1
1 603
1 987
188 1
1 1089
962 1
1 479
356 1
1070 1
260 1
824 1
1 658
410 1
223 1
181 1
1 640
207 1
724 1
1 599
1 767
1 295
1 29
1 1085
1 297
647 1
1100 1
377 1
54 1
616 1
71 1
87 1
1 272
766 1
474 1
1 556
1 828
416 1
816 1
1 575
1 953
1 156
221 1
789 1
426 1
184 1
1 502
631 1
1 209
1 564
952 1
643 1
1 830
1 1112
1 786
1 743
1 692
1 633
621 1
1 258
113 1
747 1
192 1
1 252
155 1
1 165
216 1
1 560
41 1
988 1
991 1
1 891
541 1
69 1
1 1108
1 310
484 1
576 1
958 1
1 738
138 1
846 1
407 1
876 1
1 391
596 1
1 855
928 1
1 602
545 1
651 1
796 1
44 1
882 1
1 1080
967 1
569 1
488 1
196 1
966 1
749 1
86 1
191 1
1 64
1 638
1 350
1020 1
1 662
342 1
1 483
412 1
98 1
1 187
1 270
1 379
1 35
1 489
117 1
383 1
1 296
1 1014
634 1
1 1042
256 1
1 847
1 110
1078 1
1 588
708 1
1 777
735 1
1 494
774 1
750 1
1 552
114 1
1 435
1 905
1 842
629 1
130 1
1 280
1 273
960 1
975 1
1 1094
1 872
453 1
1 159
983 1
1 655
1 283
1027 1
1 444
27 1
237 1
1 334
248 1
66 1
950 1
1 1083
968 1
174 1
943 1
459 1
1098 1
1 727
420 1
1 46
143 1
1 1106
1 1068
1 992
1 316
1 292
150 1
1 558
1076 1
438 1
1 236
1 477
661 1
1 940
1 126
744 1
1043 1
1 63
1 663
471 1
1 118
1 336
1 249
190 1
1 601
1 998
1 446
970 1
382 1
18 1
691 1
1 644
1 697
1 948
1 437
481 1
1 186
1 995
1 456
490 1
1 1111
1 93
1 721
853 1
1 989
97 1
1 1021
1016 1
1123 1
1 206
1 781
1 894
1 598
1 982
1 330
1 666
935 1
122 1
1 5
530 1
1 1075
1 364
790 1
389 1
926 1
1 264
1 739
1 980
844 1
1 861
85 1
1 365
1 25
1 466
1 1026
1 809
907 1
819 1
524 1
1023 1
652 1
107 1
1 79
74 1
561 1
1 152
1 806
1 1048
965 1
1049 1
366 1
1 347
1 451
1 1032
868 1
424 1
914 1
1 632
901 1
288 1
148 1
1 465
858 1
1 238
242 1
675 1
1 507
135 1
1 753
177 1
51 1
1 21
758 1
1 1009
704 1
1 532
1 751
1 445
1 360
1 146
442 1
1 852
343 1
4 1
212 1
1 1007
6 1
1 398
1 681
641 1
1 163
559 1
1 68
1 840
1 298
531 1
1 464
309 1
1029 1
1 1127
1 1044
1 485
1 785
335 1
1593 658 4
944 1
1440 1
1 85
154 1
1 1372
37 1
1 151
1 173
1 976
602 1
1 1401
1 1064
404 1
830 1
1 122
1 1422
1 454
1 671
812 1
364 1
1 87
579 1
1 229
758 1
1 130
137 1
757 1
1 36
39 1
219 1
1 251
669 1
1 1284
1 309
1 1332
1 133
1 95
62 1
634 1
1124 1
206 1
1412 1
1 1222
1 991
1060 1
1 701
242 1
1584 1
881 1
1 486
1 455
517 1
1 780
306 1
1 240
129 1
1497 1
1 304
1390 1
1 233
1 925
786 1
1 1177
1 1533
296 1
213 1
1 1585
1 80
1 907
1 45
1 889
1 1182
1 989
1559 1
914 1
926 1
1 408
829 1
1 1555
1 535
1 594
1 161
1362 1
1223 1
485 1
1 1142
358 1
63 1
883 1
658 1
1 1010
1 877
1 1095
864 1
1 117
1 110
1399 1
378 1
1 1077
124 1
1 1165
1187 1
1 1146
918 1
1573 1
1 557
737 1
1 72
178 1
1 1039
1 886
1411 1
725 1
1 628
201 1
1 487
767 1
901 1
1 1510
1 1159
1 1528
1265 1
194 1
1 1546
514 1
1 1459
1 379
1 1226
1139 1
1 1252
1 728
1 961
1 1088
177 1
1 1048
1 1405
391 1
1 113
1 776
1 844
1210 1
1 323
1 224
1 1558
1 587
279 1
1549 1
1285 1
1031 1
1 246
297 1
1 483
1 290
1 1417
407 1
1 199
1 1592
1 134
1 67
703 1
1015 1
1 205
417 1
13 1
461 1
1200 1
784 1
464 1
1 55
1 91
1098 1
1 1414
48 1
1 428
589 1
1 1588
410 1
282 1
276 1
1 1420
1350 1
1 534
1 262
1 1557
1 366
1 1358
1 1428
667 1
751 1
191 1
1 365
1408 1
1 920
1 511
1 166
1 821
1 1100
726 1
131 1
990 1
280 1
848 1
28 1
1 121
1062 1
1 1324
1149 1
316 1
768 1
525 1
546 1
1 573
1 263
896 1
1 423
462 1
1 878
1192 1
1307 1
1 99
1402 1
1 815
1 1227
1 238
1587 1
1356 1
1 499
1 332
1 904
1 867
1 1470
1575 1
1 29
1 1338
996 1
1 1233
397 1
1 1137
1 102
1 1507
1547 1
1 1107
1 1299
501 1
103 1
1 1135
645 1
1071 1
1 471
1278 1
1 715
1 512
324 1
1 862
52 1
694 1
1 1293
1 1488
1 761
1 665
576 1
1 155
174 1
381 1
1230 1
700 1
1 1096
1 1113
564 1
855 1
1 1121
754 1
1 769
142 1
1 1331
1 169
1 1286
605 1
1 1493
393 1
1 32
1 1545
1 956
556 1
1 1207
1407 1
1448 1
1 1224
1449 1
448 1
1 192
963 1
111 1
1 1553
1 1147
1 1032
1 1400
1 938
1 78
1 1156
1 1483
430 1
1 1011
267 1
1 964
322 1
847 1
1 929
1070 1
1 973
799 1
1469 1
1491 1
1 832
718 1
101 1
755 1
1 453
86 1
1 692
419 1
1 840
1 1561
909 1
1 1196
1 1109
1239 1
1 144
1 1106
1 748
1 434
1 244
540 1
1457 1
937 1
340 1
1 1046
923 1
1017 1
66 1
1 802
1 1369
708 1
1 565
180 1
1 1086
25 1
1 723
638 1
1 593
216 1
1 1076
788 1
90 1
1 1213
1 127
307 1
1 1410
1513 1
1 1367
952 1
1 217
1 1026
1 1214
1 1041
1 739
1 249
1 1138
946 1
196 1
1 1101
1295 1
1 1371
1 1364
1 608
1197 1
1 255
1 94
779 1
1 320
1260 1
1 775
1264 1
1 798
1 469
1 1065
1 418
1570 1
949 1
822 1
1502 1
1 992
183 1
765 1
479 1
637 1
1176 1
1317 1
285 1
1 1579
1 43
1 1116
1 1335
1562 1
1492 1
947 1
1 762
1 108
1583 1
405 1
1 84
351 1
30 1
1277 1
334 1
1 1464
226 1
49 1
269 1
1 146
1 825
1249 1
1 611
463 1
627 1
1030 1
1 915
1 1321
687 1
1 1445
330 1
156 1
1244 1
1 640
1 1025
1128 1
1 988
1 1447
1 1336
317 1
653 1
1 688
928 1
1 98
1191 1
713 1
1 1494
733 1
1302 1
1033 1
1 625
1 792
1 422
1 858
218 1
993 1
1 143
1 806
1111 1
1 1560
1 642
1 927
1 474
1580 1
1074 1
853 1
38 1
1023 1
1 750
1059 1
1 646
1 880
505 1
1532 1
1 376
1 1456
1 714
1 1051
1 1498
544 1
1168 1
1567 1
933 1
1171 1
1 1475
1257 1
188 1
1 970
1452 1
163 1
1 562
734 1
1 599
887 1
1534 1
1556 1
982 1
1 1403
1 1418
69 1
82 1
710 1
135 1
841 1
1 234
905 1
1 225
1 953
1 1351
1 724
1 898
1589 1
1 1123
1 171
59 1
294 1
1 763
230 1
1 521
1 182
1304 1
1 1357
1 706
1028 1
1 372
1 1365
140 1
1 740
1522 1
1 247
1540 1
1 941
1288 1
1396 1
1379 1
1 1499
1 621
1 1256
395 1
1346 1
1 81
1250 1
1141 1
1 569
588 1
1 1515
1 791
1 1386
8 1
1 619
1 720
1090 1
1122 1
1443 1
711 1
1352 1
400 1
184 1
5 4
1 120
1 959
1 820
1 275
549 1
1476 1
699 1
1 1442
1 1544
291 1
1 1426
35 1
1 1027
353 1
1 92
827 1
1406 1
1 590
1 1376
1 735
1 347
662 1
468 1
987 1
1 477
254 1
1261 1
1 835
1 1430
677 1
1512 1
1 283
1 1581
774 1
125 1
83 1
655 1
1421 1
1 145
921 1
202 1
1 1381
1080 1
1 1240
346 1
1374 1
604 1
924 1
1524 1
1 1052
1 1361
1241 1
1 1427
1215 1
712 1
577 1
967 1
528 1
1485 1
1 181
1 930
1519 1
1387 1
1481 1
686 1
268 1
691 1
1218 1
420 1
1267 1
1037 1
1539 1
1 1038
1 730
1 668
1 1259
795 1
1158 1
435 1
5 6
1047 1
1501 1
1 785
1 357
1189 1
1384 1
659 1
624 1
237 1
1 112
846 1
1 295
1 308
458 1
1378 1
1108 1
1 403
1 394
596 1
900 1
1 1309
1495 1
1437 1
1 741
1 1097
1 533
960 1
1004 1
1 872
888 1
1 1127
1 359
1 432
1 600
1471 1
1145 1
1 607
983 1
107 1
1 220
1194 1
1 995
871 1
139 1
1 1322
1313 1
1 411
1255 1
1 680
1 444
1 65
852 1
1 1045
1308 1
1542 1
1514 1
1 916
1084 1
1 529
1 415
1 1013
1505 1
843 1
277 1
416 1
1 828
1 548
641 1
721 1
1 1591
1 1455
1 868
1 1298
1 71
1 845
1409 1
719 1
1292 1
1 445
1 1373
1 1262
1 906
1 971
1099 1
367 1
1 34
1 771
1 368
1 854
1 651
1 506
1 1537
1391 1
1548 1
893 1
520 1
801 1
1 300
1 336
539 1
100 1
1503 1
1 1468
253 1
1161 1
456 1
595 1
14 1
88 1
1 1535
1 1453
1 338
396 1
1 1323
1439 1
1 363
1254 1
1 1551
1 232
414 1
41 1
1413 1
384 1
1 189
545 1
1 409
1157 1
674 1
857 1
1 1424
1 1221
1229 1
1 1078
1 702
1 1482
773 1
18 1
1 684
571 1
443 1
1 800
1 222
778 1
1 1504
1 26
1 727
783 1
1 685
1002 1
794 1
661 1
491 1
1294 1
1 236
616 1
1 1450
1169 1
1380 1
11 1
869 1
1 958
1 370
1075 1
1 1072
1 426
1174 1
1 299
1 261
1063 1
1 513
731 1
1370 1
446 1
1306 1
1 1566
597 1
73 1
1 696
695 1
176 1
1 530
1 492
1 673
1 1435
1 1568
1 1012
193 1
270 1
1 436
1 470
1 1333
1 478
1 1130
1 1043
894 1
350 1
1 811
617 1
1 722
1 1105
615 1
433 1
1 972
1530 1
1 856
1 940
167 1
1042 1
1 1329
175 1
1 162
1 553
1 305
1 1479
1 1279
449 1
214 1
1 383
1 704
398 1
198 1
204 1
679 1
962 1
1 1144
1325 1
1 1416
1 620
1 567
60 1
1 1355
1073 1
1 1044
1 1269
1 536
1 498
1 764
849 1
742 1
859 1
527 1
1022 1
1 1143
1 797
208 1
1181 1
1 298
1 185
1342 1
1 839
1 375
79 1
1 1270
1183 1
1572 1
54 1
256 1
1517 1
1 1375
197 1
1 1203
1 1093
1 613
1 1178
1 1343
211 1
1 554
1 313
1 1340
663 1
1 1359
1 656
1 672
1 531
1134 1
287 1
1 1151
1 1444
1 315
831 1
1 424
1 1290
1 1114
1 934
1280 1
1212 1
819 1
1 1198
1486 1
1245 1
1036 1
1521 1
1 1281
879 1
1 10
603 1
1 850
1 508
243 1
1 566
1 1487
1 97
341 1
361 1
1140 1
1205 1
1 1363
752 1
1 438
1211 1
1 1441
1287 1
303 1
1258 1
903 1
1040 1
1 1148
1 321
245 1
1 293
629 1
1 1083
1 1118
1 654
1 550
1066 1
1 1316
1 1082
1 657
1 450
265 1
452 1
147 1
1478 1
1 1586
260 1
1 1199
1393 1
1184 1
1 412
1 1297
1 57
803 1
1 650
1089 1
1576 1
1 1397
1 1531
1 942
1 1009
635 1
1 1008
1536 1
1571 1
1 466
1327 1
1 1311
1202 1
1 1228
1007 1
457 1
1 984
1326 1
538 1
1126 1
935 1
325 1
1 496
1 281
310 1
1 15
126 1
1 203
1394 1
518 1
1 1339
1 917
77 1
1 1053
1395 1
749 1
1 1016
581 1
1 814
1 955
1 948
24 1
1446 1
1 614
1 965
1 1102
582 1
1454 1
584 1
1377 1
1 301
1569 1
1 70
936 1
1 570
1216 1
1 1577
21 1
675 1
1069 1
707 1
128 1
1 93
875 1
1 500
649 1
1 998
1296 1
1 1173
440 1
333 1
1330 1
1 664
473 1
1237 1
1578 1
1 897
985 1
1020 1
1516 1
578 1
1 497
50 1
1523 1
1527 1
1 860
1 974
744 1
1 834
1526 1
7 1
1 678
42 1
1 793
807 1
890 1
1273 1
210 1
1 697
1 51
1050 1
891 1
1 1489
58 1
789 1
1204 1
1 64
1 1506
1 586
1 1236
772 1
1 1590
1 489
1029 1
1061 1
1415 1
551 1
559 1
1 447
115 1
1 1001
882 1
377 1
1 1565
1 482
1 437
480 1
1 431
1 575
1 20
1 1305
1 271
943 1
1 116
1 1529
1366 1
1 1133
1 532
56 1
1 753
148 1
1185 1
1 874
3 2
1 1550
160 1
1 223
631 1
732 1
660 1
623 1
1 252
1117 1
1543 1
460 1
1 1091
1490 1
141 1
817 1
716 1
76 1
1 837
591 1
19 1
1201 1
231 1
1 356
561 1
1 241
1 349
278 1
790 1
1 1163
782 1
1 746
705 1
46 1
1 207
401 1
1467 1
1054 1
1 1438
1 1582
1 572
1 348
40 1
1 537
1 23
1461 1
1058 1
1238 1
632 1
1 326
1289 1
1 136
1 1593
1 1432
555 1
1 1271
1552 1
1 1463
1219 1
1554 1
406 1
1 598
1 975
159 1
1 957
1056 1
44 1
1 1368
1460 1
1 981
1538 1
1021 1
1 808
1563 1
467 1
1188 1
1388 1
939 1
413 1
328 1
1 239
1 760
31 1
1 717
1 1341
1 1275
652 1
1 738
138 1
743 1
288 1
1067 1
1 895
1 374
1 257
1242 1
931 1
1 547
1 682
1423 1
1 1472
132 1
1 314
1 781
523 1
690 1
1282 1
1 910
153 1
1 96
258 1
1014 1
118 1
787 1
1 1081
1035 1
1 503
1 421
1 502
1300 1
1 1303
1170 1
1094 1
1120 1
1 612
1 954
1 522
264 1
1 1206
1 1509
335 1
919 1
885 1
526 1
1 818
1 337
1 1235
683 1
1 966
945 1
1 1162
1 1451
1 75
164 1
355 1
1 1160
373 1
647 1
1 1125
810 1
833 1
1 1266
1436 1
1110 1
1 1195
709 1
1431 1
104 1
1 16
1 1310
1328 1
68 1
228 1
1 476
1024 1
1 542
563 1
1 736
1 9
1 425
1 911
1 1345
745 1
1 1318
1 1136
1150 1
1 585
1248 1
1 329
12 1
1312 1
1 345
1 89
1 838
1382 1
1 1018
1462 1
1129 1
1 823
165 1
1 459
1 360
759 1
1 1349
1 402
1 1055
369 1
1 1166
1 804
380 1
633 1
1 950
1 272
1 1319
1 978
1 777
515 1
1 1465
574 1
1 994
274 1
1484 1
626 1
1 770
318 1
1 968
1079 1
1 865
1 1353
1 149
1155 1
618 1
179 1
509 1
1152 1
1348 1
388 1
1 1433
1 1153
1404 1
1 756
302 1
698 1
1 1246
1 1511
1 543
1234 1
1 1019
286 1
1 195
1 27
1 1232
22 1
516 1
1 902
399 1
824 1
1 47
1 284
1 339
221 1
1 1520
123 1
1496 1
1 766
892 1
1 1434
1 1541
1 472
1 481
1 250
980 1
439 1
1 1057
1 1525
1231 1
74 1
343 1
312 1
1193 1
1247 1
1 1034
826 1
235 1
1480 1
1398 1
1 636
580 1
1 1104
1 490
1 1268
583 1
1 493
1 114
392 1
884 1
1 362
997 1
1225 1
999 1
1 53
1 475
1131 1
1 289
1 209
609 1
1164 1
1 842
1274 1
1 932
1 1337
248 1
1 273
1 1291
1 1518
1 1474
1 119
1 1253
1 951
266 1
382 1
1 1354
1 1360
1 1301
899 1
1 630
1186 1
693 1
1112 1
1006 1
1 1477
1 352
1 1383
1 1263
1 1314
1 1283
1 1419
1 354
1 851
1 1344
1 863
1 1208
836 1
876 1
1167 1
1 969
1 152
1 311
813 1
1 389
387 1
610 1
1 1179
1 441
227 1
1092 1
1425 1
1 507
1 560
1 816
1 451
541 1
1 1385
1 681
1 200
1 1500
866 1
747 1
2 1
7 6
1 1220
1 106
1 158
1 1154
212 1
568 1
1 259
1 442
861 1
1 912
601 1
1 1049
1 552
1 150
1 429
870 1
1 1172
390 1
558 1
1 606
1 922
1 109
1 622
977 1
1243 1
1 319
1 1190
427 1
643 1
1 1103
1 979
1 386
1473 1
1 495
1000 1
1 644
873 1
494 1
1085 1
1 1320
1 1334
342 1
1 33
1272 1
1 592
488 1
157 1
1 1251
1 1115
1132 1
371 1
1 344
805 1
519 1
1 639
1389 1
510 1
1 385
168 1
1 913
1 1508
1 215
1 1175
1 1068
1 1466
1 1347
1276 1
105 1
1 17
4 3
1 484
1429 1
689 1
1 796
1005 1
1 465
1119 1
1 1574
666 1
1315 1
186 1
1180 1
1 327
1392 1
1 331
1 61
1458 1
1 190
1 1564
292 1
809 1
1217 1
676 1
170 1
1003 1
187 1
524 1
1087 1
670 1
504 1
1 986
1 648
1 908
1 172
729 1
1209 1
1999 1260 2
1 1308
1 722
1 1582
260 1
1 1109
1 340
1 486
1 1398
354 1
1 1782
1 815
1 691
1 1557
62 1
1 1075
1 1257
1 1499
1 413
110 1
1 1058
1 447
23 1
626 1
1 1527
1 198
643 1
1719 1
1 347
582 1
1 776
1 1206
789 1
1113 1
1 731
80 1
1 1653
1 1094
1978 1
1 311
494 1
238 1
1 221
1592 1
136 1
1 516
263 1
434 1
1 1797
1134 1
1 1423
1 894
109 1
1 257
97 1
1 978
124 1
812 1
1 1993
1 357
1 394
1027 1
1395 1
1 1873
1 336
1839 1
1038 1
1 923
1269 1
877 1
1 177
1490 1
1258 1
1 729
568 1
1 1716
1 1405
1 1566
1 583
1 1628
1 1072
1 422
1004 1
1 547
1544 1
1 275
1 1330
1140 1
1281 1
1 915
1 1784
1426 1
438 1
820 1
1 469
1201 1
244 1
1 1751
1944 1
1754 1
382 1
1387 1
1 1761
1 1229
1 1893
589 1
1986 1
1473 1
1 1658
843 1
1593 1
898 1
1 1317
1 406
271 1
89 1
1 1829
1048 1
575 1
768 1
1391 1
1 945
498 1
1 1648
1239 1
433 1
1 84
236 1
1621 1
797 1
1983 1
216 1
1434 1
115 1
38 1
1 576
70 1
106 1
41 1
1225 1
1 617
1 772
1 1969
1209 1
906 1
526 1
1066 1
1 708
1 213
1 436
1 1526
1 870
185 1
1963 1
1 858
81 1
1 1631
249 1
1 188
1 50
1 1238
842 1
1 43
1151 1
29 1
532 1
1 504
1 1522
1 105
1 167
1026 1
899 1
1356 1
1019 1
986 1
1 1610
835 1
1943 1
1 744
703 1
1 1304
1 457
1892 1
1 542
1 857
1079 1
1 1866
1 370
1 780
1 720
1657 1
577 1
40 1
1827 1
471 1
1513 1
1431 1
1 1945
1 163
1 59
665 1
1 203
1619 1
1776 1
1712 1
1 497
1 1908
1071 1
1 365
1 513
1340 1
1 1264
1 19
290 1
1 255
1 129
1 1233
1660 1
421 1
1 919
859 1
1181 1
1176 1
1 451
1992 1
313 1
1 566
1 380
1 943
1 1092
1 324
766 1
1 1762
1 1255
1073 1
811 1
1 795
1289 1
838 1
1 1305
152 1
804 1
1 205
72 1
1 1458
1 1769
607 1
1 1617
1 1588
1725 1
1 714
1 1057
1 1787
790 1
1 1614
1 1920
1 1830
1295 1
932 1
1 503
1 1815
202 1
446 1
439 1
1743 1
1 634
488 1
1 1955
1 1227
1736 1
1572 1
1179 1
1 151
1 792
765 1
49 1
389 1
1 1649
1911 1
1 1662
1 1293
1853 1
1 1589
1 1686
718 1
1 101
1 1989
560 1
1 465
1 266
1 1767
1 251
957 1
1211 1
243 1
1052 1
1966 1
424 1
553 1
1469 1
1 1508
1443 1
1 934
1 883
1414 1
1 302
1 473
1 1481
735 1
994 1
393 1
1519 1
1 1590
1 502
1730 1
1 1763
1093 1
509 1
1 1235
1 1001
982 1
1 1355
1291 1
467 1
1 1208
1694 1
1 584
1 459
1 1733
1 1380
1 229
723 1
1287 1
1684 1
301 1
1915 1
1 1788
1 25
1 1843
1 1741
1418 1
1625 1
1 1018
1 758
1 976
1 741
1 761
866 1
1 544
1901 1
1 1884
782 1
901 1
1833 1
1 1496
1359 1
1 527
1284 1
1561 1
654 1
1043 1
1 1168
307 1
1169 1
1 196
1 1606
376 1
352 1
1 1939
653 1
1 131
1 1460
591 1
1 1212
419 1
1626 1
1 372
1874 1
1 1498
872 1
1 1493
1 1559
1 222
1 73
1 948
1 1108
1756 1
1748 1
951 1
1882 1
1154 1
1389 1
1 802
78 1
1687 1
846 1
642 1
836 1
1 440
1 637
1 46
1 580
1323 1
1 1729
1758 1
1 215
1 1961
1 186
1 1693
1 559
1605 1
1766 1
1277 1
1 1607
1 956
323 1
90 1
415 1
860 1
1 878
344 1
1 1472
876 1
1726 1
1 412
1 1114
1825 1
143 1
398 1
1 1367
1 954
1 1067
1 1371
1 492
1 1002
1579 1
1990 1
779 1
1666 1
1 230
1 1218
1598 1
1504 1
1819 1
1809 1
1 108
552 1
1 845
1 1265
1 1808
1 1207
1 646
1822 1
1627 1
1886 1
1 1665
405 1
1752 1
1 1236
499 1
1760 1
432 1
1 1772
385 1
1671 1
1021 1
268 1
1 1664
1 1510
1 240
767 1
1778 1
1 1816
1 1246
1249 1
1 1888
587 1
1 984
1012 1
508 1
128 1
1 501
825 1
1 1488
1106 1
1 1764
1 818
1 733
1 387
1 1365
310 1
837 1
890 1
1517 1
600 1
1377 1
1807 1
1 194
1 1984
404 1
1 1336
588 1
679 1
1 91
270 1
1835 1
788 1
1 472
1 764
322 1
1875 1
1646 1
991 1
551 1
337 1
1 284
965 1
649 1
1 317
1 1307
1 1724
1 10
621 1
763 1
349 1
48 1
1 921
1 831
1 1034
1374 1
1 536
1 997
1 968
414 1
1 1338
1422 1
1 1017
1800 1
1 1506
1 1563
912 1
246 1
1128 1
276 1
1112 1
1 1122
1033 1
659 1
1 1436
1 1432
1069 1
628 1
1427 1
1 1290
1 1424
381 1
299 1
1 1267
1251 1
1241 1
740 1
1571 1
1781 1
1802 1
1923 1
103 1
1 514
1 1965
1861 1
79 1
606 1
1 952
297 1
1 1130
1 1647
1 855
1036 1
1 598
214 1
1306 1
1 985
1076 1
195 1
1 483
1 254
1 1897
1 327
1 1372
1964 1
1 356
1 555
1222 1
751 1
430 1
1363 1
1 1266
1 1982
1164 1
1016 1
518 1
1 840
1914 1
1 1370
1 798
1738 1
1275 1
1358 1
1 904
1 1259
1 401
156 1
1542 1
1492 1
1 286
1552 1
1615 1
1045 1
1216 1
903 1
1520 1
971 1
865 1
1846 1
16 1
1 139
1 1379
641 1
1055 1
1 1890
1 1959
801 1
1 247
1298 1
1 616
1 1023
1 810
1 1039
1 7
1 748
1124 1
604 1
941 1
739 1
1 1842
1 1938
1 1253
1 712
1757 1
1013 1
1349 1
1 35
1 209
1 460
1 1312
732 1
1 1188
1 1030
1 796
1 886
791 1
1342 1
709 1
183 1
1854 1
1 1439
1 119
1070 1
743 1
1 1905
1 1679
1319 1
1 1555
1456 1
77 1
1 759
882 1
911 1
1 841
75 1
267 1
1144 1
1091 1
1 1254
1321 1
500 1
391 1
1 875
1150 1
1420 1
688 1
1 1868
752 1
1 944
477 1
1 541
1 1296
1 4
1704 1
1357 1
1 491
1 781
1 359
564 1
1248 1
1 1294
1867 1
1710 1
1199 1
1 316
1 893
1 287
335 1
1 191
1 609
127 1
1454 1
1 278
713 1
1 1022
964 1
1 1540
1 730
571 1
1 1401
1 1887
1514 1
1 1740
1 1210
1 377
614 1
990 1
869 1
1 1051
998 1
1718 1
1049 1
1949 1
121 1
1 615
1 1214
1 1950
888 1
1 61
1981 1
291 1
1 670
113 1
1532 1
754 1
1 686
1097 1
281 1
1 411
1322 1
1 463
1280 1
1 1974
1139 1
1 300
1344 1
644 1
771 1
1156 1
1929 1
485 1
1 1303
207 1
1 520
1 1129
1428 1
1 1690
1 1889
543 1
1717 1
1 1695
1 1863
1403 1
1 1536
1 1668
1373 1
1 1313
87 1
1461 1
76 1
1 1996
1896 1
1406 1
652 1
1 1902
573 1
1187 1
1219 1
1 849
1 1947
1 1449
1971 1
660 1
505 1
1 1455
1 548
1 1857
662 1
950 1
1925 1
1 67
1375 1
1242 1
1876 1
1 369
1 24
1 1620
658 1
1 364
1 862
519 1
1 930
777 1
805 1
1008 1
1090 1
1 39
1272 1
1 973
262 1
1 304
1 1204
1954 1
1084 1
141 1
1 1812
1979 1
1 1770
111 1
1105 1
1 540
1 13
1967 1
1 390
887 1
1062 1
1 1910
1 1848
1 800
1329 1
1 710
325 1
633 1
889 1
1940 1
18 1
1 1166
1946 1
1 908
82 1
1 453
711 1
1 1629
1 1803
15 1
1 1565
1 1824
1525 1
961 1
1702 1
1 479
958 1
1798 1
717 1
706 1
1 871
850 1
261 1
1820 1
1 1618
1 1640
1 1163
1 1596
30 1
1569 1
1 1503
1 1811
2 1
1 417
1545 1
1 1087
592 1
1104 1
1 155
524 1
1 1869
897 1
374 1
1 252
1936 1
1 1673
1 1448
1 926
1 1263
1 1714
1 1171
1692 1
1121 1
569 1
1 1583
1 1046
939 1
1 1538
1 1937
1 1891
1 1669
1083 1
1 1430
1 1642
1452 1
1341 1
1183 1
1 345
1 1792
929 1
1161 1
28 1
1 1603
1 1956
1 57
694 1
597 1
891 1
1345 1
1 346
1 1632
233 1
1132 1
1 179
1215 1
1999 1
1 545
806 1
496 1
54 1
1 1425
1 17
1 181
1 375
1459 1
549 1
1 1794
1689 1
1 1771
1737 1
1 1411
1162 1
1 1354
1 328
1 640
1 481
1 1360
693 1
1351 1
1 719
1682 1
1 1127
1107 1
678 1
1 235
1 900
1 1464
1913 1
1 749
1 225
1 619
1 176
1 224
1581 1
927 1
1 1862
309 1
1 1553
1 1852
1 1537
595 1
1 190
981 1
386 1
1 1035
1 341
557 1
1858 1
1 1624
1 1003
1 736
92 1
1 947
517 1
94 1
1 1110
392 1
1054 1
1 1314
1 1101
476 1
1 1186
1 1630
1 232
1440 1
1 1697
1 562
1650 1
1 1378
1 1881
1 1681
1 1149
1148 1
1987 1
366 1
1343 1
1688 1
629 1
1 727
1 1386
319 1
1463 1
1501 1
1082 1
1 360
1 970
1 1315
1744 1
1988 1
1231 1
895 1
142 1
122 1
1 868
1599 1
1 428
1 34
1 60
1115 1
1880 1
1831 1
1 1948
1 1350
1 1701
1 242
1 1567
1 1024
3 1
784 1
966 1
1 1089
1 1193
1 367
200 1
71 1
1 1980
1407 1
1 1276
1 1691
1 95
160 1
1917 1
1 1031
1 170
1 705
1471 1
1 1591
1 1637
753 1
53 1
256 1
1 746
239 1
1 1676
596 1
461 1
1 165
250 1
1 1419
1 1790
1924 1
701 1
1 241
1368 1
1 161
1 955
1 1906
530 1
1484 1
1 1273
1 1487
1 1773
1 1674
1 1433
1240 1
1832 1
1 935
1 1952
1 1927
1 212
565 1
1 258
1 1402
1 1655
704 1
808 1
1 673
1 1713
1 169
150 1
1622 1
1 832
1 1502
338 1
1 331
1 515
1 839
1 1413
1507 1
312 1
1 140
742 1
1 147
1 1641
218 1
21 1
1 1898
1 1768
51 1
1095 1
1 605
138 1
1 620
1 117
1 1916
402 1
1136 1
535 1
489 1
1 1347
1 353
1451 1
999 1
1551 1
1895 1
1723 1
1 1645
1123 1
1 1799
987 1
228 1
1 180
420 1
83 1
996 1
946 1
1 1573
1 1516
756 1
1 1467
1 959
66 1
444 1
1141 1
1 687
1586 1
1 1285
1 581
1192 1
482 1
69 1
148 1
936 1
1385 1
1119 1
1855 1
1 1845
1 1512
1041 1
1256 1
306 1
407 1
1 1482
1331 1
1813 1
1683 1
1 1381
1271 1
1 1279
288 1
85 1
1515 1
554 1
1883 1
1447 1
1 1475
1 1850
1548 1
1 1564
1 1634
1877 1
1524 1
1 1708
1 1860
1706 1
1 920
426 1
1677 1
537 1
1 963
1 1872
1 1942
296 1
1 829
320 1
1 468
1 1745
1 864
1 318
125 1
1574 1
1 1871
20 1
1028 1
1838 1
1 1703
334 1
1 1705
669 1
510 1
1 1138
823 1
175 1
410 1
98 1
227 1
118 1
1 1247
1810 1
1 1578
1 1068
813 1
942 1
1 1546
282 1
1755 1
1 1870
1 1973
1081 1
610 1
613 1
1 1575
1260 1
1 454
1904 1
314 1
1 668
1 1789
636 1
1153 1
1262 1
134 1
1 602
1 905
1 1337
522 1
1 663
1 1602
1 1245
1450 1
1 348
1474 1
1384 1
1142 1
1 44
193 1
1 264
1224 1
120 1
1 22
126 1
1 785
1912 1
1 599
993 1
1 1288
493 1
1047 1
1 1005
1 1177
1 940
102 1
1 1584
273 1
1 329
1696 1
1814 1
1851 1
321 1
1 1223
1237 1
1180 1
622 1
1 1099
757 1
1 601
1 36
204 1
1 100
1382 1
1720 1
585 1
1 627
507 1
1 14
1 1462
1 166
368 1
1 1261
1953 1
848 1
556 1
1334 1
1 827
1 1731
1 863
1155 1
1 975
546 1
1 1065
371 1
1 154
1 1941
1 1580
217 1
1735 1
1497 1
1 355
769 1
1 1409
1325 1
1000 1
1595 1
1203 1
1 12
1286 1
1930 1
1958 1
1899 1
42 1
1 786
1015 1
1 909
1 1556
1722 1
1 1292
1 1339
1250 1
531 1
1699 1
226 1
1 245
1 1408
1 819
1859 1
1 192
1 1623
1 189
1547 1
277 1
1 1118
1 874
1 361
1 253
1 695
856 1
1568 1
1 164
47 1
1 1077
1 506
1 1311
1 1509
1 1366
1 358
707 1
1 953
1399 1
1117 1
667 1
1921 1
1 280
1 114
1 681
778 1
1 5
1 830
397 1
1 173
745 1
1 32
1283 1
511 1
1 1394
1 715
1 1847
1535 1
1 343
884 1
1 458
1560 1
1466 1
1894 1
1 1421
1 168
1 1635
1 1477
58 1
879 1
1 1505
1 885
1528 1
1746 1
1 158
1 1486
283 1
274 1
1404 1
1126 1
1 1998
1 1485
1 1042
1268 1
1 1577
1 1376
794 1
1 1190
1 917
1 416
1922 1
379 1
1 1489
1059 1
1 135
1 484
1 661
1335 1
1 1175
698 1
1534 1
1 1834
146 1
1 690
1 612
1 1928
1 775
133 1
1085 1
928 1
773 1
1 408
1146 1
1 1044
1 1010
1 603
1 443
593 1
1828 1
1 145
1 1158
624 1
1 1009
1 817
1 9
844 1
1 293
826 1
1056 1
1 1654
692 1
1777 1
1 1125
93 1
298 1
1 442
1 1931
1 666
1435 1
521 1
1840 1
1 902
1 1361
429 1
1037 1
618 1
1 1182
174 1
1 1111
1541 1
1 512
1 487
1 1539
931 1
1 1145
1050 1
1 1135
450 1
1919 1
1 671
697 1
1020 1
265 1
223 1
1 1234
1230 1
734 1
1364 1
1 625
1749 1
650 1
1698 1
1 1500
684 1
1 1157
623 1
1 574
144 1
1 822
1 1415
1441 1
1 770
852 1
1 475
182 1
1 208
1 480
1327 1
26 1
1 760
1 1633
809 1
1 992
199 1
1 960
1120 1
1 1165
456 1
1826 1
1185 1
1397 1
1801 1
1243 1
1 639
1 1721
1 726
130 1
1 1270
979 1
1410 1
1278 1
1131 1
1457 1
1446 1
1 1147
1970 1
1932 1
1074 1
1 210
423 1
1587 1
1 539
1 172
534 1
1 696
1 1793
807 1
1 716
1191 1
1 305
1 452
570 1
1 873
1232 1
1299 1
1585 1
974 1
1 1184
448 1
1 558
220 1
1228 1
1 1531
1 1316
728 1
1383 1
1 969
201 1
1 445
1040 1
1178 1
1 1529
1 1976
395 1
914 1
1174 1
1 1064
816 1
1 1521
384 1
880 1
1 1727
1160 1
1 1753
689 1
1678 1
737 1
1442 1
828 1
427 1
1 1985
1152 1
892 1
1 677
1453 1
1167 1
1 699
1 1302
1 1907
1700 1
656 1
396 1
1 1878
1 821
1523 1
1 1300
1 682
1 197
529 1
1821 1
1865 1
1994 1
1 1806
1 1470
211 1
1804 1
1 462
1 676
1 112
1438 1
1 824
1 833
1 1412
1 1960
1060 1
1 611
1 1997
1032 1
1 538
1 1841
1 1217
1465 1
68 1
1 45
1 279
1 441
474 1
1 388
88 1
285 1
1333 1
1715 1
1476 1
1 403
11 1
1 259
1 1172
1 1362
1480 1
1 1429
1711 1
1 972
1 1494
1 1747
1 907
383 1
1791 1
184 1
1 116
1 1604
1 96
206 1
1 1667
1 1659
1025 1
1 418
1 1416
1396 1
1 1353
495 1
1885 1
1 1570
1 1194
632 1
1 523
1 561
1400 1
1 1159
378 1
1 1991
1 1613
1562 1
234 1
1 1014
1 478
308 1
1417 1
594 1
1445 1
1 8
362 1
187 1
248 1
1 33
1252 1
1 1483
1 292
1 725
1 373
1 1324
1644 1
1 1137
1 867
1 1652
1550 1
1543 1
1 1823
1 1102
1661 1
330 1
1796 1
1063 1
1 657
755 1
1 1444
1 351
295 1
1 1926
1 533
1 1326
1611 1
1909 1
1 237
925 1
1 937
1 231
645 1
1 774
1 294
1 1972
1 918
1 1918
1 1636
1 1670
272 1
1 1759
1 608
647 1
1 1734
1 664
1 578
1616 1
1220 1
1 762
1 563
1 747
1 157
1709 1
1 1977
1 1086
1663 1
409 1
1 586
1 1297
1 1849
1 56
400 1
132 1
1 1533
916 1
1775 1
1053 1
1 1933
1392 1
1328 1
1 162
967 1
1173 1
1 1975
933 1
1310 1
1 104
1643 1
65 1
1 995
1346 1
683 1
137 1
1390 1
1437 1
1 1061
1968 1
528 1
949 1
1 685
1309 1
464 1
1594 1
1029 1
1554 1
834 1
1 579
1 922
1 339
1 1393
1 1479
1202 1
1282 1
1 219
1 750
1080 1
1 1962
1 1221
1 55
1 1558
1 814
1213 1
1 962
1 1170
1 1078
1 1957
153 1
326 1
1680 1
1 631
1656 1
1518 1
1 550
1651 1
1805 1
1 847
1 399
1332 1
1 881
1 787
350 1
1601 1
1900 1
1011 1
1 1495
853 1
851 1
1 983
425 1
1 1818
674 1
1903 1
1765 1
977 1
1597 1
980 1
1 1468
1 1844
1 363
1198 1
1639 1
861 1
1 333
1244 1
1205 1
342 1
1195 1
635 1
1133 1
1732 1
1 1006
1 455
1 896
1785 1
1 1388
1779 1
1934 1
1 1608
1 1879
1 567
1 1576
1 1864
1742 1
1 1189
1 738
1609 1
159 1
1 64
1088 1
1 1098
910 1
793 1
1 1638
52 1
1 1318
1 86
1 1320
1 74
700 1
803 1
431 1
37 1
1675 1
1783 1
1 924
1 1786
1478 1
590 1
1 1837
1 680
1274 1
1 1200
289 1
1 988
938 1
799 1
1 178
31 1
1511 1
1 332
466 1
1 269
1007 1
1 1728
1935 1
1780 1
1 1951
1 1301
672 1
1 1197
1 630
1 1612
1 1143
1 1817
913 1
1 1549
854 1
702 1
1 724
1 783
1 315
63 1
1100 1
655 1
2 3
1 1116
989 1
6 1
1 1774
1795 1
149 1
1348 1
1 1836
1 1369
1 449
651 1
721 1
1 27
1 303
107 1
1995 1
1 1672
1 1352
675 1
1 572
470 1
1 525
1 490
437 1
1096 1
1 1600
1 99
1 171
1707 1
1 648
1 123
1685 1
1 435
1226 1
1491 1
1103 1
1196 1
1 1750
1856 1
1 638
1 1530
1739 1
1531 717 2
1 1527
966 1
95 1
333 1
659 1
1 1437
1 539
687 1
375 1
1 1414
1 152
1 846
195 1
1 256
1 545
1 314
1 816
1173 1
185 1
1 850
1 1007
634 1
925 1
1 1099
1 1092
68 1
632 1
1 644
510 1
1403 1
1 560
943 1
1 523
1 345
1 843
1 941
933 1
55 1
1 277
601 1
1 1199
141 1
1 1010
1 1001
1 914
1 781
142 1
1 532
1 364
132 1
1 784
835 1
1 187
206 1
1282 1
1 1216
1 751
1 229
139 1
1 110
879 1
1078 1
359 1
1176 1
542 1
1 1450
128 1
801 1
849 1
680 1
1299 1
448 1
430 1
1 160
334 1
1 1134
548 1
1073 1
1 514
1303 1
1 1291
1 649
1068 1
1 602
1 266
947 1
1 557
1333 1
797 1
764 1
1 983
1 233
1 428
1480 1
169 1
1 606
1 1321
59 1
1315 1
419 1
1 420
673 1
111 1
1385 1
611 1
1 653
894 1
489 1
648 1
668 1
1 147
1 1353
1 655
1 231
1 749
916 1
1 284
1 845
1 730
1337 1
1 1071
1 847
1 1263
1 404
1141 1
1 1509
1 16
990 1
51 1
710 1
1 1472
1 287
1246 1
1 478
1204 1
1 241
1159 1
834 1
1 1174
1229 1
1 439
1 99
21 1
1461 1
272 1
113 1
1 919
1169 1
1473 1
639 1
1 615
507 1
1 922
370 1
1 1143
1 1281
1253 1
1 1441
1 357
248 1
1 1019
236 1
1 1140
1 533
1 465
1 121
1499 1
818 1
1 294
1481 1
563 1
1 796
1 1122
17 1
1 1374
1 1357
1 1483
1123 1
1 756
686 1
1050 1
1 732
937 1
1 1301
827 1
258 1
1475 1
572 1
36 1
1 1220
1 1249
787 1
1 124
1 1247
382 1
1 806
1 724
1 1226
189 1
883 1
1 239
1 1342
463 1
1 755
1 1405
1 964
378 1
362 1
1 315
913 1
1 660
774 1
1 842
1 870
1 750
800 1
1 905
1476 1
1 633
636 1
1 344
1205 1
1 757
1 688
1 190
1126 1
1526 1
1 1444
74 1
1 1066
903 1
1 1256
1 1242
1 1373
1 318
1 414
1 393
1446 1
998 1
1 380
1 777
1091 1
1429 1
897 1
1 1508
136 1
1 316
1201 1
1 642
558 1
740 1
1 390
1 1165
812 1
1 28
1 1418
753 1
1 153
1 1400
228 1
1 1233
640 1
1128 1
1116 1
785 1
1290 1
1 25
1 823
1 451
313 1
969 1
803 1
832 1
432 1
1 445
1 630
1 435
1 754
1098 1
1 371
1 605
1 525
1 1076
923 1
1 255
1110 1
1 1255
1 1410
1 865
1 643
1 1075
1 1458
1172 1
524 1
1 171
1 1197
46 1
587 1
821 1
1 1518
702 1
1498 1
1 307
1 1187
1 35
1 408
1 3
1 1133
1448 1
1 696
1 488
457 1
1 1028
1 289
1 365
1 977
1 1402
1 568
468 1
1 1467
1 149
1 505
1 571
1 164
1 1147
1 1082
1 981
193 1
1 389
625 1
1 1285
54 1
1454 1
972 1
331 1
1 550
1 1497
311 1
576 1
1254 1
1482 1
501 1
1 320
1 434
79 1
1 830
1 690
1319 1
1 398
662 1
1 495
656 1
1 1013
1 1166
1 1111
1 1511
950 1
1 518
1 349
527 1
1 995
1 1043
840 1
27 1
1 1306
1348 1
1 218
1 293
1 1379
1 416
191 1
7 1
1 588
269 1
824 1
332 1
1 1036
1 242
759 1
927 1
1417 1
130 1
1477 1
1 339
592 1
5 1
1 317
498 1
1027 1
1 1177
234 1
180 1
1 863
418 1
1 1322
44 1
1 1431
1332 1
441 1
1 1439
538 1
144 1
1 1090
867 1
1 1408
1 856
1 1519
1 1416
1 438
1 1375
549 1
886 1
494 1
1 513
1 614
1250 1
1 491
366 1
767 1
1 531
1386 1
1 1029
574 1
1 804
1 303
137 1
522 1
263 1
1 921
1 462
654 1
493 1
10 1
1 1144
1 299
1 196
1530 1
1 1265
105 1
1 712
963 1
1088 1
1 940
924 1
1 254
1 452
466 1
1438 1
1445 1
637 1
968 1
1 1185
1 953
1 52
1407 1
1 48
1 1137
309 1
1462 1
1 1046
360 1
1 482
761 1
976 1
1 179
368 1
1228 1
1 1486
1055 1
49 1
890 1
1 711
1 887
306 1
1 508
904 1
1 1236
1 1063
1367 1
1158 1
78 1
544 1
88 1
1 220
1447 1
1 43
483 1
215 1
94 1
1 1453
819 1
1 791
1 131
409 1
456 1
1 1181
257 1
930 1
134 1
1 841
1411 1
1 23
1081 1
1 4
709 1
1273 1
1 1106
1 109
158 1
1 676
1 962
1 1459
286 1
1 146
308 1
1 530
1425 1
1008 1
817 1
1 1304
1 1522
440 1
1 569
443 1
956 1
1 502
1329 1
1 1067
1061 1
1221 1
226 1
1 1207
330 1
1 1468
1 411
261 1
1 1308
1048 1
1311 1
1198 1
1 1196
221 1
407 1
1506 1
1 386
1355 1
993 1
1 719
1 1146
1 1192
1 337
866 1
1 1277
1 487
1 584
1 1465
1 1219
1 734
397 1
461 1
1 388
1 1449
39 1
1 1148
789 1
1516 1
970 1
1 376
1364 1
1 157
1 1464
1 1361
1 1470
758 1
1412 1
1 1520
1 729
1 1102
552 1
1 1399
996 1
1045 1
1 987
780 1
1 526
1 126
1 122
1398 1
1 151
1279 1
1 173
915 1
181 1
305 1
1 204
1 896
1 1152
1309 1
1 1168
1 1058
1 1360
991 1
973 1
1 982
356 1
875 1
794 1
210 1
1 597
1 782
553 1
945 1
1 929
1 20
582 1
1317 1
1 351
1 64
298 1
1 741
1359 1
1 1208
1 790
691 1
1222 1
882 1
1384 1
1 15
1 154
1 859
1 1525
1 1264
1 199
1 129
1 1504
1 703
888 1
799 1
1 271
1 1114
1 336
1 1107
192 1
304 1
944 1
1 150
1 1419
1069 1
219 1
1 880
1 323
1 1093
1 1212
641 1
1025 1
203 1
1049 1
1 762
1318 1
1 1030
1245 1
449 1
178 1
1262 1
1 1024
1 1404
1 961
1 1479
395 1
1 297
901 1
166 1
1 53
1225 1
1 770
1 1350
1 433
1041 1
677 1
1 165
1 253
1 1209
1 1493
1 551
1047 1
1505 1
1 881
1023 1
722 1
1 460
884 1
1 1426
1 798
1 1193
1 1180
622 1
1 910
1517 1
1 1179
1 1244
1433 1
1 1065
1 736
504 1
1009 1
1 616
752 1
1 100
1035 1
224 1
1 663
1 469
675 1
172 1
1 243
674 1
1 392
1 213
1316 1
1 116
773 1
760 1
1 1456
515 1
1 547
617 1
1 281
697 1
1278 1
240 1
1 355
1 554
1 1328
1 1292
1 768
1203 1
374 1
1 509
721 1
1 268
1471 1
1 1200
595 1
340 1
1 517
1 1396
1195 1
1040 1
329 1
1381 1
1 779
200 1
1 1018
1 459
290 1
685 1
1 84
83 1
41 1
689 1
726 1
596 1
1 485
1 1510
1363 1
1 893
1 211
60 1
85 1
1 838
1 957
699 1
864 1
1211 1
96 1
802 1
2 3
742 1
646 1
1 71
1 283
718 1
1 1210
391 1
1 138
302 1
177 1
1 586
621 1
1347 1
1 244
1 325
1 1474
1096 1
1 936
1 980
76 1
1 216
1157 1
1 80
600 1
692 1
1394 1
1442 1
1 471
1002 1
1 1113
1 1376
737 1
201 1
1223 1
543 1
1 1323
1 1261
1 57
458 1
871 1
1393 1
1492 1
1451 1
217 1
481 1
91 1
1 948
1100 1
19 1
1341 1
728 1
1 31
1 108
1423 1
1344 1
735 1
1 82
1 170
1 1251
1 87
874 1
1 274
1054 1
1 118
1 1370
1 33
1136 1
1 45
1 369
1 431
1108 1
1 1490
988 1
1 765
1 1188
145 1
14 1
1142 1
1 1189
1 892
352 1
1 250
1 350
979 1
1 700
809 1
1 862
1 1435
994 1
708 1
1 609
1021 1
836 1
877 1
1004 1
1271 1
1 837
1 811
511 1
918 1
205 1
626 1
873 1
1 793
1 1161
295 1
1217 1
1005 1
1 93
1 65
1 1289
1 1120
1339 1
1 26
1 952
555 1
1487 1
739 1
1 898
570 1
667 1
1334 1
1 613
1 197
1 1501
612 1
1000 1
1 1432
148 1
1 63
748 1
1 529
383 1
1135 1
1369 1
657 1
1 1503
1531 1
249 1
1 455
475 1
343 1
1443 1
1 406
1 90
1139 1
1 12
1182 1
422 1
1 112
1 891
1502 1
1 744
1 1345
1 1151
1 999
1 1354
1 42
1 559
1 1121
1 1296
288 1
1 1349
223 1
1 1286
1 822
1392 1
1037 1
1 917
967 1
1 484
788 1
661 1
1 282
1239 1
1 1343
820 1
1 115
1298 1
296 1
1 579
437 1
1 965
1284 1
1 771
1 1389
1 279
1 1243
379 1
119 1
425 1
1 908
665 1
1149 1
1 869
546 1
1331 1
292 1
1485 1
175 1
1 958
1300 1
1 895
1 396
235 1
377 1
1 1154
1 321
106 1
1326 1
1362 1
1 989
1 746
1494 1
1428 1
631 1
1 86
1330 1
1 1184
1 1003
1 826
1377 1
114 1
652 1
1 403
1 580
1064 1
1 627
1 1084
1 577
1 778
125 1
1124 1
1 683
949 1
814 1
1 1175
1 889
714 1
1 1117
1 1380
1218 1
1388 1
942 1
1 1156
1 246
1 1051
900 1
238 1
1427 1
603 1
1 598
932 1
1 1440
161 1
1 985
1 727
878 1
1 97
247 1
1105 1
1 670
276 1
1252 1
62 1
198 1
1072 1
1 638
497 1
1 412
310 1
783 1
1 1266
1085 1
647 1
1295 1
156 1
1170 1
280 1
367 1
1 1130
978 1
1 705
1 1268
1 1270
417 1
384 1
658 1
1 599
1235 1
1382 1
1 399
56 1
159 1
1 327
1372 1
1 1062
1 1163
1 1320
1 467
1 512
1 1424
1460 1
1026 1
1097 1
1 423
786 1
70 1
1 1083
1 534
1 123
1 581
446 1
1 1495
1358 1
1 335
353 1
1 1312
848 1
540 1
868 1
1227 1
851 1
1 72
528 1
426 1
1 1012
1 912
13 1
1523 1
906 1
1 635
1 212
1 792
1378 1
1 1258
342 1
1 795
1 421
1 876
1 117
1 492
1 1079
77 1
1 1101
1 496
1 133
140 1
1 1103
1 1059
1 1288
6 1
1 1145
1 143
1 18
341 1
1 810
1 716
1 300
1 490
1 1132
73 1
1 1274
1260 1
1 453
183 1
1 1469
1230 1
1131 1
1015 1
1 679
1 723
1397 1
1 265
1 127
1191 1
946 1
324 1
1 252
1 1310
1214 1
1 346
1 693
1 1089
828 1
861 1
733 1
81 1
1267 1
1 167
1 9
1 669
1 1293
1 1415
1307 1
1257 1
1 30
694 1
477 1
1371 1
516 1
1496 1
1 168
1 29
194 1
1 1074
38 1
1153 1
1077 1
162 1
1 594
1 410
852 1
1 338
1 472
1 1529
1 401
1 857
1 684
1305 1
1 37
1129 1
706 1
499 1
1 429
1 1194
394 1
1 565
227 1
1186 1
1 1314
1 50
885 1
1 1215
264 1
1 1395
1 520
1 585
1 66
184 1
1391 1
1 1087
583 1
1 911
34 1
22 1
1 920
174 1
1 715
1340 1
1 1351
1125 1
1 230
1484 1
326 1
500 1
1287 1
1 1016
575 1
1 619
1297 1
1 717
1 98
1466 1
1 1183
1 278
1 645
1 872
1 1524
1 75
1 444
1 971
1 535
844 1
1248 1
1 698
1237 1
1 664
591 1
285 1
1 1512
909 1
1 831
1 556
1 186
214 1
1 567
704 1
1 1455
1112 1
1 833
590 1
1 1515
479 1
1 1162
427 1
1155 1
1324 1
776 1
385 1
1 260
1 858
1 1238
1070 1
1528 1
1 47
1 135
1 593
772 1
267 1
1 1294
1 413
347 1
1 1452
1 537
1 1033
464 1
1 707
454 1
1 1272
182 1
1 805
101 1
1 415
1 954
1 291
960 1
1 671
1390 1
1 1031
1 860
1366 1
1 104
1052 1
1 1276
1020 1
623 1
1 604
608 1
1 202
1365 1
931 1
480 1
69 1
713 1
245 1
1 470
1 939
1127 1
745 1
1434 1
1 1283
1190 1
1 1232
1086 1
103 1
237 1
1 1056
348 1
381 1
1 1327
372 1
188 1
92 1
486 1
1231 1
1478 1
1 1352
1 899
1034 1
11 1
1 763
436 1
928 1
1 672
1 251
1 666
926 1
1206 1
1 405
1 624
1 747
519 1
1 807
1 610
766 1
1 1335
1 1401
1 1422
1 854
578 1
1 1138
1420 1
521 1
1171 1
363 1
1 58
1 1014
1 955
1 1039
1 562
1 650
1 1280
1 1213
681 1
1 839
1060 1
1 1514
1 1150
1 476
319 1
1 1413
1 1488
1160 1
208 1
1 1275
1032 1
1430 1
1 1167
1338 1
1234 1
1 984
1302 1
1 902
402 1
738 1
1 678
1 1489
1 506
1 222
1 163
1080 1
1 474
1 32
1 209
102 1
1 935
959 1
1 1095
424 1
1 1336
1011 1
731 1
1259 1
1 1507
1 561
1017 1
1 2
1 225
1178 1
813 1
1 808
1 1109
1 120
312 1
620 1
1513 1
1 1325
1 1164
1 573
1022 1
1 855
155 1
589 1
1 629
1 1463
1104 1
1 1241
1 907
1409 1
24 1
1 829
1 1115
61 1
775 1
1313 1
1 992
1044 1
361 1
1387 1
975 1
1 358
997 1
1 1053
1 400
682 1
1436 1
1 259
1006 1
1 1042
628 1
1 450
176 1
938 1
1 273
1 301
1 607
1 618
1240 1
1 1346
1 107
1 8
207 1
1 1094
1 40
1 328
1457 1
1 1057
387 1
853 1
1356 1
651 1
1 695
1 373
536 1
1 769
1 232
89 1
67 1
720 1
442 1
1 1202
447 1
1118 1
1406 1
1 986
1 1119
1 1269
262 1
322 1
1491 1
541 1
564 1
1383 1
473 1
1 1038
1 503
1368 1
725 1
1 825
934 1
270 1
1 974
1 566
1 1224
1 701
275 1
1421 1
1521 1
815 1
951 1
1 354
1 743
1 1500
1098 538 4
1 315
480 1
1 894
1 221
1 29
490 1
1 815
1 443
648 1
638 1
419 1
87 1
1 201
848 1
1 310
93 1
1 219
452 1
736 1
1 606
13 1
1 779
1 732
864 1
875 1
1 758
115 1
8 1
1 589
472 1
1 932
940 1
1 865
98 1
1014 1
1 194
1 270
1 12
1 777
1 765
1 961
1 42
146 1
1 650
1 398
263 1
1 15
1 512
363 1
1 278
632 1
642 1
1 581
1 25
1 1081
1 687
850 1
234 1
1 301
414 1
1 659
30 1
1 904
1 22
360 1
621 1
913 1
1 536
751 1
764 1
939 1
1 23
817 1
962 1
1 754
615 1
1 716
1 141
14 1
347 1
1 1060
1 1053
1 1087
753 1
364 1
378 1
935 1
325 1
1 775
355 1
520 1
980 1
1 359
1 899
772 1
1 702
1 958
717 1
1026 1
435 1
377 1
1 767
510 1
797 1
530 1
977 1
1 950
569 1
163 1
294 1
1 1046
1 454
1 1084
1 608
362 1
204 1
896 1
1 656
1 113
838 1
654 1
1 924
101 1
125 1
187 1
1 214
1 1027
1 622
1 213
1 537
311 1
857 1
1 900
1 283
1 120
1 449
1 873
1 21
1 390
78 1
884 1
564 1
37 1
1 264
1 437
1 11
626 1
735 1
1 32
799 1
1034 1
984 1
808 1
66 1
640 1
317 1
199 1
1 253
254 1
1070 1
417 1
731 1
1 860
1 655
1 505
464 1
1 132
1 217
1 1043
851 1
1 906
1 937
1 949
1063 1
1 244
703 1
241 1
168 1
599 1
58 1
680 1
841 1
349 1
1082 1
1 750
1 971
803 1
1 432
20 1
1050 1
1 671
1 738
1 314
882 1
1 484
607 1
1 727
846 1
995 1
1 229
1 329
1 153
1 965
469 1
1 416
1 396
338 1
1 986
653 1
1 903
1 506
1 533
1068 1
1 527
1 697
1 821
45 1
211 1
149 1
1 920
33 1
1 46
1 232
1 870
453 1
134 1
1 844
1 568
19 1
587 1
1 337
1 105
546 1
1 987
1 614
198 1
361 1
180 1
1049 1
1 1051
524 1
1 1093
1 402
56 1
778 1
1 339
439 1
945 1
1 603
1 144
1 147
619 1
1 627
1 326
77 1
839 1
1 251
1011 1
555 1
1 646
1 440
1 27
1 649
692 1
1 53
691 1
1 166
1 286
261 1
1 682
1017 1
704 1
1 525
1 442
760 1
1 993
1 497
1031 1
108 1
496 1
1 898
1 897
1 856
1 855
1 52
1 610
373 1
305 1
110 1
1 441
1 695
1 674
1 1030
259 1
94 1
1 574
1 1069
825 1
974 1
612 1
281 1
1 406
1062 1
994 1
200 1
137 1
395 1
1 190
1 429
1 672
1 389
1 728
878 1
488 1
1 247
1 392
1 382
604 1
207 1
1 1080
1 447
1 842
522 1
1 1078
1 540
1056 1
1 663
445 1
1 665
1 631
422 1
954 1
1 343
1 602
1 181
1 423
1 489
1 448
818 1
552 1
159 1
92 1
1 231
911 1
460 1
813 1
597 1
1 577
1077 1
814 1
1 457
1025 1
202 1
1 556
1 222
50 1
357 1
1 652
1 400
277 1
485 1
456 1
1019 1
1 543
1 245
1 290
952 1
1 388
1 943
1 164
1 910
1 295
712 1
1 664
1 60
1 210
1 297
1 996
798 1
408 1
1 427
874 1
1004 1
255 1
1 713
40 1
386 1
1 49
380 1
1 871
1 706
1 810
793 1
324 1
781 1
1 185
1 249
513 1
566 1
809 1
1 186
139 1
893 1
998 1
641 1
1020 1
1 535
786 1
1 1094
287 1
1036 1
1 65
1 887
1 831
1 131
495 1
1 915
1 260
391 1
248 1
1092 1
1 176
1 433
328 1
4 3
500 1
889 1
1 154
291 1
1 709
1 354
1 747
1 444
225 1
740 1
1 100
99 1
849 1
861 1
1 613
930 1
578 1
1 951
1 947
1 468
451 1
1 82
474 1
1 885
883 1
1 1008
1 246
1 763
1 796
1 690
1 233
1 162
157 1
1 404
461 1
1061 1
822 1
1010 1
967 1
1 953
421 1
1 596
1 700
106 1
538 1
431 1
471 1
475 1
1 238
336 1
1 923
220 1
1 847
785 1
1 10
1018 1
1 111
1075 1
1 322
743 1
1 206
1 39
1 645
1012 1
1 26
669 1
1 272
62 1
1 921
592 1
18 1
1 183
446 1
1 313
1 1098
658 1
1 618
1 371
1 79
1 308
1 126
771 1
1 720
16 1
306 1
629 1
123 1
845 1
1 90
1 80
196 1
1 258
1 103
711 1
1 805
724 1
1 367
1 195
235 1
48 1
1 119
1 590
1 230
1 340
1 54
1 477
1 312
1 1048
908 1
63 1
1 112
1 366
960 1
1054 1
917 1
352 1
122 1
1 57
1 635
782 1
407 1
835 1
384 1
501 1
1 107
203 1
1 774
705 1
679 1
1 715
580 1
252 1
1 35
28 1
1 518
1 919
829 1
1 1091
721 1
1 559
1 69
729 1
1 476
752 1
415 1
1 268
666 1
1 491
1 410
1 532
806 1
515 1
529 1
833 1
1 44
1 482
1 1016
1 528
1 792
719 1
1 1040
356 1
84 1
773 1
877 1
1 927
1 521
683 1
565 1
1 733
1 637
1 852
1 630
1028 1
1 667
1029 1
1 955
285 1
983 1
1 358
1095 1
1 791
7 1
1 623
1 992
1 918
912 1
351 1
269 1
462 1
121 1
990 1
1 6
997 1
859 1
1071 1
1 800
189 1
723 1
1 426
1 749
1 742
826 1
1 128
1 816
1058 1
1 523
266 1
1 438
1 866
1 946
1 236
1 784
71 1
61 1
1 858
547 1
1 644
1 83
1 677
434 1
511 1
579 1
239 1
828 1
344 1
1 24
1 179
730 1
686 1
601 1
1 975
1 330
1 331
1 152
1 385
1 1096
1 928
1 823
1 267
1 888
707 1
787 1
1 333
379 1
1 739
481 1
1 550
926 1
430 1
685 1
1 215
1 1064
1 1009
605 1
1 701
558 1
976 1
1072 1
374 1
802 1
1 1021
560 1
1 688
1 73
1 284
1 418
240 1
801 1
526 1
1 1097
1 748
463 1
365 1
130 1
345 1
759 1
593 1
116 1
902 1
1 289
517 1
1 516
1 1024
1 531
1 891
1 1076
1 197
1 502
319 1
1 335
790 1
611 1
401 1
880 1
662 1
173 1
966 1
455 1
1035 1
1 948
318 1
96 1
1 694
1 142
708 1
571 1
1 478
1 47
118 1
76 1
1 895
465 1
1 2
178 1
1 863
804 1
1 693
1 68
573 1
514 1
1 88
1 309
1 876
209 1
1 208
1 509
4 5
288 1
1 584
1 1089
1 41
1041 1
1 473
1 634
1 327
1 300
1 570
332 1
909 1
205 1
978 1
1 824
487 1
1006 1
191 1
102 1
832 1
862 1
931 1
1 936
769 1
1 1055
304 1
1 575
368 1
127 1
1 370
757 1
745 1
1 726
1 265
1 91
1066 1
1 1037
1 165
302 1
1 561
755 1
1 812
1 403
1 725
1 1059
534 1
1 405
1 242
145 1
174 1
1 89
177 1
292 1
1 562
1 321
504 1
1 1015
1 963
1 138
1 827
1 1073
1 34
1005 1
1 161
1 549
156 1
968 1
1 959
572 1
1 548
776 1
51 1
770 1
1 944
170 1
1 981
714 1
1 789
459 1
1065 1
346 1
95 1
1 188
151 1
890 1
1 673
1 624
182 1
1044 1
1 303
1 979
81 1
1 657
989 1
1 586
1 788
1 854
1 718
1 734
492 1
1 869
1 1079
59 1
1 991
1 31
1 280
1 576
1 494
1022 1
1 957
1 756
36 1
1 539
1 212
836 1
293 1
216 1
1 320
1 237
1 135
807 1
169 1
1 567
1 160
1 507
1086 1
636 1
1 929
1 227
1 224
1 150
969 1
1 647
651 1
1 660
840 1
274 1
381 1
1 483
299 1
1 639
273 1
1 394
1 872
762 1
1 595
1 1003
17 1
1 372
109 1
1 493
1 9
1 972
1 544
1 376
554 1
1 973
43 1
1 226
1 375
411 1
1 271
892 1
1 744
1 143
1 766
1057 1
341 1
1 628
1 780
837 1
999 1
901 1
1 334
834 1
282 1
1 598
768 1
276 1
323 1
470 1
479 1
158 1
867 1
1 795
1 722
1067 1
985 1
1 542
1 1074
594 1
1 916
1 467
1 676
1 409
124 1
3 2
1 383
1 458
1 350
1 588
1 553
1 413
956 1
741 1
1 348
38 1
1 545
1 171
1 1038
1 563
678 1
1 175
1 551
1 425
582 1
710 1
257 1
1 192
1 1023
1 369
1 668
1 129
1 620
1 136
811 1
1 1013
1033 1
746 1
1 1088
1 1083
616 1
1 1032
1 85
1002 1
1 988
1 420
218 1
1 296
114 1
1085 1
1 424
1 393
298 1
193 1
172 1
1 819
942 1
1000 1
1 86
1 964
1 466
698 1
1 1039
316 1
67 1
879 1
1 243
1 70
1 397
1 843
75 1
1 820
1 140
1 74
1 486
1042 1
450 1
1 1001
1 117
761 1
1 934
1 1090
436 1
256 1
699 1
1 905
1 914
307 1
412 1
1 881
696 1
1 250
783 1
1 583
148 1
585 1
684 1
1 72
1 933
1 184
275 1
1 925
1 868
1 1007
1 353
1 922
1052 1
1 223
1 938
228 1
1 387
1 503
1 625
557 1
1 342
1 941
617 1
1 830
1 64
1 907
1 541
1 982
508 1
279 1
262 1
167 1
499 1
1 737
133 1
1 689
1 670
1 1045
155 1
661 1
970 1
1 675
97 1
399 1
609 1
1 853
104 1
591 1
794 1
1 1047
428 1
6 5
1 633
1 600
1 519
498 1
1 681
1 886
55 1
1 643
1461 1020 3
1 150
1 62
1419 1
1 1057
982 1
1 611
308 1
1 249
1012 1
541 1
623 1
1 48
341 1
363 1
892 1
1210 1
1 951
1 1417
1 558
1 1121
1 704
1 377
131 1
1 788
456 1
292 1
1 163
1113 1
1 913
361 1
1204 1
1 578
573 1
1 583
699 1
1 597
985 1
1 104
425 1
1 885
1 125
183 1
1 153
1 1123
727 1
226 1
1067 1
1 897
39 1
1 1375
1 523
1 1122
1 1308
1 662
1 935
1 1148
1 29
1 870
838 1
1231 1
37 1
1 513
677 1
115 1
1286 1
1 234
853 1
1199 1
798 1
446 1
1 313
587 1
1 824
157 1
712 1
1 863
1 1303
1 510
1 594
1 16
1 1258
259 1
1 752
1 421
768 1
1 1346
1 435
1 899
1 191
1 139
1 255
532 1
1357 1
1 487
1414 1
1 1354
1 598
668 1
1 80
1 359
1 748
1 873
1 24
1331 1
1 1408
1 223
1 757
585 1
1 1433
1 825
1 864
142 1
1390 1
1430 1
182 1
1 830
1 1163
1 1161
1 512
1 12
1 577
1 1399
171 1
1 358
1 1263
1 998
1 968
852 1
1 593
780 1
1410 1
118 1
1292 1
1 1216
1 795
1 1229
224 1
186 1
1449 1
1 476
775 1
241 1
89 1
1 268
820 1
1 1065
1 486
581 1
1 673
554 1
1 702
1169 1
879 1
1 505
1 394
1 987
1 1436
1 979
63 1
1 874
1069 1
551 1
1 462
952 1
1401 1
1 1334
1 1360
1016 1
1 560
1 818
148 1
1 207
1 1413
1 215
1 503
692 1
23 1
1 678
1297 1
1 276
301 1
330 1
910 1
999 1
1 1250
548 1
563 1
3 2
1 579
108 1
1372 1
570 1
1 452
1020 1
1 1291
1200 1
347 1
1 373
337 1
1 620
1029 1
622 1
17 1
1 1166
1 1144
1376 1
459 1
1 1456
1 1337
1 926
1 1201
1 1086
794 1
1 1140
1 1153
1 961
1 588
1 614
851 1
1 434
1 550
1 525
1159 1
1 728
1 55
1 1252
1037 1
1 442
71 1
1 790
1362 1
1 143
1282 1
1 1432
362 1
1 299
868 1
1 802
1 1234
1 771
1 279
1 975
627 1
11 1
1155 1
1 376
1285 1
229 1
1221 1
1173 1
1 200
18 1
1 1104
1 164
1 942
1063 1
27 1
1044 1
204 1
57 1
1 1313
799 1
1288 1
963 1
1 615
894 1
1461 1
314 1
1 368
1 1287
265 1
878 1
1102 1
1 349
1136 1
1023 1
1 1193
1 1081
1 264
1135 1
945 1
288 1
1 1367
1245 1
929 1
1 496
1 1157
1 357
1 289
1 1096
1 1445
122 1
504 1
1 1061
1 413
1 619
1 1273
1 833
389 1
315 1
1 135
1 827
1095 1
796 1
1 545
925 1
242 1
849 1
400 1
261 1
129 1
1 731
1 736
1 488
1 639
1452 1
1 213
1256 1
323 1
1 544
331 1
1 194
1 365
1 1412
1093 1
304 1
343 1
1427 1
546 1
291 1
237 1
1 1431
1 806
867 1
1 1013
221 1
1 1243
1149 1
195 1
1 179
1 540
1160 1
1359 1
41 1
493 1
1 861
724 1
1 31
1 474
1053 1
725 1
1 225
1402 1
1 432
1 342
1 580
1312 1
280 1
779 1
354 1
34 1
595 1
1405 1
468 1
1 307
1125 1
1 1205
1 1196
1 732
1 652
447 1
1 591
455 1
1 10
1 193
277 1
1 154
1 407
1 1188
1 938
1 231
1 128
1425 1
239 1
1 298
1446 1
1395 1
1 1306
1 67
1 939
1 1077
1 449
1 646
1 26
1 1206
1 882
1 919
1 1156
1219 1
1 1381
536 1
1 760
592 1
887 1
1 1064
648 1
8 1
1 1217
1 915
893 1
147 1
1 1141
1038 1
1 715
187 1
203 1
1 32
930 1
901 1
1194 1
1 1046
1329 1
1006 1
1 344
608 1
438 1
1 1233
1 270
369 1
1 448
1 831
480 1
1 889
687 1
1 1298
144 1
776 1
326 1
1 1240
1 1182
1 1022
196 1
1 1294
1 958
1 1168
1 1442
1459 1
1 680
1 176
1 1227
1 665
1226 1
657 1
1 375
1 134
1 828
1 1040
786 1
1378 1
1 1271
1 753
773 1
1 1207
1 227
808 1
1039 1
1 190
201 1
950 1
285 1
1 1453
411 1
1 391
1 110
1 228
1 370
210 1
1358 1
1 1014
1056 1
1 1379
660 1
1018 1
1 54
1 117
427 1
1 61
1191 1
1045 1
1283 1
1 1444
1 1070
1326 1
1 807
1320 1
1178 1
740 1
683 1
1 1172
1 1143
1 1228
1296 1
1 1457
1 1403
1005 1
1 52
996 1
1 685
1 1352
1 1032
1 401
1212 1
1 43
635 1
1338 1
1 64
785 1
1 741
235 1
719 1
1 1237
1311 1
1 502
1 821
1 850
567 1
458 1
419 1
1 98
1138 1
959 1
1180 1
1 1324
1145 1
1 895
1 302
1008 1
127 1
1 917
481 1
1 743
928 1
1 1363
81 1
826 1
1 198
1 412
311 1
1059 1
761 1
1 324
1 1305
1 1400
812 1
1 624
1 1394
1 445
1 22
1 219
1 94
1183 1
1366 1
1 1146
1304 1
1 352
1 1211
1438 1
1 9
777 1
1416 1
1150 1
711 1
1 1345
1 485
1 723
317 1
1383 1
1 625
1 44
1170 1
1 1325
1 566
977 1
1055 1
1 992
1015 1
263 1
1 602
1 382
238 1
995 1
633 1
1100 1
1 1026
754 1
1 19
76 1
1 751
260 1
1090 1
1085 1
638 1
1278 1
1 941
145 1
1 1276
1 816
1 547
1 467
1189 1
1 613
1 95
1028 1
1 737
1 300
1423 1
1 1248
1 312
994 1
1 1184
1344 1
936 1
1 612
1 390
267 1
1361 1
1 837
1 463
1 659
1 244
1048 1
693 1
1 444
517 1
1218 1
1 1083
656 1
114 1
1 273
923 1
1420 1
1 840
1 478
1 643
1 1112
1 86
1 1031
1293 1
1 819
1 565
1 328
1024 1
1 535
507 1
822 1
1 521
1 1265
1 348
562 1
1 759
1 1007
1 199
1235 1
469 1
1 58
1 698
829 1
1392 1
1 1274
212 1
1 6
997 1
1 397
70 1
742 1
1 1177
1 1309
305 1
971 1
1 339
1 1267
962 1
1 1238
970 1
774 1
990 1
666 1
1 957
1 295
1 714
371 1
1246 1
1 1409
379 1
610 1
1 744
1316 1
1269 1
1 778
162 1
1 745
599 1
632 1
1 126
1195 1
766 1
1176 1
410 1
465 1
1089 1
1 603
1262 1
1 1213
248 1
133 1
220 1
1 832
1 284
1 364
1131 1
1 947
651 1
1 781
1 1103
902 1
672 1
1 406
1185 1
1 293
1 1043
245 1
1 631
1 392
1 475
1158 1
679 1
1 297
1 346
1 426
1 254
721 1
1 233
1 107
650 1
20 1
30 1
1 839
1 269
1 428
1 1230
1003 1
1 524
1 2
1 167
1 103
1 1244
1 747
1385 1
192 1
1111 1
1 533
116 1
916 1
334 1
845 1
1 716
1451 1
69 1
1152 1
1021 1
1 1335
1 484
1120 1
1105 1
327 1
1 1349
321 1
1041 1
1 649
841 1
1301 1
670 1
1 7
471 1
1 443
1066 1
1 53
1 188
1 405
1 664
1 1393
75 1
730 1
1 671
489 1
946 1
931 1
1115 1
1 96
1 508
1 271
1 749
1 559
949 1
1289 1
336 1
1 170
846 1
1 91
1339 1
1127 1
905 1
1 674
605 1
472 1
1 1355
168 1
1347 1
466 1
571 1
1 944
1 353
1 978
1 1428
1 707
1 310
948 1
152 1
46 1
1 1025
222 1
1 890
420 1
537 1
399 1
1 538
755 1
1343 1
763 1
1 842
99 1
1106 1
1 161
1 451
1 262
1 516
1 156
266 1
106 1
13 1
495 1
1 661
1 1368
859 1
429 1
1261 1
617 1
772 1
691 1
1 606
252 1
1384 1
1 1060
25 1
1 1336
1130 1
1 984
1 90
1 477
409 1
1 21
765 1
518 1
1 813
1058 1
1 934
682 1
1 1242
1 303
1 976
1 1107
1 286
123 1
1 1004
166 1
105 1
956 1
1 1249
56 1
402 1
1 112
1407 1
792 1
1 281
876 1
325 1
393 1
1 1447
644 1
1 1088
378 1
1202 1
1 454
1 498
1 360
1 274
1 499
1 1036
414 1
1 1080
791 1
1 647
865 1
1 888
883 1
1 815
1047 1
422 1
1 640
1 574
1 218
1 1418
1 140
1 629
1132 1
1 216
1 539
1 572
417 1
1 436
283 1
335 1
966 1
109 1
1 1253
1 1266
920 1
1 1215
1 483
319 1
937 1
1 1099
1 33
1 869
1386 1
1 1421
804 1
1 506
68 1
552 1
1 769
1 1398
356 1
1 491
85 1
1 1251
713 1
82 1
1 132
461 1
1 918
1 1225
584 1
1 515
1 1139
173 1
1 509
1 954
689 1
922 1
1458 1
601 1
1 1071
862 1
1254 1
482 1
1 705
1114 1
860 1
1 969
1 470
408 1
1 543
1 564
1 607
1027 1
1 1284
1 738
383 1
1 189
332 1
1 1341
1 355
329 1
1356 1
1 986
1 921
1 782
906 1
1 1374
1049 1
87 1
1 1299
1 1333
1 65
1314 1
159 1
519 1
1 857
1 1260
1 138
609 1
1 1317
1 710
1 338
1370 1
1 1035
1 855
1 604
1 1165
1300 1
1010 1
1353 1
991 1
1 783
542 1
908 1
1 1098
789 1
932 1
1 511
93 1
1116 1
1 1097
1 797
1171 1
835 1
530 1
1 1075
1 1268
1 1373
160 1
1220 1
1 1439
1 576
59 1
320 1
1 66
700 1
1382 1
1 1275
1128 1
1424 1
834 1
1 814
1 130
1 589
1 955
282 1
871 1
1 980
1 1406
1 1443
1 1167
1435 1
914 1
1 739
1 770
675 1
1281 1
1 1034
387 1
1 793
415 1
404 1
1186 1
1 706
1 165
520 1
1 424
1 626
1 453
1 206
1 15
1255 1
875 1
718 1
891 1
811 1
1 494
501 1
720 1
1 911
690 1
1 45
688 1
1 514
733 1
232 1
1 722
1328 1
1 381
1 616
1129 1
1437 1
1 457
843 1
1 149
398 1
1 1371
258 1
856 1
924 1
1 1110
1 734
460 1
880 1
912 1
1 596
1 1342
1 1133
1 943
1 1164
1 630
1162 1
1 433
14 1
1280 1
1 1279
1 1030
1 1364
1 654
1270 1
380 1
1 272
695 1
1 1321
697 1
708 1
1 60
1 1455
1079 1
1062 1
1 1181
1134 1
621 1
758 1
1332 1
208 1
1236 1
762 1
1 590
1101 1
522 1
1 729
1 1429
735 1
1019 1
1 641
1 211
1 155
1415 1
290 1
1 681
246 1
1 684
1 1369
1315 1
1 696
395 1
1 450
1 1137
1 1440
366 1
1 884
1084 1
953 1
1 653
881 1
1 784
1 74
900 1
1 726
1 836
423 1
1 983
1 1208
1 823
388 1
418 1
1 1179
1348 1
1387 1
1 1109
787 1
981 1
866 1
169 1
1327 1
1052 1
1 803
1 973
527 1
964 1
1351 1
1426 1
136 1
1 529
1082 1
1 1422
586 1
1 1203
1 250
119 1
1 993
464 1
1 686
322 1
1 102
1 1001
1092 1
1 430
113 1
1 1192
1 386
1 230
1 694
1 904
1 1389
1 1322
275 1
1277 1
1 1033
1 1232
555 1
175 1
1000 1
1 92
5 1
1009 1
1 960
767 1
1 473
120 1
1222 1
1272 1
1 158
1 1441
1 257
440 1
1257 1
1 1391
858 1
1223 1
1 1017
1 1051
568 1
146 1
1 676
1 350
1 151
1074 1
1 1042
1 1310
1119 1
1 1072
903 1
1 1073
1 1198
553 1
1 1197
847 1
1 528
1 756
709 1
1 256
1 351
1 42
1 100
202 1
1 988
717 1
1 1264
124 1
1 1068
1 1190
1 549
1 636
1 97
628 1
1 1224
1 72
1434 1
1404 1
667 1
1 197
1239 1
1 642
1 431
1 907
1 185
1 600
1 1054
1 663
1 1118
844 1
1 172
1 180
1 1175
84 1
1142 1
1 886
1147 1
1 1340
49 1
500 1
1 253
1 1214
1 181
1448 1
965 1
177 1
1 1011
561 1
247 1
1 1209
88 1
972 1
877 1
1 333
1 1117
1 1323
174 1
1 73
251 1
243 1
1126 1
83 1
967 1
1 534
1307 1
1 750
1 51
1 1259
1 848
1 316
1 38
1 1318
1 367
1094 1
1319 1
1 137
940 1
1 318
1 1290
1 497
1 306
1 403
1 801
1 490
1 47
974 1
1 809
1 1450
1247 1
1 764
1 416
557 1
1 1411
178 1
1 1380
385 1
800 1
898 1
1 746
111 1
1174 1
1350 1
1 703
1 1377
1 805
810 1
340 1
1396 1
1 236
1 658
1 372
1 287
5 4
1154 1
1 36
121 1
209 1
634 1
1 40
101 1
50 1
294 1
1050 1
669 1
1 141
1 1187
3 4
79 1
655 1
1 909
1 240
278 1
1 645
1 1002
479 1
1 492
1397 1
531 1
1124 1
872 1
1 1151
1 439
1 927
1 1241
1 1295
1 309
1 78
1091 1
205 1
184 1
1 35
701 1
1 1365
854 1
214 1
345 1
817 1
1 526
437 1
1 896
28 1
1 569
1460 1
989 1
1108 1
1 1330
1 396
1 374
1 575
1 1078
1 384
1 1087
1 556
1 1454
1 296
933 1
1 217
1388 1
1 618
637 1
441 1
1 1076
1 77
1 1302
1 582
1717 1500 4
541 1
1 189
720 1
1210 1
454 1
1 131
1027 1
1 1469
1 1115
1 624
1685 1
1395 1
1317 1
1 1428
891 1
1 1561
1430 1
1 1519
1467 1
1 476
1713 1
1 1597
1442 1
1 629
1 833
581 1
1 1339
1 734
1 1711
405 1
1576 1
1052 1
1128 1
1 1689
1548 1
1394 1
1 329
1 453
1 170
1 815
1404 1
1 1443
1515 1
1535 1
1 1280
1 97
1330 1
1157 1
7 6
1 844
1 69
1 853
1 804
1 578
995 1
1 851
1 631
1 1114
1242 1
1 347
1 1243
1 575
396 1
1 509
1 533
1 1202
1 193
1 553
1580 1
1 1592
1471 1
1232 1
376 1
1 250
471 1
1259 1
1 1698
1233 1
1490 1
1676 1
1498 1
1 252
1 598
1 643
1 730
548 1
572 1
1 700
1 126
1 15
492 1
1 1544
318 1
1 351
1 1197
1 304
1 1072
1 226
253 1
1 534
1 1266
459 1
1314 1
1035 1
1 1662
1 1400
1 161
1 155
599 1
1 172
1 1161
1 1533
1 1409
1670 1
141 1
1 1693
647 1
577 1
1 425
56 1
1 1582
1 1638
1 38
903 1
1 44
1 1319
1311 1
1 1523
688 1
46 1
1 567
795 1
263 1
1482 1
298 1
1 974
1 421
1 812
1440 1
1 701
550 1
451 1
1 1445
1455 1
151 1
1699 1
1650 1
1 1218
420 1
1 975
1 140
1 243
1 165
653 1
230 1
1 377
1051 1
296 1
1 1510
1 1568
1 361
1091 1
1 1543
1 699
1687 1
306 1
1 493
122 1
1 971
1 1602
1271 1
1 989
1 675
1 1318
1 1634
1 1595
1 1439
1 152
1 1307
1697 1
706 1
1 735
1 638
1459 1
1 778
335 1
1 907
1 289
28 1
633 1
1 924
1 857
1 535
1 333
133 1
668 1
774 1
1381 1
1 1478
437 1
1 1468
1591 1
1 461
1 417
1 751
1 627
197 1
1 401
1432 1
1289 1
1590 1
1 174
1 384
256 1
1 573
1 1556
566 1
173 1
864 1
1199 1
1 908
1085 1
1 1660
1 1412
1554 1
1 1228
1 1272
1 1494
33 1
825 1
1 951
1 582
1 916
1274 1
1477 1
1 1063
1425 1
308 1
1 973
732 1
1 463
1 1163
1 1194
1 1337
838 1
1361 1
1 254
23 1
113 1
1 307
1 369
1 1418
1374 1
1 590
1 391
839 1
1 340
1 494
448 1
1431 1
53 1
1 1282
1 94
873 1
1170 1
105 1
1 741
1116 1
1 617
1 824
1 522
86 1
1 1552
1206 1
1 952
1 985
1 1189
1071 1
392 1
1 606
1 83
1103 1
1 1664
893 1
532 1
1 139
1405 1
1 608
1 1492
1 353
1 649
1 115
1396 1
1448 1
201 1
1020 1
363 1
1 1525
1 944
1620 1
3 4
780 1
1 348
145 1
1527 1
1 452
1 530
1 1269
1 1182
1147 1
1 183
10 1
1070 1
302 1
1 1629
862 1
1 1622
1 1067
1 1424
1 827
1 1078
569 1
1 475
1301 1
1 779
34 1
1 249
244 1
1 1378
1 510
1 621
1 904
72 1
641 1
1 123
1 947
95 1
1 587
803 1
1666 1
1 869
1 905
62 1
1 1646
1 313
1133 1
52 1
1 942
1220 1
1 1015
1 630
1 32
1 999
275 1
1611 1
1065 1
67 1
1 762
1 682
1256 1
1397 1
1 214
1 344
6 5
1 513
1 809
868 1
119 1
1 656
1 1349
1 47
1366 1
1 1192
1 311
1 852
1 1201
1 1569
1 1503
1041 1
664 1
886 1
1 1166
1 101
362 1
1 556
1 1420
1 1087
1607 1
1604 1
1168 1
1 1516
1520 1
1 1093
1 1141
765 1
1 1398
1 915
118 1
1 620
1148 1
268 1
1 537
1 1207
477 1
1265 1
1 583
1 1444
1 993
1 1608
1 1002
1005 1
1 188
759 1
1 847
1716 1
474 1
1 1286
800 1
1 940
238 1
1 1586
680 1
1487 1
1122 1
457 1
1489 1
235 1
1106 1
1 753
1 527
1 768
1 678
1 797
1 1677
1 208
1 1101
1150 1
1 1077
1 695
240 1
1 723
164 1
1 1682
108 1
1 1277
1 1121
1 1186
564 1
1 1626
1 394
1 1517
153 1
1 1403
1 1055
1506 1
1292 1
658 1
1 965
1239 1
1 986
1 305
1 198
1 261
80 1
672 1
1 1276
1 1624
1658 1
885 1
879 1
1536 1
1110 1
938 1
176 1
1 499
1 683
1513 1
858 1
273 1
1255 1
258 1
325 1
1 842
743 1
1303 1
1 460
1 228
107 1
1 718
35 1
689 1
1018 1
1 977
1080 1
1 1702
255 1
1144 1
1 1647
104 1
1 177
1 1261
1 967
1 179
1 760
79 1
1208 1
1 217
1 1470
1 1061
981 1
1 953
465 1
1 1295
994 1
1578 1
1 984
1 1433
480 1
1 787
992 1
1 432
1668 1
1 337
1049 1
686 1
1264 1
1 1408
1 524
343 1
796 1
1 705
1512 1
1064 1
681 1
1279 1
1376 1
1436 1
1 1211
116 1
221 1
782 1
1011 1
1636 1
1671 1
49 1
937 1
1053 1
1 769
1 483
1 836
1299 1
1631 1
1247 1
284 1
1104 1
1 498
1 294
1 808
330 1
1 828
1 931
1 1040
739 1
781 1
1 1694
1542 1
373 1
764 1
1 1131
162 1
1 843
1 870
124 1
1 51
1165 1
1 726
1 968
466 1
26 1
1 1684
225 1
1 1493
66 1
1 565
1529 1
1 1348
882 1
1 600
491 1
103 1
1 784
1273 1
1 1037
571 1
1 25
264 1
1251 1
1355 1
54 1
251 1
368 1
867 1
481 1
1 279
1059 1
1 383
1 1706
1 955
300 1
1164 1
1 514
1004 1
1575 1
439 1
898 1
206 1
1 1415
1 1313
1 871
336 1
1 935
1 106
415 1
1 378
1 129
1 515
1390 1
1 956
1260 1
1 1134
1 50
20 1
727 1
1 1076
111 1
1 525
1 135
490 1
1031 1
1 464
962 1
1 1679
1 1146
185 1
414 1
1579 1
766 1
1 1514
1 1452
1 1680
1 1570
478 1
455 1
1 584
1 1393
611 1
1 704
549 1
810 1
1 1312
2 1
1 1402
919 1
160 1
1 241
1 1588
1507 1
1619 1
1 1105
1 319
412 1
1 1172
1 1539
1 248
1 357
1 813
245 1
1 1683
77 1
837 1
1 1204
1380 1
1 1045
1 120
1024 1
1 1185
1 1387
1 1009
1641 1
1383 1
793 1
1 1495
1340 1
1 1132
1 1179
323 1
961 1
1 721
1 202
1 1341
594 1
1518 1
1 1285
1 1526
1 1046
1 958
570 1
1 799
614 1
1 756
1357 1
1496 1
1 222
1615 1
1 1293
1 546
1545 1
1 281
1 1473
785 1
1358 1
749 1
1 866
1 328
1 1644
1 1153
1 365
1 899
1 896
96 1
1 1681
1 1521
1 12
1 744
192 1
1 518
1 232
1 966
1112 1
1 1016
1 889
1 467
1 1287
1 370
1 497
1 1190
1715 1
1 1083
1 1484
1 239
1 1088
1 597
1 1551
902 1
773 1
482 1
1 299
1 1567
203 1
1188 1
364 1
1 1613
1305 1
1 1238
1212 1
1447 1
671 1
1 199
1 1571
636 1
1 748
547 1
1 1222
1074 1
1 375
1254 1
1 233
715 1
1635 1
1214 1
1302 1
1 659
1633 1
61 1
1 651
1 1300
1 436
881 1
433 1
1 234
1 1429
1 125
1 442
1 1573
1 496
1 1617
1 607
1 1531
1 36
666 1
1 1127
1454 1
1 1176
1 312
2 3
1 1709
1 92
1 830
876 1
1372 1
834 1
1 416
552 1
1 1253
1 920
1 1139
1043 1
1572 1
1 1704
1 406
1 42
324 1
317 1
1 352
1 698
1 740
1048 1
1 878
1 1382
616 1
1 691
1 196
1 187
1 676
1373 1
1308 1
1708 1
1577 1
1275 1
960 1
1 848
1 316
1 702
1 1350
1 900
1 1663
1 1583
1026 1
1 987
990 1
1 1019
823 1
469 1
1 1365
1 1062
1236 1
1 1497
195 1
1 1368
1540 1
5 4
737 1
1 1281
1229 1
7 1
503 1
205 1
1449 1
596 1
210 1
1332 1
418 1
1 1345
1 278
1 8
1 237
428 1
1 783
1472 1
1 1084
57 1
1240 1
1331 1
694 1
1 970
1023 1
1553 1
1 894
1257 1
1639 1
1 755
200 1
1086 1
1209 1
1 1347
1 342
1 574
40 1
1377 1
486 1
1 789
1410 1
430 1
1413 1
1 1322
1 1688
1 320
1 817
1 890
1010 1
1 623
1 528
1537 1
423 1
1 410
1 266
805 1
1 444
1 288
1 24
1 117
1 1123
1171 1
382 1
1 45
1 1021
661 1
1655 1
663 1
1 1090
895 1
76 1
1 277
622 1
1187 1
1 1441
91 1
1 1367
1 147
1328 1
1 295
725 1
1 1581
1435 1
1 1323
742 1
100 1
1 526
1060 1
936 1
1 1224
821 1
1 1630
1 854
1324 1
521 1
1 1306
1648 1
1384 1
1 1288
1 1389
1463 1
1560 1
1137 1
1 1012
1 1191
1 640
292 1
771 1
1 109
511 1
399 1
1625 1
1 922
1 138
1 846
1 1388
1 1565
212 1
1 826
259 1
338 1
1566 1
506 1
270 1
1 349
949 1
1226 1
1 1143
1 229
1 1598
1 1203
901 1
874 1
1326 1
1036 1
1 516
1 662
1 1333
146 1
1 724
1 73
1414 1
1406 1
585 1
1008 1
1 563
1594 1
592 1
1 1108
1 1450
1 1032
1563 1
860 1
618 1
1 761
632 1
171 1
1 801
443 1
223 1
1 1006
1465 1
1 1193
1 21
216 1
1 1562
1 580
215 1
68 1
1707 1
1370 1
1284 1
282 1
1 112
1 1674
1089 1
1541 1
1 1235
1 921
39 1
291 1
1 22
1 717
1 708
55 1
1 555
1657 1
1 78
1 1386
1 979
1 1627
1 692
1 403
1125 1
1 892
1 1109
1 1362
1 579
262 1
1 1129
950 1
877 1
346 1
1 393
1 1230
1 1098
1113 1
1 358
1 1028
1371 1
1 1446
1 85
1 31
1 888
1 1593
1 121
1 1155
807 1
1 98
1488 1
1 646
1 1245
371 1
665 1
1 500
1 637
58 1
551 1
1 1667
1 1399
918 1
1 819
1652 1
1 1609
1175 1
315 1
1 816
1 1427
1267 1
1278 1
1 148
1 322
1499 1
1 287
1 1375
1 1321
1 1649
267 1
1034 1
388 1
397 1
1252 1
1 925
1 545
1 909
89 1
1030 1
1504 1
1 74
1 48
1 390
1 385
1 440
1 963
1 17
142 1
1 1352
1237 1
1491 1
156 1
1 554
1 386
1 495
1 719
1 236
1 1198
1 1160
1585 1
1 674
1223 1
1 271
1 407
540 1
1 355
1 927
1 752
1 1486
1 750
1 1369
1 1589
1 872
1669 1
1 996
1 1705
1 1119
1 87
1 1691
1 1392
1 1177
603 1
1 1244
1 1325
169 1
309 1
1219 1
1 588
1 1710
1073 1
1 1509
1457 1
356 1
562 1
613 1
213 1
1 326
910 1
1 64
959 1
1 912
1 811
1315 1
1097 1
1 1522
1 1342
1 429
1 1100
794 1
1505 1
65 1
1156 1
1 863
1 1309
419 1
517 1
845 1
269 1
1 1033
1 1612
231 1
1 1391
1 529
1 27
1 1248
1385 1
602 1
1 470
1 1547
1417 1
786 1
1 218
1 1665
1 1717
1605 1
1 788
1458 1
1673 1
1 381
154 1
1 722
1099 1
1 669
18 1
964 1
818 1
1 1351
1 1007
757 1
1029 1
1050 1
1044 1
1 1003
485 1
1643 1
982 1
1 913
1574 1
1 1117
1 276
601 1
505 1
1 283
1180 1
1 1294
181 1
814 1
1416 1
180 1
75 1
1262 1
1 626
933 1
822 1
1419 1
1462 1
604 1
1169 1
1 360
1437 1
586 1
1601 1
1559 1
711 1
1610 1
1 1216
1092 1
1 1653
1 1196
426 1
1 1423
1057 1
1 449
736 1
1 321
1 716
560 1
1 657
431 1
1 1054
628 1
1 1039
1 1343
1 772
167 1
409 1
820 1
802 1
400 1
1 1334
1 880
435 1
747 1
1249 1
1 911
462 1
1 143
1 1364
1310 1
166 1
1456 1
856 1
1 190
99 1
379 1
1 293
1296 1
1 359
1 159
194 1
1628 1
1346 1
1530 1
1 1270
1 634
1 398
639 1
114 1
1 1475
1 41
610 1
758 1
1 519
709 1
1 728
1082 1
1618 1
1 926
1549 1
408 1
1 849
260 1
1 763
1 446
1 168
1502 1
1 207
1 1205
980 1
1 1258
1 946
1 932
1 976
1 731
1 84
1 589
1 1013
1 609
861 1
791 1
1 1145
1546 1
1587 1
1102 1
1 1538
1 1464
1 714
1 1557
1 1162
1 1174
619 1
1241 1
280 1
1 923
1 1200
707 1
1 542
1 650
1474 1
1 520
1 1215
1 1401
1 1124
1 1042
1 1528
1703 1
1 1017
1 831
1 137
1 1353
257 1
1714 1
1 790
806 1
1422 1
456 1
652 1
1 246
1 395
1 445
1 733
1135 1
1 855
1167 1
1 943
1 427
978 1
1 1690
1 93
712 1
1120 1
1 136
832 1
468 1
1 11
1461 1
1 1025
1 70
1 1603
1 948
1 1283
1 1500
1290 1
1 1451
413 1
191 1
1 635
504 1
997 1
1 954
411 1
1 88
1 1111
1 557
1 219
1701 1
1 1637
1 558
1 1363
1234 1
1 543
1 1058
1481 1
1 1140
930 1
1 644
1 696
559 1
149 1
1336 1
1 43
1 1263
1 1178
441 1
128 1
1426 1
1 110
1 1066
127 1
1 374
227 1
729 1
424 1
1136 1
1138 1
1 29
1 182
1632 1
1047 1
1 1327
1466 1
1227 1
777 1
1 211
1 531
1 1480
1695 1
332 1
1130 1
1 939
1181 1
286 1
389 1
1 1524
247 1
1 402
1 1221
1584 1
1338 1
314 1
102 1
1094 1
186 1
1 71
1 450
1 484
1 37
1 941
1 285
366 1
1 1407
1659 1
1 1320
1654 1
303 1
1 1056
1623 1
798 1
1485 1
1 972
1692 1
1 660
593 1
1 1158
1 865
1421 1
345 1
1 372
1151 1
1154 1
576 1
1 754
1 1645
297 1
1600 1
1 568
331 1
544 1
1 1183
539 1
1075 1
512 1
30 1
1 914
1 1081
1 1712
1 1359
1 770
1 220
1 473
1 1696
605 1
1 14
1 1354
1675 1
1 654
1 350
1 163
1 713
1 290
1 9
1479 1
677 1
1 969
1217 1
1 988
957 1
1 1344
1 438
1 59
1 536
1 538
1213 1
1 776
1 274
487 1
209 1
1 1068
625 1
746 1
144 1
1 1483
1 354
16 1
1621 1
1438 1
1356 1
488 1
1 792
1 1360
1 1534
1 934
1 1614
523 1
850 1
648 1
1149 1
687 1
1 404
339 1
685 1
1 204
684 1
1 1298
1 184
1 19
341 1
1 1225
1 367
1 561
150 1
1 897
1411 1
1 1329
829 1
1 1069
157 1
1 615
1 224
1 1246
1 884
1 1460
1532 1
82 1
1678 1
175 1
1 1379
1 1173
1 1651
1 670
1118 1
1 1268
1 1304
1079 1
1550 1
1 906
1 1599
655 1
1 835
1656 1
158 1
679 1
1 1476
1 1095
134 1
327 1
1 387
132 1
1 1195
242 1
1014 1
642 1
1 1000
1 645
859 1
840 1
1335 1
1 1142
1 612
1 841
1 130
1 875
991 1
507 1
1 1126
422 1
1 983
703 1
1 178
1 591
745 1
673 1
1 929
1 380
697 1
1 272
710 1
945 1
1 667
1 928
1 767
265 1
1231 1
1 1564
1501 1
458 1
334 1
595 1
1 1096
1555 1
887 1
693 1
1 1159
90 1
447 1
1 1606
1 1152
1 1558
81 1
917 1
1672 1
1038 1
1511 1
1 1661
1 883
738 1
1291 1
472 1
63 1
690 1
1 508
1022 1
502 1
1508 1
1 1316
1 775
1 13
1 1642
1700 1
1 1107
479 1
60 1
1 1686
1250 1
434 1
1453 1
1 301
998 1
1 1434
1640 1
501 1
1 1001
1596 1
1 1616
489 1
1184 1
1297 1
1 310
1930 1523 2
1493 1
1 1706
1 74
1 82
1751 1
1 287
1 1772
1 502
1 597
1 1368
1 1836
1 67
1217 1
570 1
580 1
86 1
1 1551
1 1003
1520 1
921 1
139 1
549 1
1750 1
1 1268
1 1913
526 1
1 1084
1 739
713 1
1801 1
1 912
1 686
1412 1
1879 1
988 1
1 177
1622 1
1 1366
1 1237
1015 1
681 1
1267 1
1 620
1 1290
50 1
1 1576
1 1545
1179 1
1504 1
1 576
19 1
1 798
1363 1
1790 1
1 1605
1242 1
1 595
1173 1
1 1811
1 742
1 652
1 1457
1 1919
612 1
639 1
1 296
1 1640
1 1625
1 162
1 1757
1 415
289 1
1 891
1166 1
51 1
1487 1
156 1
1 1526
523 1
1 590
1151 1
1 1826
1637 1
1 1278
1 1642
1505 1
1254 1
1 444
1164 1
1 1838
1 1781
985 1
1500 1
1 23
356 1
1 249
49 1
1805 1
1 723
1 201
1 1691
1393 1
1348 1
1 684
1 171
1 607
1 1559
1758 1
1634 1
1238 1
37 1
487 1
1 1684
1 1736
649 1
1172 1
1057 1
957 1
477 1
1 1502
1115 1
1 410
983 1
1 128
1 33
323 1
1228 1
1 45
1 1281
842 1
1670 1
1 1620
1 412
413 1
1390 1
1 346
1 420
893 1
1206 1
1 454
1 1644
1148 1
1 1612
1883 1
1522 1
1 1061
1194 1
953 1
1 1930
1 316
1 672
1 753
263 1
1 622
1 93
1 765
1139 1
1142 1
1 813
1 808
394 1
1 935
279 1
1 1859
1 1604
1060 1
1 1891
280 1
449 1
1 970
1 664
1 950
1431 1
563 1
529 1
1 1795
1 747
882 1
1007 1
1 1135
1 824
1674 1
300 1
1 1665
1857 1
1109 1
1860 1
744 1
129 1
678 1
1519 1
903 1
1 1814
1 1658
803 1
1 34
1 1574
370 1
787 1
1 181
1 1168
1 1596
1 900
1 821
1307 1
1 1744
692 1
1702 1
292 1
1 870
319 1
1 1428
1 6
1029 1
1119 1
1 1872
77 1
1349 1
1541 1
1728 1
212 1
894 1
1 1398
1 1096
87 1
480 1
1710 1
1 1599
1314 1
1356 1
1 667
1 1190
478 1
1 64
1 1533
1 36
1 1917
1611 1
1 561
1 1614
838 1
1 550
1 1746
299 1
1 1556
1137 1
1 53
1 206
1 271
1 1557
1 1623
557 1
1 516
1 145
1646 1
1 956
1 83
1169 1
1 1597
1 954
243 1
11 1
708 1
736 1
1184 1
1127 1
1 401
1 1150
1 863
611 1
1 1924
552 1
1 1074
565 1
1880 1
4 1
1 581
221 1
1 714
421 1
1160 1
1 5
1 635
1 633
584 1
851 1
1 217
1 69
1 409
1 137
1861 1
1455 1
1 820
359 1
1 1550
1 735
1244 1
857 1
1584 1
1138 1
1 1512
1 806
1 364
59 1
998 1
1515 1
831 1
695 1
1357 1
216 1
1 230
16 1
1 698
1425 1
222 1
1 835
1 1223
1051 1
1 1123
1 1590
593 1
1055 1
1 229
1 1108
1 278
1 726
944 1
1668 1
1 1261
261 1
1856 1
1 1789
1 1064
1922 1
1 387
1 860
685 1
360 1
1 1402
1034 1
1 543
1871 1
312 1
1 802
194 1
1 981
1 674
1 1579
486 1
1 1775
1122 1
1 577
1225 1
1 1562
1 535
1030 1
1 1803
1771 1
1 862
1 305
1 967
1 1864
1 81
1 1794
1 1221
602 1
1289 1
1 1721
1824 1
328 1
1186 1
930 1
504 1
1 531
1 522
349 1
1 1446
340 1
1 1274
1812 1
1628 1
1 1227
1 933
1 358
1 855
213 1
1 1561
1154 1
1 1066
1 1881
1 1207
219 1
1 883
1 642
1 1552
1662 1
1560 1
1 42
1 1916
1 904
1 422
1193 1
1214 1
433 1
1 756
1 1090
209 1
859 1
1 1031
1 1714
1078 1
1448 1
1 527
1 775
1534 1
1 1582
1 1010
1472 1
1 100
1 1070
1258 1
1 780
701 1
437 1
1 828
1786 1
445 1
1 121
1 1527
1 578
1 1347
1156 1
1 90
441 1
911 1
1 546
1 1692
1853 1
1 1437
658 1
1102 1
1 354
916 1
709 1
1 1486
1 1040
1 629
1698 1
1 332
1389 1
1 298
114 1
1 95
1 1798
1567 1
1181 1
1 1697
1 1026
741 1
1183 1
1 350
1645 1
1152 1
1 1075
1 1199
1 191
1 331
505 1
1 1405
1530 1
1 1232
1 58
1677 1
1 1318
1174 1
1 1385
1 342
1 966
1 907
1 750
572 1
1651 1
1198 1
1434 1
157 1
1 1461
1 1315
1 668
281 1
1 940
1 1704
1617 1
1 468
1432 1
493 1
1 867
1 1901
919 1
1 233
1 1650
1 1742
1 941
1 1680
1 788
1 1006
1 1737
545 1
889 1
1 997
1723 1
605 1
1 1159
1387 1
1 1528
1 327
530 1
151 1
573 1
1409 1
1 1792
1 885
729 1
1 660
1 306
1 1085
1 125
659 1
1222 1
1 1218
1 532
1 1301
1 286
1 304
1 1033
763 1
1 1501
1 827
982 1
1568 1
1 1624
1 596
1259 1
1 1745
1404 1
497 1
55 1
1046 1
1699 1
892 1
66 1
511 1
1308 1
1849 1
841 1
1418 1
1874 1
1465 1
1 1262
995 1
1 920
1 330
1 1452
1 1086
1 175
1897 1
1925 1
1 1905
1 167
1 52
946 1
1 65
1 1247
1 1764
1 778
1325 1
1 1100
1 693
1 1496
751 1
1 1419
1 1821
1 465
1 1058
1 1873
1601 1
1 719
1146 1
1 344
1 621
1378 1
1 494
1 1204
1 1260
1544 1
1 324
1708 1
1 865
1503 1
1 1013
1354 1
1688 1
460 1
1 1395
1 442
1 1332
1 78
1851 1
839 1
1 837
1 792
452 1
1 284
1653 1
1 321
1 127
1927 1
1 1647
1 1454
1540 1
1 1299
1320 1
193 1
1 186
1 1442
1 740
1848 1
1 351
91 1
1 973
661 1
1 1832
1 116
1 1176
1 1724
434 1
551 1
395 1
1229 1
1 1840
1 9
1083 1
1 1791
1 1303
1143 1
1287 1
1 730
1125 1
1 1467
1717 1
1 1497
1 670
1 1810
1285 1
1 436
1 1302
104 1
1 760
677 1
1 1353
1 73
1 1297
1056 1
610 1
1785 1
1 732
600 1
1 932
1 1012
357 1
1 671
341 1
1 1921
309 1
1542 1
1 1293
1 1187
1 910
1196 1
1394 1
1367 1
1397 1
1 1878
1 202
571 1
1 1652
1 914
1 1910
1 939
1882 1
1 1288
1 507
1 757
1 624
656 1
1 518
120 1
1 1080
1904 1
1 1630
1 13
428 1
1 461
1248 1
476 1
245 1
1592 1
1 822
1 54
1 1043
1 273
1 651
915 1
969 1
520 1
1695 1
1 588
833 1
1 435
887 1
1195 1
1 749
1 1739
589 1
220 1
640 1
1 210
925 1
267 1
207 1
665 1
1 237
707 1
1769 1
1 368
976 1
1654 1
1 427
266 1
1 18
1 1253
382 1
1 1760
1539 1
877 1
1847 1
1 853
1774 1
377 1
56 1
7 1
1 1423
1 582
783 1
846 1
1 1727
1 1300
1682 1
1828 1
712 1
1 366
1580 1
1918 1
1 1147
1 79
1 153
1220 1
984 1
57 1
1 1776
1 1235
1 479
231 1
1 1355
423 1
1 242
1615 1
1 1712
464 1
1 810
1111 1
1 467
1 1549
1 762
39 1
389 1
483 1
1 407
1 890
1 1887
1 1426
1 1492
586 1
1025 1
1 1438
1185 1
811 1
1 1896
1 226
71 1
1264 1
1136 1
1 558
1 369
1656 1
378 1
1709 1
1 108
758 1
1 1548
485 1
791 1
208 1
317 1
895 1
1 1928
1375 1
1 76
1327 1
1 234
1 393
1 989
101 1
1265 1
1 1726
1594 1
540 1
955 1
616 1
470 1
1616 1
1865 1
1 575
75 1
1 1399
1 362
978 1
1 196
386 1
1 746
1 429
1 308
1 918
901 1
923 1
1334 1
1770 1
1 1536
1 1676
1 1328
1456 1
1 337
1 931
1 836
1 345
1 1523
361 1
1 432
847 1
1414 1
1911 1
1 1649
1619 1
26 1
1 799
1112 1
1 416
1 1424
1600 1
1133 1
1 469
1524 1
1 443
1 472
138 1
1 1330
1 724
1 80
1236 1
1479 1
924 1
1 1753
1 1360
1705 1
311 1
1 850
1 1734
408 1
1 979
380 1
1 1825
1488 1
1 843
1 1415
154 1
1755 1
1 655
1 854
1256 1
1 1440
1806 1
1663 1
1337 1
1 8
1839 1
1 500
1 1613
1 603
1 1346
1489 1
1240 1
1 1104
1 325
214 1
1 680
1 458
1507 1
1607 1
1 1610
70 1
1 541
1 1730
1777 1
1 972
826 1
1 777
1473 1
225 1
482 1
1 554
1197 1
1863 1
113 1
1 111
1 178
1 1149
84 1
1039 1
1 715
1585 1
1 1333
1 634
1 1028
1 579
1715 1
1 390
1 333
1 1807
1 1338
170 1
1 958
1 614
161 1
1 72
1 1875
471 1
1 519
1403 1
1809 1
1 188
1 392
371 1
2 1
1 793
1 544
1444 1
1 560
1 1433
1 825
484 1
103 1
1 152
184 1
1 339
334 1
1 1476
943 1
1165 1
1 270
1 244
872 1
294 1
856 1
1 1065
250 1
1850 1
1 63
1 880
1749 1
211 1
1481 1
774 1
1 1124
1 295
1 796
1 689
1 1606
1854 1
1 264
963 1
913 1
1 993
1144 1
388 1
1209 1
1 383
951 1
110 1
1413 1
1822 1
1 455
525 1
1 1482
1 1178
852 1
68 1
1 1410
1291 1
934 1
185 1
1 905
1252 1
1 1211
1 1787
439 1
1386 1
1441 1
1 1675
1 499
537 1
1885 1
1 691
1464 1
1362 1
1 1063
1 1449
307 1
1 1480
1 1664
1844 1
1 1819
663 1
1 1929
1022 1
1 1396
424 1
1 1277
1768 1
1 794
1 259
1 235
1 1445
1855 1
1 886
1182 1
994 1
1815 1
1212 1
1 269
1 1767
650 1
381 1
790 1
1 1041
1 704
1072 1
864 1
1 815
22 1
1602 1
1364 1
1 1609
1 1575
1373 1
1685 1
318 1
1 1626
373 1
411 1
473 1
1 438
1 203
1 1655
1762 1
1 1571
1 1673
618 1
1629 1
1 1163
198 1
1 962
258 1
1239 1
1 1900
1 1230
1 817
1319 1
1 501
1 1700
1036 1
980 1
343 1
1 99
1 1521
1 896
861 1
1 1038
490 1
1 1793
1 1202
1506 1
1 1011
1 927
1 291
414 1
168 1
1 515
1581 1
1 1666
1799 1
1 1208
1 1538
1305 1
1407 1
1820 1
1 399
1672 1
948 1
1 587
1 1117
43 1
809 1
1907 1
1 150
398 1
1 1443
1 1722
1 845
27 1
133 1
385 1
40 1
1294 1
1 1094
926 1
1 498
1076 1
218 1
1 1804
812 1
1429 1
1868 1
1 700
192 1
1638 1
688 1
583 1
1282 1
1098 1
1 1132
1 404
1 275
1 1269
1895 1
1153 1
1 776
1 536
784 1
1339 1
144 1
1 694
1 1660
773 1
1177 1
453 1
1621 1
481 1
1 347
673 1
1 1037
182 1
1175 1
1 1383
176 1
1054 1
1 1416
1280 1
599 1
1 1833
1 1618
451 1
1 769
372 1
1669 1
396 1
542 1
1 166
1813 1
1008 1
14 1
1 1876
1 743
628 1
1059 1
1298 1
195 1
1 1130
1 1047
456 1
1 1469
1 257
1 662
1889 1
1 1869
1001 1
1474 1
1 1565
1 417
1495 1
1 949
1 676
1 752
874 1
1 1886
1 397
1 363
1 1598
31 1
1 105
431 1
1 986
1 669
767 1
1 1627
20 1
21 1
3 2
1 801
1 1779
1 569
1 1689
782 1
1 98
1 1718
1893 1
1 1679
1 952
1572 1
638 1
1 38
1 1577
844 1
568 1
1892 1
1 118
1759 1
1733 1
459 1
60 1
1 1450
418 1
1321 1
1105 1
632 1
1 1270
706 1
1747 1
1 696
1 1042
631 1
1 1317
1731 1
165 1
1 274
379 1
1914 1
1 1016
3 1
1 92
1 1888
1763 1
1224 1
1 1430
1326 1
1566 1
1091 1
1923 1
463 1
1 254
336 1
232 1
772 1
1340 1
1 322
1134 1
1 1116
1 1817
734 1
1 1725
1 1752
553 1
1 403
1 755
253 1
1 160
46 1
1 731
1 1719
1 123
1 1558
1 302
1 283
733 1
1170 1
1761 1
1 1089
1 1077
310 1
1 297
1 224
513 1
1 10
1017 1
1 947
1 272
1908 1
1 1468
1 24
1926 1
462 1
1 1439
1 909
1 1189
1 721
1 1683
1603 1
1 1322
1 1843
608 1
1 262
1866 1
1517 1
1659 1
1 1678
326 1
1 1114
35 1
1 239
512 1
1 277
1 539
1 112
41 1
1 1279
1569 1
1 711
1 1141
1 682
1 1802
1729 1
1021 1
1 1062
1 1915
1 290
1 503
1 1316
917 1
1 1510
1 654
1215 1
1241 1
785 1
1 1336
1371 1
1 496
367 1
1073 1
1097 1
1 1341
1249 1
115 1
968 1
1543 1
97 1
1 405
440 1
566 1
902 1
1508 1
1784 1
1546 1
1245 1
1 148
1335 1
964 1
1 840
625 1
1 619
779 1
1 89
1 1213
236 1
1 703
1827 1
585 1
1191 1
1 1877
1 1920
1 1841
1 521
991 1
1 1243
823 1
1 1643
528 1
1593 1
1 533
1531 1
873 1
1049 1
1 1583
227 1
488 1
1 1365
1167 1
1 1711
426 1
1 1014
764 1
1 1870
992 1
1 759
1 866
1 1671
1 1766
1 1009
1 996
710 1
251 1
884 1
1 474
1 400
1 567
1 1532
1 1884
1823 1
391 1
971 1
1 630
1 147
1 1020
303 1
1 1032
1 1570
1 1380
562 1
1 419
1 604
1894 1
1564 1
1 1128
1696 1
1 1529
1 771
1 789
1 876
1053 1
1 376
1 1246
1 32
1 1800
1595 1
135 1
766 1
61 1
1 1573
1 908
117 1
687 1
200 1
1 1106
1578 1
1632 1
1 1296
1 1311
1 1783
1 1271
1 1002
1369 1
1 617
1155 1
1 598
1 797
1713 1
1 402
255 1
1273 1
1 448
1 1068
1251 1
1180 1
1 450
1 800
1 119
1 646
1535 1
62 1
491 1
1079 1
1069 1
1906 1
1 1553
888 1
1 1113
1 1382
868 1
626 1
1 329
1 722
1024 1
1 1018
143 1
1720 1
1 1391
922 1
1782 1
999 1
1 109
1 1903
1 122
1 180
1681 1
738 1
1 353
1345 1
1 1427
1 1518
1 1808
1773 1
1 260
1 1352
1 25
1 1818
1 1411
430 1
1000 1
30 1
1 1263
705 1
1226 1
728 1
1 1295
1483 1
1 1735
1858 1
1466 1
897 1
1 1667
1 702
1707 1
1 248
1 1370
288 1
1554 1
1 1093
1 1687
1 974
1 169
648 1
1 875
94 1
1 1608
929 1
1131 1
301 1
1 1343
1436 1
1463 1
1 1019
1374 1
816 1
1641 1
1233 1
1 556
1 1309
1586 1
1 1738
1 636
1 447
1 601
1 936
1796 1
1 384
1 1537
1912 1
1 1435
869 1
1201 1
829 1
1 1162
510 1
1 1778
1 1547
1831 1
1 179
1408 1
1 643
1 1129
155 1
1304 1
1 134
1099 1
1 215
1 1004
425 1
1121 1
1 132
1 1216
1 406
1 375
1 768
1 657
1421 1
1 352
1835 1
1071 1
1 1286
1 335
1909 1
1384 1
938 1
1406 1
623 1
1 1563
1 928
131 1
937 1
697 1
1 1205
1 106
1067 1
96 1
1 1275
1 1716
1161 1
1 265
1 1788
1 805
1 246
594 1
1 606
1376 1
140 1
1 1748
1 1145
1 44
1 130
637 1
1 1107
1 555
1 1588
987 1
28 1
1 1250
906 1
1 1312
1 205
1 1499
1 1732
1648 1
1 754
1422 1
163 1
1 1485
574 1
1 1157
1388 1
1 1101
1266 1
675 1
1 1200
508 1
1 1210
1 1842
124 1
1 1118
1 1631
1 615
1 492
1 164
1 781
1 1323
204 1
338 1
1 1867
268 1
1 720
1694 1
1023 1
737 1
1359 1
1 1392
1 1081
1 1899
1 199
1120 1
1 814
1 314
1087 1
1 313
348 1
1 786
1 1048
644 1
1852 1
1 48
1 538
1 374
899 1
534 1
1255 1
1740 1
1381 1
1 795
1 365
1 1661
1231 1
158 1
1203 1
17 1
1095 1
942 1
457 1
1219 1
1 1358
1417 1
293 1
1044 1
190 1
1 1092
495 1
1 975
1420 1
149 1
748 1
187 1
1 173
276 1
1 1829
1 489
1379 1
1703 1
1 1459
1 641
197 1
1 832
858 1
1 819
1 1516
475 1
1 647
1591 1
174 1
1636 1
1471 1
1 107
1451 1
1 509
564 1
1 1830
1292 1
945 1
1478 1
1 1350
1 879
1 959
1 1344
1447 1
1 240
1 1045
1088 1
1816 1
1372 1
679 1
1 252
1 315
871 1
1 960
645 1
355 1
1 1377
1633 1
1 183
241 1
47 1
1498 1
1 136
1 718
1082 1
1 1754
1 683
1477 1
1 1837
1 223
1 142
1741 1
1 1898
517 1
1490 1
1331 1
1890 1
172 1
1 1686
1 1272
609 1
1 1756
1 1005
1324 1
1 745
881 1
878 1
1 1453
1 559
256 1
1 29
1 818
514 1
1470 1
1 85
1 1192
591 1
1 466
1 1103
1 1484
1 1462
1862 1
1 320
1 1313
238 1
1 1458
1 592
627 1
1 770
1 725
1 1050
1 228
126 1
1 1693
1 717
282 1
1846 1
977 1
1 1351
524 1
1589 1
1 1329
1743 1
1 1283
1 1284
1 1035
1 834
1 613
1 1555
1635 1
1 716
1 1400
1 1511
727 1
761 1
990 1
1 506
285 1
1834 1
102 1
1 1525
1690 1
548 1
1 1110
1460 1
1 1276
1 1494
1 1491
653 1
1587 1
1 898
1 848
1 1171
1027 1
1902 1
961 1
1 1765
1657 1
830 1
1 1797
1257 1
1639 1
446 1
1 849
1 1188
1 1401
1 1475
1 1158
1234 1
1 699
1 1514
1306 1
807 1
1 159
1 1310
1 1052
247 1
1 1513
804 1
1 1361
1701 1
1845 1
1 189
1 146
1 88
1 547
1 690
1 12
1 15
1140 1
1 141
666 1
1 1126
1342 1
1780 1
1 965
1 1509
1411 1336 3
277 1
832 1
22 1
274 1
316 1
1185 1
1 192
665 1
292 1
1 933
728 1
1124 1
1038 1
1 748
1 683
1 321
1 942
1 280
1 537
1 164
1025 1
619 1
1 1279
1 1313
1321 1
340 1
1 446
1 1302
1 516
1081 1
1 365
726 1
1 962
1 324
12 1
287 1
802 1
1 471
1107 1
1 130
1 729
1 198
1 462
1 669
1088 1
2 1
129 1
1409 1
388 1
1389 1
370 1
852 1
1 1094
1161 1
1309 1
1390 1
1057 1
1 878
920 1
1 347
1090 1
1 1291
1 921
139 1
1 900
1152 1
895 1
1 1198
342 1
1 705
1 1361
1 1052
1 817
450 1
1 1341
1 1183
1 44
1388 1
676 1
1 1137
1 957
709 1
199 1
226 1
1 77
216 1
383 1
1 903
1 1248
1028 1
692 1
1208 1
1 955
632 1
1 1228
1 1128
1 1091
551 1
328 1
109 1
851 1
828 1
1 557
1 444
177 1
1 393
1 122
1217 1
929 1
483 1
810 1
159 1
1408 1
1 1251
1 544
807 1
804 1
1 1141
1131 1
1 140
1 189
1317 1
1 150
634 1
229 1
524 1
1391 1
691 1
1 1146
154 1
26 1
1 46
1 201
1027 1
1 721
1 1143
1 1284
1 373
1 343
1 647
1262 1
1 50
1 609
1323 1
754 1
1 1077
1 401
429 1
1 998
1 363
1 601
262 1
286 1
1 1169
871 1
988 1
1 798
180 1
889 1
1 928
1018 1
1 644
780 1
169 1
95 1
127 1
117 1
882 1
228 1
1 70
1 667
1 862
961 1
1 1407
1136 1
1 1280
973 1
1 847
1301 1
463 1
776 1
1316 1
1 1043
1193 1
1 244
1 569
770 1
322 1
1 276
1 839
1 905
1 1174
1 980
1 835
1 355
1 245
744 1
74 1
1252 1
1 708
115 1
1 1004
1 285
1 259
1030 1
489 1
1050 1
249 1
809 1
1 179
741 1
445 1
504 1
646 1
1 1406
1 165
1 136
175 1
591 1
1 774
1 1162
1346 1
1 410
831 1
1295 1
89 1
1376 1
1 1311
863 1
1 301
60 1
1 1336
1013 1
923 1
1 308
1 381
1212 1
334 1
368 1
963 1
612 1
392 1
1 258
1 813
466 1
1 222
269 1
1 1209
1 339
1337 1
354 1
1 731
543 1
54 1
1 132
1382 1
1 585
1 529
1 1082
1 299
581 1
1 1144
1127 1
833 1
1133 1
1 764
1 502
909 1
1117 1
555 1
68 1
345 1
1 110
1 530
247 1
5 1
1 539
1 142
1 656
660 1
1 531
1 1293
1 711
877 1
1 419
1 1000
1 719
1 39
224 1
1 433
1156 1
1404 1
1256 1
1 932
1334 1
1 689
476 1
144 1
1 814
289 1
358 1
1 848
1 495
59 1
1 1154
1 528
1 971
519 1
1344 1
1 366
100 1
1 1370
527 1
1 978
1 857
1282 1
1 694
1 795
1 535
1 42
1 242
1 223
1 981
1 190
785 1
1 1243
1 1216
1 725
1 295
1 1023
1 594
1 1326
598 1
435 1
1 937
1 1373
1 1059
197 1
1 43
1 1204
284 1
376 1
674 1
357 1
1163 1
1 611
1014 1
1100 1
1 1276
233 1
1 1237
1 209
213 1
749 1
19 1
1261 1
1 79
1 390
576 1
724 1
1 25
1 922
118 1
826 1
430 1
1166 1
1135 1
1 210
945 1
457 1
1 841
1060 1
1350 1
1086 1
680 1
1 1199
439 1
1 661
432 1
965 1
329 1
1 236
1 566
1 564
1 205
1 1327
688 1
1 1044
1 362
1055 1
1 1258
1 124
505 1
1 775
1294 1
1 1318
1 958
781 1
614 1
1 428
1 156
1 983
1 1040
1194 1
1 1400
1 704
1 1015
1300 1
956 1
918 1
1 181
307 1
969 1
1 33
1102 1
1 1142
440 1
411 1
1340 1
1 881
1 943
1 1072
840 1
1 1070
1 799
1 88
1 148
1 408
1403 1
1 1119
1197 1
1 1320
734 1
1 253
9 1
1 1234
1 1308
578 1
990 1
4 5
1 31
1297 1
1 503
1269 1
1 1358
1 1378
1 883
1031 1
1 865
1 1235
398 1
952 1
1190 1
1 1056
1286 1
561 1
1132 1
1 193
1 1367
801 1
1 507
85 1
367 1
568 1
235 1
589 1
1 1033
1 739
509 1
1 803
151 1
1 806
1 563
1181 1
1 666
1 24
1 950
1092 1
1011 1
1343 1
1 954
842 1
194 1
1 1396
631 1
217 1
1 617
1 1005
1 836
52 1
1 265
272 1
266 1
592 1
1347 1
1 686
1 161
792 1
456 1
766 1
1 1226
513 1
1 782
1 438
1 640
1225 1
1 335
1 212
1 501
424 1
966 1
913 1
1 747
1 771
790 1
1 820
844 1
1 167
1 166
278 1
1371 1
1 949
1 399
1 314
577 1
1036 1
1 1155
1 866
406 1
1 1111
1 558
608 1
1 1046
1 572
254 1
987 1
1 1315
480 1
1 350
947 1
1048 1
1 493
1034 1
1 750
997 1
1 650
977 1
1 1339
508 1
1 520
1 214
822 1
1200 1
461 1
246 1
172 1
490 1
1 250
651 1
1 131
1223 1
105 1
152 1
1 47
1 464
1 746
893 1
1 455
431 1
1219 1
1 71
554 1
1 1106
1058 1
786 1
1 762
120 1
1 654
1 309
1 586
1 1125
1105 1
1 341
1134 1
1360 1
379 1
1 565
1075 1
1 1312
946 1
1 32
1 1021
588 1
1 111
101 1
188 1
1 1202
1 1372
1 467
1 72
1 759
1 648
1069 1
1 1229
944 1
187 1
703 1
1 906
361 1
984 1
1283 1
134 1
1 1099
498 1
1278 1
1 522
1 477
1 931
1 756
1 1140
1 849
1 135
808 1
1 1329
1 625
682 1
1 173
970 1
1 574
1 443
1 837
1 143
534 1
1 1184
1 743
1 1242
1 104
1 338
767 1
875 1
1 227
414 1
1271 1
1113 1
1 603
315 1
45 1
623 1
1250 1
1 360
1196 1
1191 1
1 155
720 1
713 1
1 1356
1 352
1 474
914 1
1 1304
1 94
1 114
1 546
1342 1
1 861
1020 1
256 1
1387 1
1189 1
1 1399
1 325
1290 1
541 1
1012 1
267 1
1 1045
1 1112
904 1
1 1307
1 673
999 1
234 1
934 1
901 1
745 1
133 1
1 1139
1254 1
472 1
678 1
1 1126
1 618
1 1114
1310 1
1 1157
83 1
460 1
1260 1
540 1
491 1
1 815
723 1
465 1
976 1
1 917
1 636
81 1
1104 1
1 221
458 1
587 1
1 556
1 1285
1 264
1 1377
1 1165
405 1
1 511
1 525
1 1207
1 925
1 1098
1 27
1 394
191 1
1 1096
1 751
1 718
1068 1
1 40
827 1
1 75
1 416
1240 1
701 1
147 1
93 1
1 653
979 1
1 248
1 1073
1 886
1 1170
1402 1
892 1
1 202
1411 1
1 200
580 1
492 1
613 1
1 219
1 305
1314 1
1 425
1 753
797 1
1 243
1 475
317 1
128 1
1 331
1 10
1017 1
1 478
779 1
1 452
1 684
73 1
606 1
517 1
112 1
291 1
1035 1
1 485
1247 1
1 645
940 1
407 1
15 1
1 348
1 326
1 1397
870 1
1 959
1 706
1 915
1 313
1 758
375 1
281 1
867 1
1 778
1 874
1 396
1 1078
553 1
1 1368
1 418
1 240
695 1
658 1
1 760
1 974
1 1067
1 1292
605 1
1 514
521 1
1 1042
590 1
1325 1
297 1
1 639
1 371
196 1
1205 1
225 1
1322 1
1 752
4 3
1244 1
1 1095
1 1129
1 552
675 1
948 1
400 1
1 622
1 1047
1180 1
1 1238
1 992
232 1
1 1164
1 17
1 78
757 1
387 1
548 1
664 1
951 1
1 421
349 1
1392 1
1 302
279 1
257 1
138 1
1 793
964 1
864 1
1 1298
1 1395
1 1401
707 1
1061 1
21 1
1 834
1 123
562 1
845 1
1 596
584 1
337 1
1270 1
1 685
1 615
1 442
1201 1
1 168
1 6
1277 1
1 869
1160 1
1074 1
1 204
690 1
868 1
1 97
1 30
1 1211
579 1
1 1076
1 885
1 637
1 996
1221 1
306 1
126 1
98 1
1 1029
1 96
1 1054
1 616
1 649
1026 1
924 1
1 344
1263 1
1 90
1 1352
1 1375
479 1
1 1364
497 1
1 238
496 1
1 261
1 186
374 1
330 1
184 1
1 239
1 1288
448 1
1214 1
499 1
902 1
397 1
1 434
1354 1
1049 1
1 633
789 1
1 1145
141 1
1 1016
298 1
1 1393
1 423
597 1
1 1394
894 1
787 1
1 737
1 542
1 1118
643 1
103 1
171 1
1 1177
1385 1
1195 1
1 252
1 182
1084 1
916 1
919 1
796 1
1 856
1 1206
1 119
1383 1
1 488
1 549
1 899
346 1
1359 1
1 662
1 714
263 1
1 34
1 560
116 1
319 1
1357 1
323 1
395 1
1 545
1083 1
320 1
670 1
107 1
1 153
626 1
717 1
1 18
1210 1
1 659
1 260
449 1
1 700
1 1349
473 1
784 1
1333 1
1149 1
1 65
1 791
1 891
1 1002
1062 1
14 1
38 1
887 1
693 1
1 1362
960 1
1 698
526 1
911 1
369 1
1 687
805 1
1 982
853 1
1 812
108 1
1 1089
1 638
1171 1
1 830
1182 1
1 1172
1 1093
1 855
1079 1
270 1
1 300
1 420
206 1
1 271
702 1
1 353
1 207
1 62
296 1
1 318
1266 1
422 1
1338 1
1 1147
1 523
1 51
1 818
1 178
351 1
1 1188
1 8
1 1173
1 819
1 91
1 677
1348 1
1330 1
1087 1
1 1003
1110 1
1 794
1 53
629 1
1355 1
255 1
1386 1
1 1176
1 1032
391 1
1 699
282 1
1 740
777 1
1 763
1 174
736 1
415 1
1122 1
1220 1
1037 1
800 1
838 1
873 1
1 1213
84 1
1 1085
1257 1
1 35
993 1
1 303
412 1
176 1
384 1
149 1
1 436
1353 1
1 880
1 1303
1 595
607 1
1 783
1365 1
735 1
1 1159
1148 1
1 1274
481 1
470 1
1097 1
1 1120
1 403
1 137
1115 1
884 1
385 1
1 1345
1 290
146 1
1 386
1 583
1 1010
1071 1
1 738
1 372
1 333
1 1363
1153 1
2 3
668 1
1 417
593 1
610 1
1 657
843 1
1 1230
1 635
162 1
220 1
860 1
1 356
1 858
1 533
441 1
1 985
1 1186
1222 1
1 145
621 1
1 203
1 402
624 1
1236 1
1 37
1231 1
87 1
447 1
1 1064
995 1
1 1232
602 1
1 876
1 208
1 1103
1 582
655 1
1 1241
67 1
1 575
106 1
1024 1
1 559
500 1
1 1009
487 1
1 989
1022 1
1 811
532 1
11 1
1 99
991 1
1 515
1 1116
1 409
1268 1
92 1
1 1379
908 1
378 1
1 382
1 510
1 1006
936 1
237 1
215 1
1 113
1 536
1410 1
58 1
1 994
1 1066
1 671
1 1130
816 1
1 63
518 1
1 550
1 897
1151 1
1 1123
1 183
231 1
1 742
1 364
251 1
1 69
1 1381
1 57
941 1
1 846
1 888
389 1
1 1398
1 454
1 1224
304 1
730 1
926 1
1187 1
1 121
1 23
1 599
912 1
1 157
28 1
898 1
1246 1
1 986
55 1
1 1039
1 1267
1 451
1 1259
427 1
1 1328
1 1218
1 600
1 16
765 1
1 230
163 1
1253 1
1 788
1121 1
1405 1
1063 1
1 910
1 1007
1 1335
1 772
953 1
1 1249
1 710
823 1
268 1
1 761
1 482
1 930
1 64
1 975
641 1
294 1
1265 1
1239 1
1 1101
773 1
311 1
125 1
1 859
1 158
1366 1
1008 1
1 336
1 567
1 1272
61 1
696 1
1 679
459 1
715 1
1019 1
1 484
1 652
938 1
1 20
1 13
1 82
1331 1
1 1287
1 437
1233 1
1255 1
570 1
1369 1
1 241
1 872
1281 1
1 642
1 825
829 1
1 1351
1 293
1 1158
1 732
1306 1
879 1
1 1138
1 1264
49 1
7 1
1 697
1 681
1 1192
1 1001
1 573
672 1
1 283
824 1
1 972
1 727
160 1
1109 1
380 1
1 426
1 1384
571 1
1 76
1 1215
1051 1
1 1167
512 1
1 821
1 1296
1 195
722 1
1227 1
1 620
1 939
1 1380
1289 1
506 1
1 927
1 1374
413 1
854 1
1 896
907 1
1 712
1 1179
1 890
1 1168
66 1
494 1
1 733
36 1
1 170
1273 1
538 1
1 185
1 102
1 327
453 1
1 275
1 967
1108 1
1 377
968 1
1 935
486 1
1 1305
1 768
1041 1
56 1
1 80
1 716
1 1299
1 469
1 218
1 288
1245 1
627 1
1 547
1 850
1 663
1 273
630 1
1 404
1319 1
1332 1
1 312
86 1
310 1
1 1203
1 604
1 359
1 48
1 211
1 1275
1 332
769 1
1 628
1 1175
1 29
1 1178
1 1150
1 1065
1 1324
1 468
755 1
41 1
1053 1
1 1080
1044 385 3
820 1
810 1
671 1
794 1
1 430
1 795
145 1
1 217
974 1
1 148
326 1
1 10
552 1
1 383
1 980
1 562
1 373
630 1
643 1
600 1
498 1
1 520
1 290
675 1
221 1
977 1
1 266
131 1
1022 1
1 741
1 639
1 923
891 1
157 1
241 1
1 406
1 452
746 1
434 1
1 526
853 1
154 1
1 776
1 455
1 471
1 159
1 321
1 401
960 1
168 1
258 1
1 314
1 983
616 1
884 1
952 1
710 1
907 1
415 1
1 553
272 1
1 13
1 422
1 997
1 930
1 545
1 122
1 791
946 1
1 480
128 1
1 707
114 1
1 843
57 1
1 182
1 651
274 1
1 227
279 1
1 908
838 1
561 1
913 1
847 1
1 179
1 270
181 1
178 1
1 1010
605 1
77 1
1 235
1 807
1 101
957 1
1 35
576 1
765 1
1 97
965 1
1 701
1 211
799 1
1 961
696 1
1 821
78 1
1 216
146 1
175 1
592 1
1 340
200 1
460 1
662 1
1 825
523 1
332 1
1 578
1 436
883 1
837 1
1 158
1 972
1 754
1 504
1 599
1 317
1 903
1 339
1 740
1 784
446 1
1 680
1 1011
276 1
310 1
1 242
587 1
1 91
402 1
336 1
614 1
260 1
1 38
1 144
89 1
1 138
116 1
734 1
1 372
1 468
156 1
64 1
723 1
1 693
1 525
1 969
280 1
1 474
358 1
1 814
1 925
1 380
316 1
400 1
596 1
1 699
191 1
1 244
1 859
1 34
1 40
1 84
1 439
1 773
364 1
689 1
637 1
1 739
1 877
1 691
1 611
1 335
1 793
342 1
1 484
142 1
1 905
1 902
763 1
1 641
570 1
1 677
1 1029
1 331
461 1
1 399
1 895
565 1
981 1
971 1
1 835
1 481
1 161
1 376
354 1
540 1
1 41
1 686
880 1
92 1
1 297
428 1
256 1
1 319
1 979
1 703
869 1
1 170
1 612
1 377
1 858
1 231
262 1
1 775
1 568
1 848
42 1
769 1
1 906
1 963
792 1
638 1
1 829
426 1
1 23
1 432
687 1
726 1
320 1
1 9
927 1
172 1
1 613
1 298
1 944
865 1
1 433
1 709
1 801
367 1
1 654
1 954
817 1
1013 1
83 1
1 450
1 661
1 642
66 1
729 1
1 234
1 82
1 803
492 1
706 1
1 299
219 1
1 85
1 976
386 1
1 74
485 1
304 1
1 374
1 607
1 863
737 1
1 478
183 1
1 852
86 1
307 1
44 1
1 673
628 1
1 408
1 214
808 1
888 1
1 999
1 524
1 728
1 149
1 635
1 462
245 1
1 296
1 898
1 832
1 823
920 1
1 407
1 186
1 527
1 750
1 61
1 155
995 1
1 88
1 546
1 516
1 648
313 1
1 324
1 194
1 695
330 1
1 4
1 934
1 305
130 1
1 758
755 1
405 1
1 323
1 165
1 404
293 1
730 1
465 1
1 289
185 1
1 381
656 1
1 945
839 1
52 1
1 717
909 1
1 984
1 854
716 1
109 1
1 544
1 228
483 1
72 1
1 463
951 1
490 1
352 1
385 1
1 69
602 1
1 353
470 1
973 1
1 742
702 1
87 1
108 1
121 1
970 1
246 1
892 1
1 681
1 887
1 931
2 3
598 1
1 815
900 1
1 118
1 288
805 1
1 368
1 851
486 1
849 1
1 589
1 860
1 660
1042 1
1 684
1 550
845 1
1 62
705 1
785 1
1 1023
1 949
458 1
593 1
824 1
538 1
1 788
762 1
1 1025
1 901
1 658
418 1
1 541
1 493
936 1
813 1
1 797
90 1
844 1
1 966
100 1
284 1
1 704
1 1017
1 215
942 1
1 410
889 1
1 456
831 1
1 325
1 467
688 1
1 555
1 998
1 192
1 666
1 150
123 1
802 1
1 778
1 896
736 1
885 1
199 1
828 1
1 19
1 777
1 243
744 1
509 1
559 1
712 1
640 1
1 542
1 472
1 45
1 517
1 58
1 53
1 322
252 1
1 522
1 291
1 140
180 1
1 879
16 1
1 953
1 162
1 449
697 1
1 464
1 841
1012 1
804 1
1 1007
1 718
46 1
747 1
1 529
1 947
249 1
164 1
617 1
1 309
1 1027
1 196
1 912
1 618
1 496
1 466
1 608
915 1
306 1
722 1
1033 1
1016 1
1 303
1 21
48 1
79 1
163 1
1 595
198 1
1 886
733 1
176 1
1044 1
311 1
419 1
1039 1
926 1
167 1
1 112
830 1
811 1
1 929
1 68
506 1
1 690
207 1
505 1
32 1
959 1
1 987
1 582
1 201
748 1
569 1
866 1
1 337
1 359
1 708
1 916
585 1
535 1
184 1
1 534
685 1
1 497
171 1
782 1
1 868
1 395
1 943
1038 1
26 1
1 292
876 1
872 1
968 1
1 1008
1 482
491 1
479 1
487 1
1043 1
1 532
990 1
1 991
1 1030
867 1
1 71
816 1
232 1
204 1
1002 1
594 1
1 80
318 1
1009 1
8 1
238 1
650 1
1 806
935 1
1 427
566 1
679 1
1 536
1 107
713 1
1 649
698 1
1 195
421 1
512 1
626 1
581 1
429 1
1 136
1 917
1015 1
864 1
1 488
1 389
1 515
783 1
424 1
237 1
549 1
254 1
645 1
1 752
922 1
715 1
1 469
1 120
398 1
986 1
220 1
1 225
423 1
1 521
371 1
1 5
1 49
1005 1
513 1
579 1
327 1
50 1
1 503
396 1
1 187
1 732
1 597
1 206
893 1
1 110
580 1
989 1
745 1
619 1
1 939
239 1
1 725
1037 1
250 1
1 890
229 1
631 1
166 1
1 557
1 921
1 393
1 261
230 1
1 459
1 11
1 975
1 1018
70 1
111 1
251 1
753 1
1 81
1 790
1 781
1 727
1 855
1 67
1 15
103 1
623 1
560 1
442 1
348 1
174 1
22 1
264 1
994 1
910 1
1 236
476 1
1 414
500 1
362 1
222 1
1 633
528 1
1 473
457 1
1 102
870 1
591 1
127 1
667 1
1 210
731 1
1 940
1 96
132 1
286 1
18 1
1 119
1 369
780 1
1 533
1 1004
333 1
694 1
510 1
1 625
1 958
1 632
749 1
1 767
31 1
878 1
724 1
193 1
287 1
477 1
1 950
135 1
384 1
627 1
1 873
1 978
30 1
1 601
302 1
3 4
948 1
438 1
874 1
1 134
1 379
273 1
1 577
55 1
1 212
95 1
1 17
1006 1
1 285
964 1
345 1
668 1
779 1
1 137
1 761
1 233
1 347
267 1
543 1
1 1001
1003 1
1 875
1 37
818 1
1 151
1 760
1 955
1 657
160 1
1 610
937 1
1 819
993 1
590 1
1 454
861 1
1 247
1 573
840 1
282 1
14 1
1 682
1 301
363 1
226 1
1 629
1 672
1 202
59 1
349 1
1 425
1 567
774 1
719 1
278 1
1 203
39 1
1 6
382 1
47 1
1 1041
409 1
391 1
800 1
1 1035
1 507
328 1
1 518
445 1
1 787
365 1
1 294
1 29
1 1020
295 1
603 1
1 435
834 1
1 812
1 98
502 1
1 669
104 1
1 188
1 721
1 139
659 1
1040 1
911 1
1032 1
1 531
992 1
988 1
692 1
1 757
355 1
501 1
575 1
413 1
1 771
1 967
1 343
796 1
475 1
1 646
789 1
899 1
1 554
938 1
448 1
1 444
1 126
350 1
451 1
1 564
420 1
1 255
259 1
269 1
1 403
1 76
1 932
1 189
547 1
770 1
308 1
1 924
822 1
265 1
1 447
751 1
113 1
1 1000
1 143
1 361
24 1
190 1
375 1
1 197
1028 1
882 1
124 1
1 996
133 1
563 1
1 387
1034 1
1 329
248 1
1 397
1 985
615 1
36 1
1 51
1 539
519 1
1 240
584 1
1 431
263 1
1 416
12 1
1 664
1 129
218 1
1 208
177 1
63 1
281 1
558 1
277 1
1 871
1 743
390 1
20 1
827 1
1 351
1 809
836 1
620 1
1 7
1 441
636 1
1 1019
1 394
1 652
1 56
253 1
1 856
759 1
1 125
341 1
508 1
1 346
1 511
674 1
334 1
833 1
586 1
2 1
1 60
1 670
1 315
1 846
1 720
1 1024
1 489
735 1
928 1
115 1
1 624
1 551
609 1
338 1
1 655
1 411
1021 1
169 1
1 982
574 1
918 1
1 714
881 1
1 117
152 1
1 798
1 683
1 283
271 1
842 1
1 257
914 1
370 1
1 94
1 65
1 556
653 1
99 1
1 514
1 209
1 768
412 1
665 1
275 1
1 378
417 1
1 388
224 1
1 33
894 1
153 1
1 571
213 1
300 1
1 572
1 738
1 962
933 1
312 1
1 344
530 1
1 711
1 897
1 583
857 1
1 1026
850 1
1 621
105 1
141 1
453 1
357 1
1 440
28 1
1 862
676 1
678 1
1 604
93 1
634 1
356 1
1 54
1 75
1 766
1 622
1 786
1 443
1 366
1 1014
1 495
1 548
1 106
499 1
1 956
25 1
537 1
1 647
1 904
1 173
73 1
1 919
360 1
437 1
1 494
268 1
1 43
663 1
1 147
1 700
1 588
1 1036
1 223
1 764
205 1
1 826
1 941
1 772
756 1
644 1
392 1
606 1
1 1031
1 27
1973 194 3
1 200
296 1
1947 1
1 341
1 1454
1 372
1 804
1 1757
989 1
1119 1
1763 1
1 125
1 409
570 1
1662 1
1 621
1 794
864 1
576 1
1 1522
481 1
377 1
135 1
246 1
1 1773
1 1439
1 662
96 1
242 1
1 1547
1923 1
1 1176
1 1690
1 1020
709 1
1 75
740 1
1 1716
1106 1
1745 1
431 1
1 396
1 1622
1 1857
1906 1
1415 1
1 1737
1424 1
433 1
1 259
1 358
1 682
1635 1
143 1
1 1167
1 333
1236 1
1 65
1 1255
1 1334
1125 1
1 907
1 177
1 1685
1 1301
1637 1
1 268
1071 1
1 362
1 448
1 1725
1390 1
1 1902
1566 1
1 438
1696 1
1 1079
1200 1
1583 1
1 1729
1 1352
1899 1
1744 1
1 1247
1 523
1 506
900 1
1 1581
198 1
1 132
37 1
1 929
1 484
1407 1
1316 1
380 1
271 1
1 9
1399 1
593 1
1809 1
1 1636
266 1
351 1
1 1787
1 1527
1 241
1 681
26 1
1 561
117 1
1 1898
1 1960
1 235
1717 1
1 915
976 1
1 1026
814 1
1 665
1 1070
1 1657
1 1569
1 1599
925 1
1 192
1061 1
885 1
911 1
600 1
1 526
1205 1
1556 1
1 1425
1590 1
606 1
975 1
1 842
1 1555
1 1084
1305 1
751 1
1 1524
1964 1
1 470
1380 1
1 1600
1 1121
365 1
1434 1
1047 1
1834 1
1542 1
1 966
1110 1
1 237
1 730
1 1382
1 648
1 764
161 1
302 1
952 1
1 1050
1 1762
604 1
1 378
1 32
1 1324
955 1
1 1667
1901 1
1 168
210 1
1 1148
1 10
1 316
992 1
773 1
1914 1
633 1
1418 1
1 1003
1 148
1 83
1 1545
1088 1
1 1732
1266 1
348 1
1 1353
115 1
1051 1
700 1
1580 1
1 1275
1 1949
1 594
1 253
747 1
1 770
1 1850
628 1
514 1
1 197
1733 1
1753 1
1214 1
503 1
1086 1
454 1
1 1616
1630 1
1 1474
1 796
1 670
300 1
1 299
528 1
1 555
330 1
1 126
1 586
1 1935
1253 1
1 1886
1 1641
430 1
1 1222
1 723
1 1554
54 1
1 1265
1 993
544 1
1 1613
1 243
967 1
1 520
1 1369
1 787
1 1252
1 906
1 290
1263 1
1 1908
1 1293
1 1126
182 1
1 1062
1 1740
1875 1
1180 1
1 691
231 1
1 436
53 1
1 1078
1 866
1 151
1064 1
1 1700
1315 1
225 1
1 267
1598 1
1 1322
1 832
139 1
1578 1
1 1505
746 1
473 1
1654 1
978 1
824 1
1414 1
1 166
1 1734
738 1
516 1
1765 1
1 1868
968 1
1333 1
1 1028
1656 1
61 1
783 1
1 1618
1 1285
652 1
214 1
587 1
1 29
1 1625
1 133
1 1800
1 58
1 1882
1 938
757 1
1 406
1 1515
1511 1
1 1813
1313 1
1 1930
1 141
1 1072
1 1458
1112 1
491 1
1 939
1 1786
203 1
1 749
575 1
1335 1
1 251
1771 1
991 1
1 1394
1 1400
1 1462
462 1
1710 1
274 1
1 1224
1 1572
1 1739
1 1102
1 1824
306 1
78 1
471 1
222 1
1895 1
71 1
1 1145
1 986
1587 1
1 718
63 1
1579 1
1332 1
1 1639
1 1686
1 1427
1177 1
1836 1
67 1
279 1
1 984
1 537
1 183
219 1
1 944
1 1782
1 1498
461 1
1 534
1440 1
609 1
1320 1
106 1
1 74
1 456
1 1694
1 1536
1 427
1680 1
1 634
1296 1
1 325
1 1444
1181 1
1284 1
1362 1
1 129
1 1926
1 1347
1 810
1770 1
1 496
1183 1
1772 1
1 46
1 1623
1143 1
1969 1
202 1
1104 1
1 785
1019 1
1784 1
1681 1
1 713
1538 1
1 76
622 1
68 1
1 834
1954 1
1668 1
1 1387
1 1543
1 1481
1 1925
605 1
1 728
1 1363
531 1
1 1361
1 388
1 154
3 4
1 440
1 1840
737 1
869 1
1455 1
1 1056
121 1
917 1
8 1
1 1100
1 807
706 1
1 811
1 841
1395 1
1 923
403 1
1 808
1568 1
1 838
1331 1
1042 1
281 1
1 1297
1 1878
420 1
1 1585
1748 1
685 1
1066 1
1 228
1441 1
876 1
1 191
1130 1
230 1
1683 1
844 1
1473 1
1 1298
1 1006
1 1742
1083 1
140 1
1 776
111 1
1303 1
1238 1
359 1
1484 1
1 186
1 209
1 595
489 1
1 1039
1 257
1 1646
1 173
1 1533
2 3
1153 1
830 1
1 1582
216 1
1 174
1801 1
1 1883
1 657
1267 1
689 1
375 1
969 1
1 1496
1 476
1 472
1 835
1210 1
1 270
12 1
1 1300
1 313
1151 1
244 1
1 347
1 1596
1 893
1 1887
1 59
1 513
802 1
1 635
1367 1
960 1
1279 1
1 1166
1609 1
1231 1
1 80
1 1845
1 799
1342 1
1961 1
189 1
1306 1
1 536
1804 1
1 548
714 1
1 1537
515 1
649 1
1 855
1 158
1 239
1626 1
1 1776
1 592
1 138
1508 1
1 163
1 1009
1567 1
1 655
1 188
1 146
872 1
1 719
1360 1
1 212
1 308
1 1682
1 1469
1131 1
1825 1
868 1
73 1
98 1
45 1
669 1
1139 1
1 803
789 1
478 1
1 386
1 708
1 1937
1457 1
1 1229
1 781
1749 1
1 453
1768 1
1 1080
1 1150
1273 1
1615 1
1 1216
1812 1
13 1
1063 1
1 1645
1 990
1 849
1 1649
1884 1
627 1
1 755
742 1
558 1
1 432
1 1808
1 949
1775 1
236 1
1666 1
1952 1
1 309
1452 1
1379 1
1348 1
1 888
1 11
1 19
249 1
1133 1
1 1972
731 1
527 1
1013 1
1 1401
995 1
1695 1
1835 1
1 1648
1201 1
1 1633
1 853
1 624
367 1
1 371
1 23
28 1
196 1
1 1921
1 205
150 1
703 1
1 190
1 147
1927 1
1 275
1 557
1 1178
1 1165
632 1
874 1
1 1494
1 1022
1317 1
1532 1
833 1
1849 1
784 1
1 361
1 100
227 1
269 1
1 1628
1357 1
1370 1
1933 1
1 668
1 1074
1030 1
1 1161
1778 1
679 1
1 1607
1 625
1 1795
1 1796
1741 1
1783 1
1 914
482 1
56 1
1 726
1 1485
350 1
913 1
845 1
601 1
1123 1
897 1
1127 1
1 136
1 1257
1 769
1 858
563 1
1 1346
497 1
1 407
1234 1
322 1
1 996
441 1
588 1
474 1
1 17
1 1041
1 999
1 820
1 1711
1703 1
1764 1
1 52
756 1
1907 1
1 1359
1217 1
843 1
760 1
1488 1
1 1239
1 160
1540 1
1 414
1 638
1 1135
1 1705
1046 1
1 1588
1 1919
320 1
579 1
1 1149
1 1870
1 1032
1687 1
1 775
1 1430
1 522
1 439
1 684
954 1
455 1
1389 1
1 334
1792 1
329 1
466 1
1011 1
895 1
562 1
1 223
1 475
181 1
1 902
1 861
1175 1
1859 1
857 1
1 287
134 1
1 1344
1 368
451 1
1 933
780 1
1384 1
157 1
1 1953
1 1308
113 1
1 1230
1577 1
1 1049
1 1720
1 1044
31 1
1750 1
948 1
1 14
687 1
1 426
1 612
1 905
1476 1
1 1516
584 1
1 127
1 1893
1 1169
119 1
285 1
1 1512
1 1591
1 1946
458 1
1 1541
1 1971
1608 1
486 1
1432 1
194 1
1 1241
1 364
1 1398
1688 1
1 1847
60 1
1 1371
1 25
1 335
958 1
1 1575
823 1
1124 1
1314 1
1617 1
1 51
1 571
339 1
1 104
736 1
926 1
1 1794
1 1751
99 1
1967 1
1 87
890 1
1 502
667 1
1 1158
1 1905
788 1
1443 1
1 880
1 1221
1620 1
1095 1
1 1526
1 1403
1799 1
1 688
1345 1
1 1155
1 1416
389 1
102 1
1 487
1 1502
1 1514
1 815
1 248
1 1272
1 495
1644 1
1 1916
1 1664
1160 1
1 1693
391 1
1814 1
1855 1
1900 1
349 1
488 1
542 1
846 1
376 1
1722 1
1 998
1 673
55 1
564 1
381 1
1 66
733 1
645 1
530 1
650 1
1 1436
415 1
342 1
1034 1
501 1
1483 1
172 1
1621 1
1 1797
816 1
1259 1
1 1939
1945 1
1934 1
1 839
1 1869
1 894
1 973
1 1472
1642 1
1254 1
82 1
1 1595
402 1
1856 1
1 581
1 598
1 1111
1192 1
1103 1
1 507
596 1
743 1
1468 1
370 1
1 663
1117 1
1676 1
1 50
379 1
1 144
1 1059
945 1
1 1912
1 292
1586 1
1938 1
1 951
1184 1
778 1
1 1552
1 573
1 1096
1 1534
1 994
1 479
95 1
1 1204
1 777
591 1
1 854
1 159
928 1
1 1506
1025 1
1 356
559 1
1 1329
1421 1
616 1
1426 1
1963 1
1 217
1 1788
1948 1
1 498
1456 1
1 1109
865 1
1453 1
1519 1
1 1281
282 1
1 1340
867 1
1 1307
1631 1
443 1
1 5
352 1
1513 1
636 1
1779 1
492 1
611 1
1005 1
1 953
1 1597
1 686
568 1
1 680
1 1890
641 1
722 1
247 1
1 1647
1769 1
1 88
1653 1
1 566
1495 1
1 1209
1872 1
434 1
1433 1
1 2
1574 1
1065 1
647 1
1 1283
417 1
1116 1
1928 1
1 956
1 698
1497 1
545 1
1134 1
346 1
1027 1
326 1
1 1651
1 972
1 343
1 940
1546 1
1584 1
1 1603
1 1910
509 1
1 332
1 529
1328 1
1 1076
1 1014
81 1
1 1629
1 748
167 1
1 1409
1 1244
1 741
840 1
1604 1
1128 1
971 1
1 1627
1550 1
1 1164
822 1
1 727
1 105
1 1280
1880 1
1 1504
258 1
1 1489
261 1
1817 1
693 1
327 1
1 128
1 508
1854 1
1 156
64 1
725 1
1 1152
1 1174
1406 1
1 1016
1 107
1470 1
1 862
661 1
1355 1
1054 1
1 637
1 1460
1 1611
1 421
360 1
567 1
412 1
204 1
795 1
1 1931
1376 1
1 1830
1842 1
1385 1
447 1
1 752
1 1397
1 124
1144 1
1 321
1269 1
467 1
1 1075
1365 1
1 1892
1058 1
1 660
1 934
1 851
1 626
1264 1
1 1865
539 1
1 779
729 1
1 1619
1565 1
1881 1
1 201
1 38
1 792
1 739
1956 1
1 1528
1 1807
1 1318
1 1658
1 1043
42 1
1 460
1 1141
1818 1
1 1820
1055 1
1 77
1017 1
1879 1
1529 1
1 550
1492 1
1 761
89 1
1 919
1829 1
1726 1
1 1918
1354 1
1 732
1665 1
1410 1
1 301
1223 1
1 963
1 4
1 101
720 1
1068 1
1 664
1903 1
1 1122
910 1
1730 1
1 1841
1477 1
1 1487
908 1
1 49
1 1429
1 311
137 1
254 1
1 423
1 97
450 1
758 1
1 1094
1 337
1 1197
1391 1
1087 1
1351 1
1 1851
1368 1
1 1262
1 931
1 328
1670 1
1 580
1163 1
1864 1
1 256
1 1067
1 1652
232 1
1107 1
1 295
607 1
1 879
574 1
551 1
273 1
220 1
797 1
981 1
1564 1
435 1
374 1
1 1573
927 1
1 33
1767 1
1 1268
1 1819
184 1
1190 1
1 169
1 656
1 293
1 1761
1475 1
1278 1
1 429
1 394
1 1010
1 468
1 94
1911 1
1 314
1256 1
1877 1
276 1
1 988
599 1
428 1
1 540
1 1276
1843 1
1 369
1 1752
1 1601
1 226
1 1115
970 1
1 979
950 1
1866 1
1 1493
1719 1
597 1
1089 1
1 1311
1326 1
1 1375
1715 1
1 122
1 1188
1 980
1 199
1 800
1 18
704 1
1862 1
1186 1
1640 1
1198 1
211 1
1 1461
1 171
1 582
1957 1
615 1
1349 1
1 1325
1 677
1605 1
1852 1
35 1
1 1844
1 1195
1438 1
623 1
1 153
1535 1
1 549
1 959
1008 1
1674 1
1 1634
1 109
1669 1
983 1
1 1138
252 1
1101 1
1 1691
1 847
1 1251
207 1
672 1
629 1
964 1
1 511
1 1661
1471 1
1 1684
1 1746
187 1
1 399
1 1759
1 397
577 1
1 1724
1 889
483 1
1815 1
1643 1
922 1
1 1798
1 1343
1189 1
355 1
284 1
419 1
1 1437
1 15
1 1698
1413 1
1 891
1 1632
1 1447
1 312
1 1602
16 1
1 646
1 1942
1 701
1393 1
1 666
1 826
1 1806
1179 1
1965 1
1 383
1 1081
987 1
1 165
392 1
1 1689
1 1287
1 1521
678 1
1 1015
1270 1
155 1
721 1
856 1
1924 1
875 1
1136 1
338 1
1002 1
553 1
1 280
1 753
1449 1
1 711
750 1
1 404
782 1
1 263
617 1
1 1500
1 1871
1092 1
1 1525
1090 1
1024 1
1 896
424 1
1 1571
1 1182
1142 1
1968 1
1 912
1 1338
1 1837
221 1
1589 1
1 710
1 1099
1 1959
1660 1
1 22
1 446
1037 1
941 1
1482 1
1 1341
1889 1
1 366
1 1672
1147 1
1271 1
1 614
1507 1
162 1
1 644
639 1
1499 1
1 224
1 131
1950 1
1 1785
1 1383
1260 1
1520 1
1805 1
1 164
1336 1
48 1
901 1
1832 1
1172 1
1780 1
1 817
1 93
1464 1
1 413
353 1
1 643
1023 1
457 1
1412 1
1 1966
1 836
932 1
1203 1
1132 1
1677 1
1610 1
1 39
1 1292
1 444
1 1373
1 1451
1408 1
1 1202
1098 1
193 1
1467 1
72 1
1 260
1199 1
1 1638
1 305
1791 1
1 1789
1448 1
1077 1
1048 1
859 1
1 324
1 179
510 1
1766 1
297 1
1 997
1704 1
1350 1
921 1
291 1
525 1
1208 1
1 1490
1708 1
152 1
1 1323
1105 1
538 1
1 69
1891 1
767 1
385 1
1 946
1 24
848 1
1826 1
1 1897
1289 1
1 683
1 819
1673 1
1 1052
881 1
1245 1
1045 1
1 1827
452 1
985 1
1 1171
1 715
1650 1
1 1445
1 1833
1 1060
1 918
1 631
1 754
1486 1
1 1396
1 1822
1 1029
1 1479
1 208
1038 1
1 546
1 630
1459 1
1 1735
1 1727
1896 1
1 1731
1091 1
57 1
877 1
1 1904
1 262
1 1917
1 578
310 1
957 1
215 1
1 1760
1 283
1 1442
1 1423
1 1561
47 1
1592 1
408 1
1 1246
1 62
1 962
1 1593
1 1743
1 658
1624 1
1220 1
1 1162
589 1
535 1
1 519
1 1846
1 1962
1 1069
170 1
1 1211
694 1
1 1756
734 1
1386 1
1 1774
345 1
1 974
1551 1
1282 1
145 1
1428 1
1 1327
1 1858
1 532
1718 1
735 1
1 410
1 1012
1 1274
1712 1
1 659
1873 1
1 1035
34 1
1193 1
1404 1
1 103
1 1576
871 1
1 206
1548 1
1 1212
1381 1
1 583
1 613
1435 1
870 1
1157 1
1018 1
318 1
1738 1
185 1
1249 1
1243 1
1 1159
1659 1
1828 1
1 837
924 1
916 1
547 1
234 1
1781 1
982 1
1 831
569 1
1 317
1 1299
240 1
1 1232
1 307
642 1
1 961
1 771
1465 1
651 1
699 1
1 233
899 1
1503 1
763 1
1 556
90 1
1021 1
1 6
521 1
1073 1
565 1
85 1
603 1
619 1
1 1310
1 176
1237 1
1 1810
618 1
1215 1
1302 1
1 572
1 43
340 1
793 1
1 1036
1 1874
1 543
1 935
1374 1
1233 1
1 130
1839 1
1 1377
1 716
1 1228
485 1
936 1
1 1558
1 463
1 175
1929 1
1033 1
774 1
1549 1
1 1655
21 1
401 1
1 1563
1 123
512 1
1 813
1 1861
744 1
1 1944
1 1446
920 1
277 1
1955 1
1 745
1319 1
1 1187
1 809
675 1
1 382
1286 1
395 1
344 1
1679 1
1004 1
1909 1
1 294
552 1
1 84
1 1478
36 1
505 1
387 1
1 1518
490 1
250 1
195 1
903 1
1570 1
1 791
937 1
1 416
1 1553
1337 1
1154 1
640 1
1951 1
1 676
1258 1
1894 1
464 1
1747 1
533 1
304 1
1 1728
1277 1
1 602
1 818
610 1
1709 1
1 1422
1 860
1 1235
1 110
1560 1
20 1
762 1
1207 1
1057 1
1 1156
883 1
1 1218
1 772
898 1
1 1294
264 1
1940 1
1559 1
1388 1
331 1
442 1
336 1
965 1
289 1
1913 1
1339 1
1 493
1 354
477 1
1 1419
1 494
1 517
41 1
942 1
1970 1
1 499
1932 1
218 1
1 863
1612 1
1 1450
1 1226
759 1
1 1675
1 180
1378 1
1 1312
363 1
930 1
1823 1
373 1
825 1
298 1
30 1
1 245
1 1170
1 524
1 1137
1 437
1 422
887 1
1 943
1321 1
1701 1
1 1697
873 1
695 1
1 1510
1 878
1 653
1831 1
1480 1
142 1
1 1146
1 213
1 1364
1250 1
829 1
418 1
786 1
465 1
1663 1
398 1
1 1614
1671 1
1 1723
654 1
977 1
765 1
1108 1
1885 1
1 671
692 1
608 1
1 86
278 1
1 1405
1 1129
947 1
1 390
1790 1
1 1194
1 1692
1 801
1973 1
1 724
790 1
1 238
1 1417
1082 1
1 1366
1699 1
1721 1
1358 1
1304 1
1 766
425 1
554 1
1 303
1 1562
1097 1
1 1330
1 1876
1 108
1093 1
255 1
70 1
827 1
1 828
265 1
590 1
1 114
1838 1
1 1114
1 1707
1 821
884 1
1 1531
400 1
560 1
1936 1
1523 1
1 1853
1 1173
1802 1
1 1168
1714 1
1 717
805 1
1 1713
1 697
118 1
1 112
1 1943
696 1
1 1219
1 1517
1053 1
1 1206
1 541
1 1392
702 1
1 768
1793 1
1 705
1 1816
1736 1
229 1
1867 1
1085 1
411 1
1191 1
1 91
1 892
1 1000
405 1
1 1463
1 1777
1922 1
904 1
1 707
1411 1
1 690
1185 1
1 1557
1118 1
1 500
1544 1
120 1
620 1
1 116
357 1
1 806
1225 1
1509 1
1594 1
480 1
7 1
1031 1
1 812
1758 1
319 1
1 1606
1 178
1 1040
1 909
1941 1
1 712
1 1431
459 1
1242 1
44 1
323 1
393 1
1 1811
1848 1
1803 1
1491 1
1 1755
1 674
1 1466
882 1
272 1
384 1
1 1001
1 1821
852 1
1702 1
1678 1
1 1530
1 1754
1706 1
1113 1
1261 1
149 1
1213 1
1 1290
1 315
1 1888
1 1227
1007 1
1 1240
1 1539
798 1
1 1915
1295 1
1 445
1 79
1 288
1958 1
27 1
1 1196
1 1140
1 286
1120 1
1 1356
1402 1
1 1501
1 1860
1 1291
1920 1
1372 1
1 585
886 1
1 1248
1 518
1 504
1 1420
1 1863
1 40
1 469
1 1309
850 1
1288 1
449 1
1 92
1699 42 2
1323 1
1 1253
1 1346
1 1512
1 1632
318 1
949 1
244 1
65 1
205 1
522 1
696 1
1 486
481 1
1 1646
1 252
23 1
1 856
1 993
1060 1
666 1
1387 1
1573 1
1 239
820 1
1 784
899 1
1 1667
1 1605
280 1
1 435
1 323
1 1309
1 218
291 1
1 917
1 603
1 387
1680 1
1 1229
74 1
201 1
1067 1
1 1164
1345 1
1 573
1 464
1 745
1 1316
1 448
535 1
1 1527
1 721
1 1348
1 89
1 1086
128 1
1 936
1349 1
1 858
750 1
158 1
616 1
1 426
1367 1
1529 1
35 1
1444 1
1 957
48 1
1 1480
1 63
1 275
446 1
1079 1
797 1
1 1303
395 1
960 1
1288 1
683 1
1334 1
530 1
499 1
1 644
1153 1
566 1
1030 1
1 176
1 1520
1 1195
1 970
1186 1
1 791
1 174
1 825
1 1062
187 1
680 1
1 1404
1 1385
411 1
930 1
1 1564
1 1375
1327 1
1 1441
1 563
1440 1
1219 1
542 1
1 795
3 2
1009 1
1011 1
1 855
115 1
1 1013
1 976
15 1
1 658
952 1
1 1044
1 1604
1594 1
590 1
1 184
1 60
1 773
243 1
1 876
1 726
515 1
1483 1
1 864
1 299
541 1
466 1
456 1
1559 1
1 1154
1 1220
1 1107
1 520
1 953
493 1
1266 1
1 1687
84 1
249 1
553 1
594 1
1 322
1 1116
1 190
214 1
101 1
824 1
36 1
1 1124
1 1447
1 1617
1626 1
1 1286
1101 1
832 1
1 1126
1 1579
1 261
1150 1
1 1513
997 1
1 1249
1192 1
1 1307
1 1487
1469 1
1 615
1 146
626 1
725 1
375 1
1 1033
144 1
1 1248
1 1699
1 83
1 438
1 1051
1 393
1 1570
845 1
1 1167
1584 1
1 1080
64 1
1183 1
1 1619
984 1
248 1
1 1482
1 1539
1 565
316 1
1 1434
1 1672
1 1361
1 1291
472 1
1 209
1 671
630 1
1021 1
1 1689
1 1549
1127 1
1 1647
1 1001
317 1
1 167
1059 1
1649 1
1 904
1 1627
1 868
421 1
1 1635
478 1
1 5
81 1
1 1115
1341 1
1508 1
510 1
998 1
1 39
1211 1
1 513
1 874
412 1
1 558
1 160
1 1665
912 1
1 1085
140 1
59 1
741 1
1625 1
1 1177
1 1212
1493 1
1 1567
298 1
1 1338
1 983
1 727
1 1686
310 1
850 1
1 97
1 1331
417 1
1048 1
1396 1
492 1
253 1
258 1
1 841
1 268
374 1
13 1
124 1
1 1474
1 445
1155 1
172 1
1297 1
1 1337
256 1
701 1
1 155
1074 1
1 1330
414 1
1 206
1 123
1583 1
1 950
484 1
834 1
497 1
736 1
118 1
284 1
1 1252
512 1
449 1
1 1257
1 831
288 1
1302 1
1 49
1 1393
1 1132
1 718
1 359
1 1138
1389 1
767 1
642 1
1 1162
1 1326
995 1
1 1169
1 34
1 611
1 407
1329 1
1 281
1433 1
1 302
1 415
1 1087
1 661
1 1180
282 1
639 1
1 195
1 1050
1084 1
1 551
1 1628
389 1
1 1328
1 608
1 1623
1 1036
1443 1
1 1143
717 1
1 355
677 1
285 1
684 1
1 1233
540 1
240 1
1152 1
1 1692
1 455
52 1
366 1
1 1383
1 1550
1 529
342 1
1 985
1499 1
693 1
1 781
1 659
1 996
1 536
1306 1
729 1
1534 1
1 1313
634 1
1 778
436 1
1 982
1 1666
1141 1
1 602
1343 1
1 1607
1 1274
1146 1
1 788
782 1
1 1659
1 1668
1 1057
461 1
895 1
1 556
1362 1
764 1
1 932
1376 1
1401 1
1 962
969 1
430 1
257 1
468 1
882 1
1092 1
1 126
1256 1
769 1
1 31
1 1372
1 8
1 1377
669 1
1 902
1 245
131 1
1500 1
1 53
250 1
1 1420
1 1629
1311 1
1 416
1114 1
1 277
1 379
1 26
1634 1
1201 1
1 313
274 1
1 165
1 1581
1 21
1 719
1 607
836 1
1 592
689 1
665 1
1571 1
1 852
1 188
1 1241
434 1
1 999
1 1029
926 1
1 1098
937 1
1008 1
1 1588
990 1
548 1
1 1203
1 1514
1 968
138 1
987 1
866 1
1 265
1 305
1 720
1 1322
1 37
1669 1
1102 1
668 1
1 812
1181 1
1378 1
1 388
1325 1
1096 1
822 1
972 1
1685 1
1 992
235 1
1 1058
1 1332
212 1
1696 1
14 1
1 149
1 775
1 1542
1593 1
1 29
1 221
1 640
1 879
127 1
1561 1
1 1449
1172 1
1 413
333 1
1 1460
1 116
1 954
120 1
1 50
1278 1
424 1
1 1538
1 811
1 1381
67 1
336 1
1511 1
1 1587
827 1
1 273
1 1197
1 385
1 1160
1 679
1 1495
1424 1
137 1
1 79
1 731
309 1
948 1
1 1139
1616 1
1 672
1 68
207 1
1459 1
1 1235
1 1117
1518 1
1 994
1536 1
1 1563
289 1
1040 1
1 851
1 1368
1 848
1427 1
241 1
1035 1
774 1
161 1
1091 1
1 617
1 1402
1578 1
877 1
1 1280
1 266
1 1176
1047 1
753 1
1 1206
1 924
1 958
1 1642
1464 1
1521 1
1 1621
859 1
1 1300
1 663
428 1
1 351
353 1
1179 1
1 1429
765 1
1 76
1 1112
1317 1
1 754
501 1
1193 1
752 1
1658 1
1 919
559 1
1002 1
1 293
1161 1
324 1
28 1
1 491
1354 1
77 1
1 380
1694 1
1 308
1 1505
1 1189
1386 1
1 653
1 33
1 1158
1 340
1 1063
956 1
1 287
1 1525
219 1
189 1
66 1
1 591
1 297
1 1681
1 873
1357 1
1 85
1 1535
1 200
1 1366
524 1
262 1
1279 1
576 1
1321 1
254 1
1 352
1 1364
1 437
1 107
1 758
748 1
1610 1
1697 1
1 1273
1 41
1006 1
1105 1
1453 1
1224 1
1 1128
1299 1
813 1
1 889
585 1
571 1
664 1
1 945
1 622
475 1
1295 1
1118 1
487 1
135 1
502 1
139 1
1540 1
1 738
674 1
1304 1
810 1
150 1
186 1
1188 1
1 154
1651 1
1577 1
367 1
1 164
1 1438
394 1
327 1
1 99
1 1131
525 1
1 779
1 807
1 944
1245 1
516 1
1037 1
398 1
231 1
1 849
1612 1
1 1281
373 1
1 1289
1504 1
1439 1
1397 1
1202 1
337 1
1664 1
925 1
1 667
1 887
1 532
581 1
593 1
1 1344
1 584
1099 1
391 1
1 1399
1298 1
1 494
1 125
1081 1
723 1
1 1275
1276 1
1 641
332 1
1 162
1653 1
1 1380
1 1673
1 790
1 1371
1 454
1606 1
1 1398
706 1
546 1
1485 1
1095 1
425 1
22 1
1 1522
1 920
1175 1
170 1
1 537
1 110
1 314
1214 1
1 1228
1 1608
368 1
579 1
1 1586
106 1
1609 1
1 453
814 1
1 711
237 1
1 625
1 325
1 1590
1 1552
1422 1
705 1
173 1
1 837
1 1218
1351 1
1267 1
255 1
1 47
1 223
202 1
1 220
1524 1
1455 1
1 82
1293 1
1089 1
134 1
1 73
673 1
1 1370
1 692
1 400
1477 1
1 1012
1 1445
199 1
1043 1
1 328
1 934
1 1292
263 1
1 334
45 1
1 897
794 1
1090 1
735 1
246 1
1592 1
1630 1
1 730
1032 1
1484 1
1 1145
1 1596
1247 1
1 1209
1 1405
1 1070
817 1
1 386
1 42
1 360
1 507
1491 1
192 1
789 1
660 1
1 381
476 1
1 4
1 829
635 1
1 517
1454 1
1 1410
1347 1
1 796
329 1
1 46
1414 1
966 1
228 1
1097 1
1 951
1010 1
1173 1
1094 1
1 910
1 1234
1 1582
1356 1
1022 1
1239 1
1468 1
799 1
1 452
1318 1
1 1039
1 1392
1 495
1 503
1 259
771 1
423 1
1148 1
1 628
1 169
1 1358
1 403
1 1637
1 707
1 657
442 1
1 1208
1 1019
1 1174
1 1382
10 1
504 1
143 1
892 1
1657 1
1 599
1 557
740 1
1 1458
1 620
1 1187
226 1
1 905
1400 1
1042 1
319 1
1231 1
338 1
1 1287
1 390
891 1
1 839
87 1
1 444
801 1
1 440
863 1
1 624
1 166
408 1
1551 1
498 1
1290 1
1 1506
700 1
1442 1
586 1
1 648
1 772
1437 1
1 362
898 1
787 1
1 145
1 300
1 378
1 1435
1 203
885 1
171 1
1 974
1 163
1 1282
1 986
371 1
780 1
204 1
1 939
1259 1
1 1412
1106 1
102 1
1 880
1103 1
1580 1
470 1
1 759
1 888
1633 1
104 1
612 1
1 1600
959 1
1 1643
1 1007
931 1
1 819
549 1
1 488
489 1
1314 1
1 1352
681 1
1 86
1 1654
1462 1
509 1
406 1
1 1242
1236 1
1556 1
1 627
1 1335
1 564
1 1064
1360 1
1 637
1 103
1470 1
251 1
1 886
1 1501
392 1
519 1
142 1
1016 1
1448 1
1240 1
1 1269
1 1109
1221 1
878 1
802 1
1 465
215 1
1320 1
916 1
1 570
194 1
1 1655
1 973
111 1
1 93
1 40
1066 1
1 6
1675 1
330 1
1 1190
1 474
1 290
183 1
1 469
1496 1
1 1566
1 694
1502 1
1 78
1 441
1 1591
1216 1
1418 1
1004 1
1 619
2 1
1 1355
1 270
1119 1
1 1388
1 1049
1 382
397 1
1 1490
854 1
1 1509
1624 1
1 1260
1391 1
1 806
1072 1
1 320
1 1537
786 1
1 485
1 224
1 229
596 1
1 238
1411 1
1093 1
1 1243
1 762
1 364
1 301
809 1
1636 1
1 818
1 230
432 1
560 1
1230 1
1 1446
450 1
1 62
1134 1
1340 1
1184 1
1 500
1 1237
1373 1
1 979
1638 1
1 691
505 1
1 847
1365 1
458 1
1 793
1 732
1 777
1 1151
477 1
1 1565
1038 1
1 462
1517 1
676 1
631 1
1395 1
1 1415
1 233
1 100
1213 1
1 1519
1688 1
1054 1
826 1
1575 1
222 1
1263 1
91 1
783 1
479 1
1 1379
1 815
1 1555
1 339
210 1
651 1
1 1432
1 737
1528 1
1384 1
1 1046
1 1082
1 1471
1 821
1 1507
1 1076
1 1120
1 928
1 1526
383 1
1 604
1088 1
830 1
341 1
1 418
1 132
1641 1
1205 1
589 1
1 1553
744 1
1 363
1461 1
554 1
1426 1
1682 1
1 846
714 1
1 108
1674 1
1258 1
1 1479
601 1
890 1
1 179
1 844
1 1255
1 588
286 1
1558 1
1645 1
260 1
217 1
1225 1
1 32
1601 1
278 1
1272 1
1065 1
1 574
1 1023
1 1533
1 808
1 377
1156 1
1 961
1 938
1 728
1 1077
1677 1
75 1
1 702
989 1
1 763
1200 1
1 915
1 315
70 1
1569 1
7 1
929 1
1497 1
1 482
1170 1
1 901
1 803
1 1676
1644 1
181 1
1 1301
1024 1
1 1104
1 538
1 156
1 191
1660 1
1000 1
1466 1
1 1465
54 1
1670 1
1 1585
1554 1
1693 1
1 1283
1 1025
587 1
1 225
1 1450
1 670
242 1
1 1069
1408 1
1 1052
1 739
1 1656
1572 1
1041 1
1 422
1488 1
1 1014
1 1515
1516 1
1 1451
1 1698
1207 1
96 1
1 704
884 1
349 1
1416 1
1544 1
1 965
1 95
1 1068
1 331
1 69
1 724
1 1149
1 623
193 1
19 1
1137 1
3 1
16 1
881 1
1 914
307 1
1 9
828 1
1 911
1 687
1 1452
1227 1
1 988
1 695
1251 1
1 1545
1100 1
1 1639
43 1
1 633
1142 1
1620 1
716 1
698 1
153 1
1 1324
1 1486
1 58
1 598
311 1
1294 1
1 1196
1271 1
463 1
1 1111
1467 1
523 1
1652 1
1 419
518 1
1 51
1 862
1 1027
1 605
1 457
196 1
526 1
1 1018
1 1265
1 713
842 1
1 1217
1359 1
1 746
1 409
1 1546
1 1342
1 1394
1 1671
306 1
1 1403
490 1
682 1
1 312
927 1
1 1622
1 971
835 1
1475 1
1 1171
1 562
1 543
567 1
1268 1
1 1308
1 955
1223 1
180 1
1 688
1 1678
1 264
1 213
1 1419
1 133
1 722
865 1
1 1254
1 1264
1 1194
1 151
1 1423
1 1123
402 1
1020 1
1 1017
1165 1
1 800
1 662
600 1
1 940
1 335
755 1
1406 1
792 1
1 1130
1 121
112 1
1 57
185 1
1 1250
1296 1
776 1
1 269
1683 1
1547 1
1 1457
1 645
1 743
1121 1
761 1
1 119
1 583
1 1178
483 1
655 1
396 1
1 632
1 896
697 1
768 1
577 1
1333 1
1 234
1350 1
471 1
1648 1
1 272
1 1262
1261 1
1 613
1 92
1 321
1 232
105 1
1 946
1 1662
1 1191
1 918
1 685
427 1
1690 1
372 1
715 1
88 1
1 292
1611 1
326 1
1 621
1 514
1 1390
766 1
1232 1
1028 1
1 875
760 1
871 1
1222 1
61 1
1 1133
1 1523
1 25
433 1
580 1
357 1
1 643
1168 1
157 1
1 399
1595 1
569 1
1108 1
1 90
1 511
1339 1
136 1
1 1476
1 568
1 1503
1 975
872 1
1 480
840 1
1 678
1 943
1 747
1 370
1277 1
860 1
1 1421
1 1159
1 1510
1 44
1 1336
1 636
1478 1
909 1
1 279
967 1
80 1
236 1
1 947
1 991
1 1599
1 94
30 1
1 1663
404 1
508 1
652 1
1409 1
1226 1
1 175
1 823
1 1026
208 1
1 72
1 451
1 496
1 646
1532 1
1 595
1312 1
1 533
870 1
1 629
1 610
1353 1
1 1005
1 113
1 178
751 1
1661 1
1 1310
1 654
1 227
1 460
1078 1
1199 1
963 1
1034 1
539 1
638 1
129 1
1 857
1498 1
1244 1
1 1530
1613 1
650 1
894 1
1 1135
1 1541
1 805
1 578
1 147
1 942
384 1
197 1
1 354
1 182
346 1
1056 1
521 1
122 1
1 20
545 1
283 1
1 656
1 712
1 869
1 1431
114 1
1 703
1182 1
1 358
1456 1
1 1557
1 211
923 1
38 1
1614 1
1 609
1 649
770 1
1543 1
1 550
1 1075
1 816
906 1
1031 1
1 614
978 1
1 365
1 1560
1 71
1 708
152 1
1425 1
575 1
1 675
1163 1
1 17
1 295
1640 1
1 528
1246 1
1650 1
1 347
1473 1
117 1
1 908
1 618
1 343
1472 1
1631 1
1 907
597 1
1 1407
1 18
1 109
1 130
742 1
1430 1
1 148
1 216
1 1319
1 534
1 935
56 1
1140 1
1 883
159 1
1 531
1 1589
304 1
843 1
1 1113
1 376
1 941
447 1
1 1413
527 1
785 1
734 1
710 1
1 1684
977 1
1374 1
1531 1
1166 1
1 1073
853 1
756 1
429 1
838 1
1 1305
1 1548
1 1494
271 1
55 1
798 1
1492 1
1 555
1 168
1463 1
980 1
1270 1
11 1
1 1568
1 1215
1 733
1 443
933 1
1 1695
1 1598
1 1576
900 1
1 506
1 1157
177 1
1 356
867 1
1 344
1 903
1 757
1 1071
893 1
431 1
699 1
198 1
1 686
1 303
1489 1
1618 1
1 922
1 296
1238 1
1 401
1 345
1363 1
709 1
1 1083
1 294
1 267
1 1481
1 1602
1 1045
459 1
1315 1
348 1
833 1
1 1417
1144 1
1284 1
1 913
1 1125
1185 1
1615 1
1 1597
1 1015
582 1
1 1574
1110 1
1562 1
1 690
1285 1
921 1
1 1003
1 804
1 1136
439 1
1 1436
1 405
98 1
1 27
1428 1
1 467
1053 1
561 1
1369 1
410 1
141 1
1 547
1 981
1122 1
1 369
1 420
1 1198
1603 1
1 544
350 1
552 1
361 1
247 1
1 24
1 473
1 606
1204 1
1 1210
1 749
1 1129
1 647
1 1691
1 276
1055 1
1 12
1 861
1679 1
1061 1
1 572
1 1147
964 1
1784 231 3
406 1
754 1
1 1458
1050 1
1 1171
1 1169
1774 1
1 195
1 871
1 1069
1306 1
1 738
1 832
963 1
1 1178
1 970
194 1
1459 1
1749 1
1745 1
1359 1
525 1
1 1390
1 81
27 1
187 1
1 538
1 916
1618 1
1 58
840 1
1 259
1646 1
1660 1
1 285
1312 1
1779 1
1 999
1396 1
803 1
224 1
1295 1
537 1
1 1130
1 1055
1 436
182 1
393 1
1 1598
1248 1
420 1
1 1093
1 1400
1 1210
1 1435
303 1
1753 1
496 1
1 1380
1 95
974 1
1004 1
1 486
1 299
1 1101
138 1
1 1257
505 1
817 1
1 1054
1 1079
113 1
1573 1
1 958
1124 1
1 580
1022 1
724 1
301 1
920 1
1233 1
1 1155
641 1
1 1553
1 907
1 25
1 1103
1 1111
1591 1
1607 1
622 1
1 190
1 1430
1506 1
1 1160
893 1
1 1406
653 1
1 91
698 1
86 1
886 1
1538 1
660 1
362 1
1 1342
220 1
188 1
479 1
1 1239
186 1
1 1565
246 1
1 835
1 1656
1127 1
554 1
1 454
723 1
269 1
1 943
1 244
274 1
1 868
1 838
1 707
1337 1
1 1250
1512 1
1 1621
1 1204
905 1
1 869
1 919
1 165
1 239
305 1
1 1222
1 1423
1 1057
1 812
1338 1
1 646
899 1
588 1
1698 1
1 1156
1 1677
1 417
451 1
232 1
1781 1
1409 1
1 861
1 976
1 455
1 1490
1348 1
1 1245
1 823
1 1379
1 1339
922 1
1739 1
82 1
1 1366
1030 1
1 1545
634 1
355 1
1472 1
1 206
1 1737
1 428
639 1
1200 1
1499 1
1 982
1 124
1 887
1 1634
1 465
288 1
1 1087
1 839
1 1278
1 101
129 1
1 628
1637 1
1473 1
1 882
145 1
242 1
1 51
1 1693
775 1
955 1
1136 1
1105 1
1 863
1 292
889 1
855 1
1 459
1539 1
1605 1
1142 1
1 384
1 1188
1 499
1125 1
796 1
1 1228
167 1
939 1
858 1
1387 1
1 1714
1 477
1 358
482 1
1 1144
787 1
1 1259
176 1
1764 1
788 1
1 728
413 1
1 1547
93 1
1 1194
1412 1
1 1143
1 600
1643 1
1 5
1 988
1 1470
1288 1
1 248
1 1109
945 1
1783 1
1 1718
378 1
1 1502
1 1064
1212 1
1694 1
356 1
675 1
32 1
1 442
1 1345
1 500
1 1116
1482 1
197 1
1 1106
1 931
1 117
1 1108
297 1
1 1285
17 1
1 772
627 1
1485 1
495 1
373 1
1704 1
1524 1
810 1
1 696
343 1
1747 1
1 1068
566 1
342 1
1 1650
1 925
1 1414
260 1
1 956
211 1
1410 1
1031 1
1255 1
1 460
147 1
1324 1
1 144
1294 1
1 1170
1 19
1 1300
1478 1
357 1
1 1365
1 318
245 1
604 1
122 1
1 102
1 637
1046 1
1 1525
1 953
1471 1
1 1742
1 1016
1 282
60 1
1217 1
1 256
1 804
1 1551
563 1
1102 1
755 1
1 1624
1 529
1070 1
665 1
131 1
415 1
1 1073
1 480
427 1
1 842
1 896
1740 1
1 944
1 1659
1 1708
1 1436
1 678
1 1353
1 1630
125 1
1 645
1 713
1 1577
1277 1
571 1
1 900
1 1308
1 448
930 1
1 1566
1 474
555 1
1 1152
700 1
843 1
1 1281
574 1
716 1
1128 1
1328 1
1052 1
752 1
1 652
1 1157
1042 1
1 521
687 1
1688 1
281 1
1216 1
1 476
1 466
1325 1
1 1599
1 1541
1 966
1053 1
1 34
1 279
1 200
1 1140
758 1
528 1
885 1
1 666
105 1
243 1
1628 1
1 648
636 1
1 405
1 381
37 1
1 1274
1 363
1 1132
1065 1
1 860
1383 1
1333 1
564 1
1 1651
461 1
806 1
1 520
203 1
237 1
1 112
1 398
601 1
1 766
1 174
139 1
1 984
1392 1
822 1
1 784
1 463
606 1
207 1
1 625
1564 1
1 959
18 1
884 1
1479 1
254 1
48 1
84 1
1017 1
1 951
1432 1
1352 1
1 493
674 1
1 1692
352 1
1 214
1 1544
1 940
620 1
1 54
1 473
1 584
196 1
960 1
878 1
1 834
1246 1
1 725
1 1443
1587 1
238 1
1 1662
475 1
1 1369
927 1
1 1748
1684 1
690 1
1 96
1 1003
1 1262
263 1
1 1264
309 1
1 980
1 1173
1 155
1 431
1 964
1 1722
1 1181
1091 1
1 777
26 1
1174 1
938 1
1 732
1 1394
1 1203
1 1699
1 470
1 228
1 410
1 241
608 1
464 1
1 519
1 146
568 1
1648 1
820 1
1731 1
1 1583
1 1117
78 1
1023 1
965 1
234 1
1 1225
1696 1
1465 1
1 468
1107 1
1 231
1 458
1 24
1 364
1571 1
1475 1
1 1743
1767 1
401 1
1 879
1 126
1 932
592 1
630 1
1361 1
1137 1
1 1230
2 3
1 1620
387 1
1 1270
1304 1
1 1763
1 1251
330 1
1 1027
911 1
70 1
1 1555
1 411
875 1
1397 1
1287 1
1 518
1 1021
1355 1
1537 1
1 586
1 1757
492 1
921 1
1 1729
703 1
1 1754
1733 1
1 950
575 1
1343 1
1 1241
1 562
1 354
764 1
1 816
1 542
1 319
1 399
1735 1
1 1529
1425 1
1683 1
1035 1
1 1782
1 1261
1469 1
1 527
895 1
1 794
30 1
1234 1
1 949
10 1
1461 1
21 1
9 1
1 828
314 1
1 385
114 1
1 437
360 1
1 800
526 1
1 552
1 683
1 779
1 1279
1 377
1 99
990 1
1581 1
651 1
1 298
1 325
1 1080
1 692
1 1669
502 1
1428 1
1 1586
1559 1
1 1682
751 1
61 1
1 814
430 1
1 791
1 412
336 1
1 714
1 507
1 435
483 1
1 579
857 1
1302 1
1640 1
1 760
1 1530
1231 1
1 1653
971 1
1 334
1 1104
1 811
1 11
1 395
1600 1
1275 1
1 1687
1403 1
1 425
1496 1
462 1
1 1439
1072 1
1 1220
872 1
1192 1
1761 1
1 1296
258 1
1330 1
928 1
1 799
1 1710
749 1
576 1
1 1440
553 1
1 441
516 1
1 897
1 946
1638 1
1422 1
1 753
162 1
906 1
1 270
1 359
729 1
933 1
1367 1
1 1036
1 501
640 1
1 1486
1 65
348 1
845 1
789 1
531 1
1536 1
1 151
1 1515
1 265
1 1716
1 1514
1 1084
1209 1
1532 1
1507 1
593 1
1 1451
1594 1
1 1384
1585 1
1 693
1 1647
1 208
762 1
1 76
1675 1
1364 1
1 438
1149 1
1 979
1 1249
1 457
1 394
924 1
983 1
533 1
1 40
1 1182
1 1633
1468 1
1145 1
1 655
560 1
1100 1
1497 1
253 1
1 491
1121 1
1 688
1519 1
671 1
1267 1
1 661
1 300
1501 1
1 541
1 865
1771 1
1462 1
1 556
846 1
1 1195
1426 1
1 1460
821 1
1 1115
1 252
658 1
992 1
494 1
320 1
50 1
1 250
770 1
1 152
1523 1
1657 1
780 1
1503 1
1 894
1 1427
1 689
1 722
1 941
1 295
1 20
1613 1
614 1
380 1
1374 1
1700 1
1 418
1078 1
1 161
1 1292
1 1567
1 802
667 1
1 1018
1421 1
1 954
1 1447
1313 1
367 1
1 1438
1 180
1 1253
1744 1
561 1
1 1398
1 230
1 1221
1 801
1645 1
1 321
1 962
1 1043
1 1350
1 80
1 109
1 1568
307 1
1 854
961 1
642 1
1 782
1 1041
1 768
1 1244
1 283
1 1575
1606 1
719 1
1 544
189 1
1 1372
1122 1
329 1
166 1
1 1540
369 1
1673 1
1 419
1751 1
1629 1
1326 1
1 1535
1 14
1 1746
1 748
1654 1
141 1
1 1456
43 1
1 444
1 1039
1 1126
1180 1
1214 1
1 1032
158 1
1 1702
1 349
1154 1
1329 1
1 1569
677 1
1097 1
1402 1
1 610
1 1318
1609 1
633 1
1 829
870 1
1 140
1334 1
1247 1
997 1
1202 1
712 1
1 280
1 236
1 1371
1082 1
276 1
1 323
1494 1
1 1755
1 890
1290 1
1732 1
656 1
1 157
1 530
1 421
1 1619
1 1608
1 1263
1407 1
1446 1
1 891
1 539
1219 1
1197 1
1 763
1652 1
1 1417
851 1
469 1
1319 1
178 1
1131 1
1 1543
1 686
94 1
1 1363
1 35
583 1
1 616
1 824
1719 1
1 975
1 877
1 1453
1 572
1 164
1 1531
240 1
1 42
1 1678
1596 1
1 1572
1717 1
913 1
1 67
1269 1
1265 1
1 621
341 1
1 485
1 389
1 1466
545 1
201 1
1 785
467 1
1 607
1 1185
1 445
1 154
209 1
1557 1
1588 1
1110 1
481 1
1 549
1 578
1071 1
414 1
685 1
453 1
1 1258
1 1024
64 1
1736 1
1 1139
837 1
1 222
1 1368
391 1
1 153
1 452
156 1
1 1153
429 1
1 1305
915 1
1013 1
5 4
1 1563
264 1
1 912
1 663
1 1589
967 1
662 1
1252 1
1224 1
1 1741
506 1
1 515
1 548
577 1
1 727
498 1
1561 1
1 1667
1 1083
191 1
440 1
1 1391
1377 1
1360 1
1 235
989 1
416 1
1 1420
1 978
332 1
1 396
1301 1
1 1331
1 987
881 1
1 205
49 1
1 543
1723 1
331 1
1705 1
917 1
1335 1
1 750
1681 1
1 1734
346 1
1 1603
1 1163
1 104
808 1
45 1
1271 1
705 1
1 333
717 1
69 1
1 902
1 1151
1 1276
1780 1
1189 1
422 1
261 1
1047 1
1 247
97 1
1 134
1 546
1094 1
1 1159
1186 1
635 1
1602 1
819 1
1 210
294 1
570 1
1138 1
797 1
585 1
488 1
736 1
1 973
1 41
1 1454
173 1
587 1
1 1493
409 1
1 1268
1615 1
1 1522
1272 1
1612 1
968 1
1 582
1418 1
1 1381
996 1
1768 1
443 1
1 1133
1 532
522 1
1 559
403 1
278 1
1 1703
1 1558
1 892
89 1
573 1
826 1
1 993
1 743
1 908
293 1
1 726
1433 1
565 1
1 347
1 536
1 1168
1 1770
1 16
510 1
1 472
1 1441
1 179
1 952
400 1
1 57
903 1
594 1
1 815
1 611
1 1477
1011 1
1 647
511 1
534 1
774 1
1 1579
1 1386
273 1
1 38
1286 1
227 1
1 761
407 1
1 183
1727 1
1 192
1 759
1 1404
1 695
994 1
1 447
1 172
1 390
1393 1
1 1198
1 589
1721 1
249 1
225 1
1 756
1655 1
1 681
1179 1
1 6
1 1711
1 1240
1034 1
1533 1
1 1419
1 1388
710 1
1 880
432 1
1090 1
1 1467
119 1
1 33
1 1164
1 721
1 382
1590 1
1 306
923 1
1 1562
1 1574
852 1
741 1
769 1
1680 1
1 1167
1 1617
1 88
1 1161
1527 1
1 1354
1777 1
1191 1
1 374
1 275
680 1
609 1
1 795
1 684
1 937
1516 1
1 1405
1389 1
1 1113
1 404
1 266
1424 1
1 664
1 1211
1 116
1 1776
1 63
1517 1
1176 1
948 1
1676 1
632 1
1 255
1 1060
613 1
1 1322
1349 1
1 47
1 1086
1 272
1 1120
1 848
1 590
1 859
1 439
1196 1
1283 1
1 702
143 1
624 1
1554 1
1 7
1 701
1 72
1 1508
1 1066
773 1
1 68
672 1
92 1
1 934
322 1
1008 1
1 290
1 1685
106 1
344 1
223 1
1 74
1 1158
1 514
1141 1
1 85
778 1
1 1674
1649 1
1492 1
1 1177
1 487
1 171
1 1701
1040 1
1671 1
1284 1
46 1
478 1
1238 1
1 1604
1 1098
1229 1
1 1664
1622 1
1 615
1382 1
1 449
1 28
1 1088
75 1
1639 1
1 149
1172 1
304 1
1 136
626 1
1 311
365 1
1 1707
313 1
1 618
1 597
605 1
1 111
1 1227
942 1
142 1
1484 1
52 1
1 83
1 456
1 338
1 1597
1 1351
1 1548
1 747
1 36
1 547
1002 1
1 375
1 284
1 1237
1528 1
1 853
1 792
1626 1
489 1
1 1148
1500 1
1112 1
1 1282
998 1
1 267
1 1293
1 31
1208 1
1 484
1 694
137 1
1242 1
673 1
73 1
1376 1
1 170
1 1280
1 569
1784 1
1 1044
1429 1
1556 1
1 1347
1 77
1 898
1059 1
1 1014
720 1
1 550
790 1
1 59
1 1332
1750 1
1542 1
1 914
1 198
345 1
1 1009
1 786
1 1254
1 1045
1344 1
1 873
1 1442
783 1
1 127
1 133
540 1
1 1505
1730 1
517 1
1668 1
1218 1
1 103
596 1
1 2
1 1187
1336 1
1627 1
1724 1
368 1
1670 1
1 650
471 1
1165 1
423 1
1 947
1 1074
1199 1
1 668
1487 1
128 1
1048 1
1 742
13 1
1690 1
1 216
1033 1
1166 1
1134 1
1452 1
450 1
1049 1
1 503
629 1
1 29
1642 1
1 433
1005 1
121 1
1614 1
1 735
1 1175
1 972
1 1201
1 1765
1099 1
1321 1
918 1
1299 1
1 1028
1 1762
1 328
408 1
1 1358
1 1356
317 1
831 1
709 1
497 1
1007 1
1096 1
1 1395
1 581
557 1
598 1
130 1
1 1593
1 1644
221 1
1 315
1 1632
1 929
1 335
1 551
1 1266
1 1778
1 638
1289 1
1162 1
1012 1
327 1
1092 1
268 1
1601 1
733 1
1401 1
1 15
619 1
1 813
213 1
1303 1
1 44
1610 1
1713 1
1582 1
1 850
1077 1
1 424
699 1
1297 1
862 1
1691 1
867 1
1570 1
1 1576
1444 1
1223 1
1 935
1317 1
163 1
603 1
1026 1
1 1738
1341 1
1340 1
602 1
12 1
1 1061
1 1480
1193 1
1445 1
1 765
1190 1
1 969
643 1
670 1
1056 1
718 1
1 744
1 1706
1 1658
1 981
71 1
4 3
657 1
212 1
1679 1
1 691
1 1623
1 746
376 1
1 739
353 1
1063 1
1580 1
1 1672
1 836
523 1
1085 1
909 1
1481 1
1320 1
1273 1
798 1
1463 1
110 1
1 1327
1 623
1 825
1 682
1 184
1 1362
386 1
1641 1
1207 1
1 1309
1089 1
1 402
874 1
1 1213
90 1
1 1029
1 883
1 737
1 1550
1 1775
1 740
844 1
1232 1
1483 1
1 1256
1 426
56 1
1 776
1 1135
591 1
1 1076
910 1
1 1416
617 1
1521 1
1 1526
1534 1
1291 1
1759 1
1 150
1 1665
434 1
1 926
1 1560
1399 1
781 1
711 1
1 310
55 1
1 1728
1726 1
649 1
1 107
1 558
1 22
1 1448
1 631
1 1062
1 215
123 1
1 1226
1 659
1 1311
1000 1
177 1
1464 1
1 1725
1 706
1 1123
1 1147
1474 1
1205 1
1 23
1625 1
257 1
866 1
361 1
160 1
1 991
1 1513
1 644
1 1489
366 1
1 370
169 1
1 504
1 818
1 1616
118 1
1 371
1316 1
1772 1
715 1
1 115
1 995
1 833
1 1686
1 1006
1455 1
1081 1
1235 1
809 1
679 1
1 1756
340 1
379 1
1449 1
1 1697
612 1
218 1
1020 1
1666 1
1 567
1 708
1495 1
508 1
1236 1
1 1370
1 1661
1 936
1 120
1 296
1015 1
1 1025
1 1709
132 1
807 1
849 1
193 1
1631 1
1 233
316 1
1 217
1 490
1 512
1 1760
1 771
1 1146
1 1375
337 1
1 524
1 351
1 901
1346 1
1 1712
599 1
1058 1
1315 1
388 1
148 1
1 1357
1 1019
676 1
108 1
734 1
1663 1
1 202
1038 1
1 204
1 219
1 1411
1769 1
841 1
1323 1
697 1
1385 1
1413 1
66 1
181 1
1001 1
53 1
1 350
1635 1
1 1373
704 1
1 339
1051 1
1 98
1 595
1 1408
175 1
1578 1
1 372
1 957
1 876
287 1
1592 1
1 324
1067 1
1 1434
1 1715
1 1584
1 312
1 286
1 1546
1520 1
1 1129
1 1509
1 1075
1 168
1 1752
509 1
1476 1
1037 1
62 1
856 1
1498 1
1 79
864 1
1437 1
1 1491
1 1510
289 1
1595 1
1 730
1511 1
1298 1
1 326
1183 1
1 513
1 1552
251 1
1 1689
1 135
1 262
291 1
1431 1
1549 1
1 731
1 1314
888 1
805 1
1 1457
1 1206
1 159
1 8
1 1310
1 1415
1488 1
1 793
847 1
1 1150
1 1260
1 767
1 1773
1 1307
1 1518
1114 1
1 277
226 1
827 1
1504 1
830 1
1 1611
977 1
745 1
669 1
1 986
1695 1
1 39
1 87
1 302
1 1720
1184 1
1 446
1 199
1 100
1 1766
985 1
1 654
383 1
1010 1
1 1378
535 1
1758 1
1 229
1 271
392 1
1 308
1 1095
1 1450
904 1
1 1118
1 1119
1215 1
1 757
1 185
1636 1
1 397
1 1243
1615 1536 4
168 1
355 1
1 274
1 446
247 1
75 1
1 1154
1 1211
1 1101
365 1
683 1
1 454
379 1
1 1353
1 543
1 1405
753 1
452 1
1 1033
515 1
60 1
1 91
747 1
1425 1
859 1
1 451
1 801
1 1608
1055 1
1 208
1 410
1 1065
1 653
1 143
1 1489
1266 1
1 421
1 37
427 1
1 984
1 518
1 1418
5 6
717 1
561 1
1096 1
217 1
1 1252
1365 1
1 126
1 376
490 1
1 1094
1 1559
1 1359
1 1290
578 1
1 826
1 866
158 1
1 624
1004 1
214 1
1 912
1 53
1 146
1 1289
1 366
1 1577
1292 1
594 1
1 1464
1066 1
1 1163
1 567
1478 1
1 197
264 1
1588 1
347 1
1 248
1 467
1409 1
1 1260
1 734
1293 1
630 1
1 278
882 1
626 1
1 1403
695 1
1 211
307 1
1 601
690 1
941 1
1 976
1 687
360 1
1 617
344 1
1 1151
218 1
29 1
1609 1
1 93
1 1526
1 1613
1 997
1 1597
407 1
333 1
305 1
383 1
604 1
1 49
569 1
1 861
1 1312
1 1388
1 1435
856 1
1 943
1 547
1330 1
1 1371
1 993
1 384
1302 1
1 1579
1 1531
1566 1
658 1
1 1167
1 135
880 1
1 909
1 1438
1131 1
1472 1
619 1
1 202
825 1
1049 1
1 85
824 1
1 198
1050 1
1581 1
105 1
1536 1
1 988
1 1176
719 1
864 1
1 479
907 1
1607 1
1 523
1 84
1 1306
439 1
1 1301
1 971
1 622
1 1045
1 860
1 325
1 389
1 833
1 553
1304 1
194 1
1 1077
38 1
1 275
1534 1
795 1
560 1
1 1346
1326 1
1 473
1 1441
782 1
1142 1
899 1
1341 1
1 1517
1 954
1 39
1060 1
783 1
1443 1
1555 1
493 1
1 432
56 1
803 1
623 1
1 363
1392 1
1 1434
1 1120
1 1380
1 102
1 387
191 1
409 1
1 773
1 937
1 945
1 21
1 215
10 1
1 1564
591 1
1 1144
1 893
83 1
329 1
933 1
261 1
557 1
1 596
765 1
1 1474
1 891
1 914
1 1043
213 1
1 1411
1 743
1059 1
1 542
1248 1
1 1490
1 1224
1 178
1 442
458 1
1232 1
1 810
1082 1
1 1348
1 52
1 44
1259 1
1511 1
820 1
1 1591
1 1062
1 1469
254 1
299 1
1 723
1 966
1 1457
1 1495
1 1453
878 1
1 615
975 1
1 109
20 1
1 124
785 1
571 1
584 1
1 799
1 691
1 1344
16 1
1 1254
1 1269
1 207
1 404
779 1
1088 1
1 1313
1 1113
1 1354
1 977
206 1
1 632
1 534
1 1271
901 1
1568 1
1 1428
1 1006
1 1576
1 1108
1220 1
1440 1
122 1
1 267
1 138
1612 1
1 570
890 1
541 1
1 245
1335 1
1 144
17 1
1 599
794 1
1333 1
196 1
1 1505
1 1272
1 1125
252 1
1429 1
1 364
104 1
1 1553
1 319
1 348
1 805
1 420
297 1
1 461
8 1
1165 1
1 940
1 1102
1462 1
1 969
166 1
1 978
1 1329
1 616
1 63
441 1
506 1
1 171
139 1
1 1285
1262 1
503 1
1 298
1 249
1 1198
1 618
732 1
1 351
797 1
250 1
1 1008
1 1529
654 1
874 1
1614 1
1 927
1 78
246 1
1 314
703 1
1 999
1523 1
1 1171
562 1
1 279
1547 1
682 1
81 1
1 1404
1187 1
1046 1
1 1423
160 1
1 119
1 838
1528 1
1560 1
1 1584
844 1
1 448
1 453
1 730
822 1
1 457
1076 1
1 482
95 1
337 1
1012 1
1 528
1 849
685 1
1 326
1583 1
964 1
1005 1
1500 1
1339 1
1 239
1 643
1 362
1 1052
1 456
1 692
1 403
1615 1
1 998
1 488
1 991
1 350
1 468
1250 1
1 494
290 1
1386 1
1 1079
1 237
903 1
428 1
1 169
1 886
1 1436
1 1360
281 1
483 1
1 1384
1 1571
1 1089
1148 1
1393 1
1 1520
1091 1
1 1532
1273 1
1246 1
1 161
1 1037
1 1467
1219 1
987 1
132 1
130 1
1452 1
1315 1
840 1
1514 1
1 1233
1 1161
965 1
1 19
117 1
1 331
1 1169
145 1
1 862
61 1
1 1027
1 393
906 1
1 1325
625 1
352 1
1 1575
1 322
1 1150
1 108
1 1137
1422 1
1 1130
858 1
896 1
1 276
1 1557
586 1
1 812
1 1110
1 1496
1 1127
1 754
835 1
1 814
1 652
1 549
416 1
1 1099
1 1401
722 1
1 30
1 1189
535 1
711 1
1463 1
1251 1
162 1
537 1
633 1
1 174
1 848
1 767
1 554
1 853
1 100
1 1095
1 1317
1 513
1331 1
257 1
1 796
1 1218
203 1
1073 1
1 1238
286 1
1 756
718 1
1 418
1 968
1213 1
1 881
1 507
1 938
1 1261
1 284
1364 1
1 131
1 1263
1 595
888 1
423 1
593 1
1178 1
1 748
1 1420
1 707
1610 1
1373 1
811 1
205 1
780 1
1 735
1 343
1017 1
229 1
1412 1
1112 1
1020 1
1 727
1 236
1 582
395 1
827 1
141 1
1 1501
340 1
1426 1
417 1
1 438
1 269
1031 1
497 1
1 1538
1 1279
1 397
1 609
14 1
157 1
555 1
405 1
1456 1
1 602
221 1
1 686
1 1548
921 1
1 464
1 950
59 1
970 1
1542 1
361 1
1 939
1126 1
1068 1
621 1
465 1
1 789
1537 1
1 140
1432 1
324 1
1 1561
121 1
1129 1
1445 1
1 948
1 1307
1 1186
1000 1
932 1
1 1396
1 1545
700 1
1243 1
1 870
1 1485
546 1
1 895
1395 1
1 1569
1 1237
1 1437
1085 1
1 889
2 1
935 1
183 1
568 1
1 510
772 1
1 755
1 1181
1525 1
1 378
1 1230
1 725
1182 1
50 1
1258 1
1036 1
1 313
996 1
1 477
590 1
1546 1
1 1087
1141 1
1465 1
1578 1
1 265
911 1
487 1
967 1
1 1134
1 356
1 768
726 1
1067 1
706 1
1 816
1 492
450 1
1 581
699 1
1 209
466 1
1 540
1 12
1 1444
1 1334
1 1183
1 1342
611 1
1 266
1 1029
1 210
1 358
1 120
1021 1
1321 1
1116 1
1 1093
1479 1
1 739
1 1255
1 1476
1 904
1540 1
1 588
1 741
724 1
1 70
1502 1
1454 1
318 1
1121 1
1592 1
1 1053
1 321
1 1010
620 1
1527 1
1 1516
1 1007
1268 1
536 1
1 1417
1 1136
155 1
688 1
1 946
1 106
1 1152
1 668
1 989
1 1071
1 1024
920 1
598 1
1 505
1 667
82 1
837 1
1 1482
1133 1
128 1
1203 1
1 1471
1 15
372 1
1308 1
809 1
1 1075
1 7
1 51
1 587
392 1
1 1383
1 1117
1 310
1 1009
1 1123
1 1159
1415 1
1 1379
235 1
579 1
1414 1
1 97
746 1
1184 1
1 48
1 1550
1350 1
751 1
1611 1
1 919
1 422
918 1
592 1
843 1
1204 1
1188 1
445 1
253 1
928 1
1 296
1 957
1 79
1 1324
1 850
1382 1
676 1
831 1
1 651
1 798
1175 1
1 548
1 1343
1 763
1 910
1 499
659 1
1 973
1185 1
159 1
1 1247
526 1
1 819
1 1347
277 1
302 1
1 1297
1 462
777 1
1 369
1173 1
1504 1
7 6
1 867
1 1210
737 1
1160 1
1322 1
1 444
917 1
1 1473
391 1
486 1
1 1193
484 1
828 1
1349 1
1 149
1245 1
1594 1
1 983
382 1
1 697
1 1503
680 1
1 1587
661 1
88 1
1 1147
1 1449
1003 1
288 1
1 1336
336 1
875 1
713 1
1 177
1 262
22 1
1128 1
1 972
1 563
1 771
1 778
525 1
1 1551
1 1391
1002 1
1 740
519 1
897 1
1 764
871 1
1 1035
480 1
115 1
259 1
1 1381
1 721
1340 1
942 1
1 1078
1 147
65 1
1 955
1535 1
1 440
1215 1
285 1
1 1355
522 1
47 1
1 1406
1 381
564 1
368 1
1264 1
1109 1
1 982
1484 1
142 1
1366 1
1 1487
839 1
73 1
1058 1
1194 1
1 750
1 1011
641 1
1 708
1 129
1 1032
1 280
1 960
1267 1
762 1
1 900
1 855
1 43
1 613
648 1
517 1
1 694
670 1
1 1447
606 1
705 1
821 1
1 1016
905 1
1 638
1190 1
1061 1
471 1
1287 1
113 1
1 774
559 1
1 412
675 1
738 1
1 1084
1 354
876 1
769 1
704 1
1 958
66 1
1 524
431 1
1048 1
1 1424
1 1019
282 1
1056 1
1 125
1 1416
985 1
1 476
1 1606
929 1
1512 1
1552 1
151 1
1 76
1 300
1574 1
514 1
1433 1
1216 1
898 1
1 742
156 1
1 1291
1 92
1586 1
359 1
1 847
219 1
1 804
1 437
1 304
1 175
1104 1
406 1
1 538
430 1
552 1
370 1
1 1086
1 674
846 1
813 1
1515 1
1 25
1318 1
1146 1
788 1
413 1
1 1034
863 1
1468 1
1170 1
154 1
1 436
1180 1
597 1
1 1541
1 1097
1 1054
566 1
1 770
1 1199
1 529
1 163
1 228
419 1
1345 1
1 916
263 1
1 172
884 1
1 167
1 447
1589 1
1 1481
186 1
426 1
1192 1
1 498
1 388
2 3
1 1539
1358 1
1 36
31 1
1 449
118 1
531 1
1 223
1239 1
1 136
1427 1
330 1
1 684
1460 1
1 1172
1 1362
67 1
1 69
34 1
1 883
1 1580
990 1
309 1
164 1
1 338
1357 1
1 1069
1 411
1 234
1042 1
1 238
1244 1
1 1139
1 1455
1 1593
1309 1
1563 1
1201 1
1 1278
671 1
1390 1
1 781
86 1
150 1
1 176
776 1
637 1
1 749
1 1132
1 1477
251 1
1549 1
295 1
1 1229
1 752
1 1257
1280 1
463 1
702 1
1 87
255 1
1 1138
1 182
527 1
1 1040
1 1105
1 766
1 77
1 1107
1 500
857 1
759 1
1 90
308 1
1 953
495 1
1 1338
1 1030
1051 1
1 45
332 1
1240 1
114 1
1 1397
1 800
574 1
1493 1
1 1228
1 1413
58 1
1470 1
1509 1
793 1
1562 1
1 185
1 1256
1080 1
99 1
1 580
712 1
1 193
1 733
1064 1
220 1
1 227
1 512
1 545
294 1
573 1
1 98
1507 1
1 1001
1 1284
1 1319
402 1
385 1
1 851
1461 1
572 1
1 179
1221 1
1 790
1 1242
1 1249
1235 1
913 1
1 1494
1 760
1 841
1 1410
1 669
1 1475
1565 1
1100 1
273 1
656 1
1543 1
1106 1
1 650
1 1038
1 1458
539 1
757 1
1599 1
1363 1
872 1
1 980
979 1
1 558
1 134
1299 1
1 1508
371 1
1 189
3 4
1 373
1 807
556 1
677 1
1 994
9 1
1 1177
1 576
504 1
1196 1
1602 1
951 1
1 1191
1 270
1544 1
111 1
460 1
1332 1
1 386
1296 1
57 1
1 908
341 1
729 1
1 614
1 315
41 1
1351 1
222 1
1 1367
689 1
1 1377
845 1
1 32
1 992
1 1276
1 1595
1378 1
1 649
868 1
887 1
1368 1
1 681
1 26
1 1083
1 1166
1 470
1556 1
1 224
1 243
1 1270
1 103
303 1
1288 1
1 698
1 55
204 1
380 1
1 660
1 1274
1 1439
1 170
1 1376
1 995
1 1300
731 1
1466 1
605 1
1135 1
834 1
1 736
1572 1
71 1
1554 1
1 1156
1298 1
511 1
1533 1
1 589
1063 1
1 854
1 639
5 4
1605 1
1 885
1022 1
1 496
1 137
508 1
1 367
1 292
1 345
1 200
1217 1
1519 1
1323 1
1 533
1241 1
1275 1
1 72
1 1398
112 1
1145 1
1 836
696 1
1 1513
1 1337
1226 1
1 472
1450 1
1 642
1524 1
1421 1
879 1
663 1
1 317
1 475
1 636
1179 1
1 1168
1 1026
1 709
715 1
1206 1
1448 1
1119 1
1 1370
1 710
1 1385
1 80
35 1
612 1
1013 1
1 357
1 28
1124 1
401 1
1 956
1 607
974 1
1 823
1352 1
33 1
1361 1
13 1
1143 1
1 701
1 293
306 1
283 1
1 1197
1 1311
1480 1
1 1072
1 947
1111 1
1 377
1 1090
892 1
1 817
1303 1
1394 1
1596 1
1 455
665 1
1 894
1 1492
1 94
334 1
1265 1
1518 1
116 1
1 443
1 1195
1 915
1 1225
1207 1
74 1
1 1295
1 192
1222 1
1 241
1498 1
1 489
926 1
662 1
1 952
289 1
1164 1
1039 1
46 1
830 1
123 1
1488 1
786 1
1 832
1 1070
1223 1
1 1205
1149 1
312 1
1 1014
148 1
922 1
1 195
1442 1
1 575
1 101
934 1
96 1
1 577
1 291
664 1
1 949
1 936
1 806
1 716
1582 1
184 1
1 815
1 180
201 1
1 521
758 1
165 1
1558 1
433 1
1 791
1 1590
544 1
1 400
1522 1
1 353
1 414
327 1
1 24
693 1
1 1140
1 216
923 1
1 1041
1 1236
1 1212
1 1521
328 1
784 1
1281 1
1 271
1 1486
1 745
408 1
1316 1
775 1
583 1
608 1
808 1
127 1
1 1567
1400 1
153 1
1 233
1 1601
1 260
657 1
1 516
627 1
744 1
1530 1
1 268
842 1
42 1
1 1047
481 1
1 133
829 1
1 761
1328 1
1227 1
666 1
231 1
1 647
1 107
1 720
1 394
1399 1
1 40
1 181
1 1387
1 230
256 1
485 1
1158 1
1 491
1603 1
1 1369
1 375
628 1
1 1103
1 1320
924 1
959 1
1 1023
316 1
1 1286
89 1
374 1
323 1
1 550
501 1
655 1
272 1
1 986
961 1
1 585
678 1
1 818
1 1600
1231 1
1 1209
23 1
646 1
1604 1
1 1419
565 1
520 1
1 459
645 1
390 1
62 1
1 1025
1 1585
1 792
873 1
1 1499
1 1431
1 962
1 190
1 865
1 1598
1 1277
1 339
287 1
1 644
1 242
1 1057
1 1074
1 225
1155 1
346 1
1 398
1208 1
1 925
1 640
1 1153
1 342
240 1
1 1407
1214 1
1 1372
1 1451
64 1
399 1
110 1
1 173
1202 1
1 1122
301 1
1 429
1 532
1 232
1 212
1 600
1 1114
1483 1
1573 1
244 1
869 1
1234 1
1 11
635 1
1305 1
1 415
1098 1
1 1157
1 18
1 1200
1446 1
1 1092
474 1
963 1
1 852
435 1
1408 1
425 1
1310 1
981 1
1506 1
1 478
54 1
634 1
1283 1
1402 1
1 603
1 1081
1118 1
1 1389
1 802
199 1
502 1
1 902
1 258
1 226
1 1314
152 1
1 530
349 1
1 1174
1 944
1 320
1 787
1 434
1282 1
1 27
631 1
1570 1
1 1374
1 68
1 1028
1 1375
1 188
1327 1
714 1
1 877
1 1253
1 1497
1 930
1 335
629 1
1018 1
1 1115
1 1162
1 679
1510 1
1 610
424 1
1 1044
931 1
1 1491
187 1
469 1
1 1015
509 1
1 672
1356 1
728 1
1 311
1294 1
1 551
396 1
1430 1
1 673
1 1459
