18
30 21 22
24 23
19 20
26 25
27 26
24 25
14 13
3 4
15 16
13 12
30 1
22 21
18 17
2 1
6 7
30 29
5 6
28 27
11 12
8 7
11 10
16 17
8 9
28 29
4 5
9 10
3 2
14 15
23 22
20 21
18 19
26 13 14
17 16
15 14
23 22
23 24
12 13
15 16
26 25
19 18
5 6
7 8
3 4
12 26
10 9
20 19
21 20
24 25
4 5
2 1
2 3
10 11
9 8
6 7
22 21
13 14
12 11
17 18
23 15 16
20 19
16 15
9 8
4 5
14 13
3 2
5 6
14 15
23 22
21 22
2 1
20 21
18 19
18 17
11 12
11 10
7 6
10 9
17 16
3 4
7 8
11 23
12 13
43 34 40
17 31
3 29
43 21
9 25
37 12
5 7
19 12
9 5
3 21
14 1
11 33
4 7
40 34
36 28
6 4
26 20
23 10
3 1
5 13
22 2
2 8
12 41
20 12
23 28
19 35
13 30
5 11
37 42
15 10
6 1
17 27
7 12
34 29
9 10
26 39
16 12
38 12
11 17
32 9
14 18
9 2
24 19
8 3
45 1 12
8 1
36 1
2 1
15 1
1 34
1 29
5 1
7 1
19 1
20 1
35 1
1 25
1 43
4 1
40 1
3 2
18 1
4 3
14 1
1 21
1 31
1 26
1 42
13 1
1 24
10 1
1 27
16 1
1 37
12 1
1 28
1 23
1 45
41 1
1 17
1 11
1 39
44 1
30 1
9 1
1 6
1 38
1 33
32 1
1 22
31 1 7
30 1
13 1
20 1
7 1
23 1
5 1
11 1
1 9
1 29
25 1
1 4
3 2
24 1
1 16
1 15
1 27
17 1
31 1
1 19
1 21
18 1
8 1
1 3
10 1
28 1
6 1
12 1
1 26
2 1
1 22
14 1
31 19 20
13 12
1 2
21 22
2 3
6 5
11 10
29 28
8 7
5 4
24 25
10 9
27 26
26 25
24 23
29 30
20 21
11 12
19 20
23 22
14 15
13 14
27 28
16 15
6 7
17 18
31 1
3 4
9 8
16 17
18 19
30 31
18 13 14
7 1
4 3
18 17
6 17
10 9
8 7
1 6
13 4
11 12
5 6
9 2
2 3
5 4
3 11
1 2
14 13
16 15
5 15
42 9 27
2 20
6 25
11 33
14 11
41 9
5 3
29 27
28 35
16 12
3 8
36 29
42 8
4 13
1 12
1 4
7 26
9 27
20 37
30 10
7 21
5 4
19 32
2 6
10 7
18 11
7 24
9 7
9 6
33 40
13 38
5 11
28 24
1 10
34 14
22 31
15 11
6 22
7 23
2 8
17 7
10 19
14 39
16 10 11
13 14
5 4
14 15
15 16
6 5
11 12
12 13
10 9
9 8
1 2
11 10
3 4
3 2
8 7
3 16
7 6
15 1 2
4 5
14 15
1 2
13 12
10 4
5 6
14 6
1 7
1 6
3 9
3 2
10 11
2 8
5 12
4 3
38 1 31
3 33
8 4
2 22
35 1
28 17
3 37
34 8
4 1
1 25
10 4
29 16
15 17
1 3
1 31
20 4
12 19
7 32
27 19
38 5
4 2
9 11
8 30
5 7
14 10
24 12
36 32
7 21
2 7
9 2
6 5
15 13
3 23
7 13
16 1
16 18
12 9
26 13
6 3
24 20 21
20 21
2 1
20 19
23 22
18 19
11 10
17 16
15 14
13 12
13 14
4 5
6 5
1 24
8 9
7 6
12 11
10 9
7 8
2 3
16 15
21 22
3 4
17 18
24 23
40 2 32
10 5
2 24
14 8
7 16
29 28
23 10
3 34
1 6
25 24
22 15
9 5
38 21
37 28
26 20
28 30
8 13
20 27
4 3
15 9
11 8
19 14
6 35
6 7
5 7
20 11
28 27
2 3
33 25
17 4
21 8
39 14
12 18
2 5
4 1
36 32
32 2
8 12
31 6
8 4
12 40
32 17 18
32 31
4 5
21 22
32 12
17 18
18 19
22 23
27 28
27 26
6 7
13 14
12 11
25 24
6 5
7 8
15 14
2 1
19 20
2 3
8 9
29 30
12 13
24 23
16 15
31 30
25 26
28 29
9 10
10 11
17 16
3 4
21 20
17 5 1
1 17
9 1
1 2
16 1
1 11
13 1
5 1
1 10
15 1
6 1
8 1
14 1
12 1
2 3
3 4
5 4
7 1
37 1 26
3 1
1 7
1 32
1 12
1 22
1 29
1 10
33 1
8 1
1 11
1 34
35 1
1 16
25 1
1 27
26 1
28 1
30 1
5 1
1 18
24 1
20 1
1 9
2 1
17 1
4 1
1 23
13 1
1 15
3 2
19 1
1 37
1 31
1 21
36 1
6 1
14 1
36 5 14
36 11
10 5
8 31
12 29
13 23
14 5
21 22
1 4
11 26
24 2
17 15
3 12
25 1
4 15
20 9
6 5
9 5
28 12
4 8
19 6
1 3
5 7
16 4
4 6
27 11
18 7
21 4
3 2
35 11
17 33
32 21
11 10
32 34
5 13
11 30
2 7
