12
18 3 2
16 10
7 12
8 4
18 1
8 9
16 17
10 11
3 4
3 2
14 3
1 7
5 3
1 3
11 15
2 1
13 3
2 6
7 10
25 1 3
8 16
2 3
9 6
8 2
10 4
24 3
3 4
21 7
20 17
2 5
17 22
18 17
10 17
23 14
1 13
5 6
15 12
6 25
19 3
12 2
11 5
1 2
1 7
1 3
14 12
32 3 1
5 3
12 6
15 16
20 17
3 9
6 10
3 8
5 7
2 13
19 1
17 32
2 3
14 15
28 3
13 14
1 3
11 9
23 25
6 1
30 25
17 16
23 6
24 8
21 20
22 8
2 29
31 26
18 15
1 4
26 9
2 1
2 27
16 2 1
10 5
4 1
2 1
16 14
13 8
6 12
15 13
5 2
7 3
14 11
3 2
6 8
3 1
11 3
6 2
9 5
30 3 2
11 15
6 11
25 26
23 21
3 2
23 27
24 5
29 25
16 2
30 22
8 7
12 11
9 4
18 2
19 15
22 6
1 3
11 13
14 6
5 17
20 4
5 3
2 1
23 25
2 7
6 4
4 3
26 28
9 10
21 17
23 2 1
5 1
2 1
19 15
4 1
7 9
4 13
3 1
10 15
12 1
5 8
16 21
2 3
10 3
12 22
18 23
15 20
4 18
7 4
5 6
8 14
3 11
16 7
2 17
34 2 3
1 34
30 29
25 24
1 23
20 2
25 29
4 5
33 27
1 2
11 17
8 31
24 19
11 4
1 3
14 6
28 2
5 27
17 21
2 4
2 3
11 16
9 13
6 32
19 14
7 2
22 8
12 1
11 15
6 1
8 1
26 8
10 2
4 9
9 18
30 1 2
27 25
14 15
12 9
9 25
3 2
11 6
6 22
1 16
9 2
19 9
25 28
20 18
5 17
3 1
29 5
8 1
26 10
14 12
5 2
9 10
2 1
5 6
6 7
30 14
23 2
1 4
13 1
1 18
24 15
13 21
23 2 3
3 6
21 10
20 7
9 10
4 13
16 18
4 2
15 8
1 2
3 1
8 16
2 3
14 1
1 17
10 23
3 5
18 22
6 7
8 5
6 9
12 8
19 6
2 11
30 3 1
13 7
7 29
3 1
14 3
8 7
2 3
2 1
15 4
10 4
20 27
5 1
30 27
7 2
23 17
2 24
16 20
9 6
4 1
10 26
17 3
11 6
28 15
6 12
3 18
16 11
12 22
8 25
5 6
21 6
2 19
31 2 1
19 15
15 8
6 2
7 11
27 9
10 3
3 2
29 16
1 3
4 2
30 26
6 23
10 13
21 2
17 5
26 15
14 6
12 5
31 18
6 9
24 25
18 22
8 4
16 11
5 2
1 2
1 7
8 20
18 13
24 8
28 15
17 2 1
11 17
5 4
2 3
4 7
8 9
2 6
9 10
1 2
6 8
12 1
10 15
7 14
13 9
11 8
16 3
3 1
4 3
