40
933 849 465
166 180
261 910
522 356
436 64
906 914
33 151
455 310
1 3
459 502
892 835
105 171
621 652
263 334
629 120
272 199
384 770
197 174
78 18
738 190
347 166
440 24
18 2
95 15
44 154
902 239
231 128
571 507
395 367
766 83
683 775
508 895
95 260
87 32
795 739
817 2
727 465
605 223
451 108
398 283
406 832
137 198
669 476
58 518
595 387
33 11
24 67
9 1
72 276
554 304
434 396
888 523
101 19
519 440
475 734
281 364
533 545
5 32
190 109
732 750
226 141
364 376
784 325
193 214
236 381
673 864
479 451
83 122
553 232
44 651
19 21
708 664
18 22
648 27
447 419
838 36
456 296
21 132
463 429
38 668
241 563
12 169
383 343
806 42
584 325
88 218
639 699
118 104
256 547
42 114
812 173
129 10
603 179
250 153
727 797
212 72
39 158
66 13
30 44
662 67
628 469
813 511
371 416
159 75
399 59
64 39
670 432
622 787
58 833
431 460
452 897
164 289
61 506
398 453
654 574
401 223
757 829
689 352
28 764
125 255
26 234
285 215
573 453
199 661
869 676
818 233
61 21
505 165
780 207
530 407
243 234
48 56
70 49
50 62
18 40
184 449
205 312
14 20
375 239
240 532
130 13
245 14
425 298
778 398
168 92
393 310
700 728
123 153
756 44
78 679
327 143
255 384
184 227
176 373
933 291
486 461
263 10
863 645
317 713
53 2
442 240
446 681
218 650
342 908
544 260
602 483
369 11
409 36
265 577
161 663
18 19
191 75
18 718
379 19
125 760
467 318
377 204
85 1
141 525
762 877
597 559
48 731
707 723
725 665
386 136
242 677
538 259
195 9
305 534
751 86
494 510
152 52
157 587
133 81
4 113
643 633
347 354
465 881
273 209
69 558
376 830
192 112
131 922
68 788
601 585
508 520
37 641
712 562
16 90
104 274
428 153
25 17
31 11
717 242
65 188
637 557
24 35
141 674
104 468
490 381
367 850
505 618
106 94
207 256
135 116
758 836
822 512
422 439
683 907
4 59
11 737
318 53
64 207
531 185
16 10
424 536
698 654
184 68
180 783
14 7
443 361
771 308
184 772
203 90
134 411
125 117
32 523
357 117
798 55
395 557
243 313
186 372
63 150
410 395
843 658
20 846
230 119
22 86
66 142
96 5
138 117
30 13
700 643
903 12
42 55
540 526
459 346
308 184
735 244
535 620
189 210
331 99
3 630
432 267
372 634
213 691
644 409
773 417
580 915
799 435
127 156
875 533
123 87
820 339
645 639
755 276
315 66
3 5
418 319
436 593
663 841
140 297
254 120
74 97
258 220
614 320
39 209
213 20
685 348
72 23
222 115
131 419
567 62
277 647
462 776
509 21
810 351
326 8
157 355
353 125
149 37
176 302
294 457
488 375
42 179
192 715
667 505
42 423
7 178
27 521
622 290
607 37
167 88
278 154
173 86
426 450
282 3
824 750
384 438
385 271
370 807
126 64
693 123
46 105
129 711
172 114
620 885
874 91
871 422
2 11
465 615
754 108
14 93
720 165
117 12
41 12
405 752
107 50
45 422
319 261
9 528
48 35
54 46
8 165
166 339
294 125
692 847
69 290
61 183
420 350
826 516
929 545
444 581
202 267
358 38
228 608
653 779
625 928
286 378
659 505
321 232
429 210
311 437
393 834
697 385
238 9
786 424
469 75
565 233
21 371
763 876
288 22
23 47
639 257
374 207
858 452
512 274
134 219
16 37
466 500
323 47
399 837
139 134
390 403
271 350
22 206
569 245
181 225
568 539
617 364
91 128
575 349
105 115
338 430
609 473
703 347
606 261
337 367
328 266
62 724
23 63
894 199
262 296
380 121
349 184
58 76
216 77
28 27
46 175
270 113
201 688
458 793
537 279
313 613
497 176
98 186
71 918
539 334
19 194
279 301
289 330
792 242
110 495
69 211
133 524
646 210
176 26
24 20
295 21
91 48
831 486
307 154
17 5
842 355
111 60
247 183
595 642
729 251
445 279
147 51
415 465
98 649
219 480
192 292
599 289
78 201
127 162
794 706
592 525
412 803
96 759
6 4
24 232
628 673
264 13
126 849
23 20
46 454
558 893
638 484
461 199
86 200
169 441
42 535
816 109
825 264
48 351
701 620
4 1
481 360
585 658
150 835
3 43
427 204
32 52
839 300
154 342
19 46
150 233
528 542
492 18
226 466
11 12
300 861
311 150
366 327
758 261
249 37
192 476
671 471
144 107
442 559
88 284
125 333
640 589
99 61
68 223
205 291
120 84
102 40
305 346
140 931
271 175
293 2
68 81
543 347
1 324
725 919
167 343
737 749
678 556
2 4
80 146
496 107
625 329
32 582
415 927
359 503
310 579
253 815
123 811
789 859
614 855
252 762
621 383
596 330
370 25
424 385
6 68
543 878
321 566
335 282
58 32
12 39
71 34
259 911
722 259
605 925
789 701
12 124
82 7
411 721
205 710
619 493
37 77
215 140
636 890
161 101
305 57
564 85
740 497
101 283
585 323
706 21
260 359
883 115
754 851
104 66
889 251
303 195
67 337
475 113
202 128
341 591
74 336
441 501
132 306
400 137
52 494
50 89
397 248
109 9
170 95
19 665
131 56
456 472
431 60
862 665
1 317
687 651
268 64
924 390
157 62
570 534
240 279
394 163
69 166
870 865
404 239
414 407
703 726
604 2
299 6
312 896
840 481
363 270
482 225
26 13
197 426
439 900
216 275
819 28
207 757
157 580
8 50
548 611
310 130
236 192
653 267
331 541
784 828
266 187
177 221
45 40
102 141
590 868
626 351
458 248
7 8
15 13
318 473
108 71
590 364
42 136
913 499
761 80
852 87
633 367
884 187
636 473
46 462
316 118
572 305
187 98
208 696
669 805
275 552
860 24
189 151
11 664
613 769
921 810
294 314
3 389
229 73
768 87
853 770
153 325
666 183
743 49
823 312
189 493
42 137
62 361
201 352
309 39
110 873
111 684
433 363
269 155
390 293
293 730
664 733
906 437
412 338
163 8
392 231
53 261
107 854
504 233
656 417
741 208
844 794
42 185
109 635
887 453
586 195
143 114
344 209
166 464
866 133
345 64
904 784
289 368
160 899
624 683
42 33
785 753
578 34
408 379
499 366
74 66
170 388
845 660
483 212
80 10
270 920
277 15
131 719
930 391
166 485
551 657
146 242
285 588
744 192
228 154
77 801
257 68
827 453
802 48
481 809
73 7
13 2
614 682
48 100
31 51
42 49
307 898
47 589
267 484
457 932
216 251
391 300
546 362
767 668
555 414
67 110
137 217
607 746
906 912
92 79
452 127
383 821
508 501
2 5
300 62
27 9
363 574
199 882
716 403
181 81
655 31
435 190
101 551
239 154
243 348
64 119
556 437
195 790
148 107
253 198
244 90
41 917
498 73
886 367
800 596
515 505
304 182
129 631
561 422
872 659
204 686
4 155
38 103
177 37
77 83
533 364
407 385
329 309
349 753
511 283
224 137
356 199
14 709
396 598
7 10
901 435
487 164
493 583
856 461
204 134
905 518
814 128
34 17
28 29
7 5
378 417
549 183
848 80
119 382
177 736
748 637
295 926
101 112
554 694
365 55
923 140
513 259
623 151
145 42
341 256
287 243
246 79
84 18
442 471
867 158
879 792
22 320
360 59
62 338
116 62
406 217
527 369
134 387
182 415
604 632
362 287
627 522
94 63
74 88
489 76
180 610
188 507
136 777
320 529
79 30
22 57
704 306
144 262
196 108
40 164
159 413
143 160
403 612
121 98
235 12
405 361
243 676
421 409
707 110
251 550
130 446
616 285
97 140
38 35
865 863
402 74
340 219
412 742
581 594
243 478
296 322
728 774
714 527
909 458
560 43
85 199
441 695
891 141
444 212
396 311
516 109
265 111
660 473
98 30
259 600
136 747
116 675
732 28
77 193
78 237
477 304
680 381
205 201
197 739
262 796
8 36
60 11
880 212
259 126
448 439
69 2
13 474
763 419
204 286
174 46
14 280
127 59
182 88
169 514
702 307
133 134
21 690
857 396
337 765
252 171
781 610
112 470
115 672
21 208
791 127
464 491
40 240
476 576
316 517
195 220
562 538
3 75
41 65
241 22
248 14
804 194
916 164
285 298
332 178
514 745
529 548
377 526
165 281
148 624
808 274
46 705
692 565
782 153
513 364 37
136 21
48 168
10 297
260 37
242 172
99 356
472 156
392 496
1 19
309 207
363 81
304 497
249 221
24 352
293 265
290 369
19 73
226 19
173 342
441 353
221 120
9 13
417 314
173 141
405 117
70 413
112 96
132 330
456 102
106 427
206 306
471 22
26 95
51 290
278 209
191 153
224 171
466 70
318 12
350 33
25 116
230 2
41 8
464 159
5 378
302 154
27 56
426 279
111 355
150 17
243 229
51 160
508 393
357 431
451 273
70 64
5 3
5 32
121 74
2 240
56 292
123 234
146 8
13 108
14 23
259 76
169 116
15 109
366 66
465 245
216 500
376 348
310 62
279 504
4 9
90 60
351 458
50 37
83 481
11 491
273 233
14 332
84 180
252 53
124 336
213 39
443 454
186 148
201 250
61 265
149 128
61 324
203 210
11 8
17 10
10 35
14 28
140 9
316 108
7 6
60 88
41 60
32 43
273 374
23 295
14 26
111 57
93 47
507 390
165 64
10 2
18 439
453 452
340 377
219 212
44 25
97 200
503 255
34 143
478 397
391 414
406 163
268 81
506 512
56 119
153 111
145 139
338 282
86 232
45 285
181 444
152 364
4 396
198 116
53 100
56 86
158 22
46 130
11 18
327 407
208 223
334 240
196 402
190 345
38 23
10 54
115 94
83 39
114 16
214 177
248 238
31 65
60 64
271 38
447 254
91 2
21 429
347 129
90 209
266 307
30 31
287 296
42 68
94 122
392 87
266 95
71 184
141 317
190 182
28 57
34 22
300 343
10 6
35 139
181 93
430 73
253 189
39 42
54 462
136 216
18 151
371 161
193 333
101 348
161 159
84 467
446 286
13 53
83 486
16 49
349 150
117 96
105 59
445 156
167 33
367 221
415 98
178 262
197 275
192 113
131 65
121 267
18 98
266 314
435 130
96 70
37 75
303 220
81 57
300 95
450 480
107 233
192 386
360 274
344 243
69 33
187 158
18 335
177 362
30 304
310 346
194 31
80 45
482 456
4 129
162 176
436 75
239 279
171 133
225 283
351 372
156 113
96 403
89 172
388 110
257 368
385 475
148 110
284 101
270 44
39 30
25 14
416 39
35 40
74 103
235 357
4 77
457 147
112 513
395 17
210 419
102 79
96 211
354 408
16 46
87 94
202 127
235 38
116 120
156 182
494 104
16 10
409 150
42 485
329 199
7 4
62 340
41 238
208 3
71 455
450 45
59 124
76 72
231 163
420 115
38 126
140 479
25 138
488 306
88 110
437 257
320 108
134 390
128 18
227 225
490 410
495 229
242 258
461 85
189 477
276 452
87 73
311 398
381 37
239 229
13 36
197 489
22 323
67 185
114 269
255 66
118 3
319 142
1 9
21 55
106 294
57 264
237 312
85 72
52 7
191 400
74 68
326 222
39 448
12 66
177 73
328 70
117 220
63 32
315 259
387 137
55 205
129 463
459 255
283 422
212 36
493 76
404 328
41 147
182 423
2 3
254 162
337 379
55 237
460 133
327 293
2 222
72 207
291 354
393 132
125 34
33 28
434 115
174 74
215 24
58 13
55 89
346 361
324 384
11 375
137 276
27 6
195 94
250 272
79 16
5 8
437 499
29 16
39 62
484 144
24 101
123 157
42 106
449 421
98 257
3 15
111 197
137 245
339 83
391 61
275 438
365 163
107 144
159 23
311 198
7 341
268 411
360 382
193 298
276 331
261 161
78 25
34 48
156 337
236 511
12 3
58 385
162 128
71 22
61 8
218 102
397 212
140 175
11 383
155 204
425 284
44 373
16 256
19 229
71 123
95 97
188 66
358 120
104 170
258 321
351 49
156 189
305 92
440 116
193 16
14 20
95 155
238 281
228 158
269 322
99 8
24 6
185 308
342 498
217 132
67 3
44 263
263 399
442 423
9 47
15 51
142 49
132 74
325 317
443 258
133 122
424 186
299 35
366 389
247 156
505 155
380 97
206 180
82 30
168 280
483 76
139 152
36 246
291 173
274 204
1 8
277 17
7 137
313 52
289 285
509 241
27 45
510 500
35 418
9 287
241 140
288 93
421 82
284 433
96 359
113 101
163 18
127 118
91 203
210 301
26 72
424 492
506 4
30 17
473 241
13 14
134 115
432 52
148 166
51 59
501 368
164 139
25 282
143 476
235 412
193 487
468 445
12 22
141 154
368 428
17 183
58 236
201 155
141 116
469 319
237 401
179 112
175 474
225 51
66 84
286 182
107 103
178 30
28 104
21 2
84 92
115 244
410 85
27 135
143 251
92 199
246 353
370 115
394 163
32 470
196 121
502 188
37 18
956 84 365
658 737
319 757
338 486
17 40
150 51
731 349
205 39
17 34
39 80
9 17
658 115
606 842
78 191
280 749
117 810
377 314
39 197
165 108
863 265
500 501
105 4
221 685
409 88
155 90
692 207
86 866
332 947
205 376
499 750
426 674
95 187
250 379
340 357
942 411
463 242
43 204
803 939
691 510
453 434
797 307
515 611
192 236
40 164
864 53
22 661
576 949
824 771
70 612
451 376
643 755
289 79
902 683
132 508
132 575
414 397
250 699
34 117
864 930
807 616
159 406
771 107
295 900
92 279
275 8
339 73
566 101
423 555
366 383
561 528
611 683
286 351
344 6
68 11
496 679
388 86
632 544
31 6
452 388
477 32
455 285
582 110
42 770
105 304
642 334
807 911
743 620
329 948
484 606
531 605
156 192
57 172
549 56
92 345
53 5
340 131
201 41
27 553
305 552
383 763
96 343
473 107
528 849
68 277
468 266
192 284
208 758
634 815
28 45
511 602
820 564
358 573
22 1
228 84
336 306
47 417
203 57
16 176
96 39
666 800
64 60
88 253
850 89
550 66
9 11
303 748
21 25
580 167
50 7
876 417
604 602
405 349
912 222
95 808
776 790
204 780
623 323
36 528
692 720
217 237
247 510
536 54
57 686
161 375
415 57
456 118
261 202
138 58
35 130
826 287
319 581
806 134
548 246
3 47
336 565
7 3
848 243
2 4
263 779
56 114
898 740
43 39
29 93
310 945
162 791
281 331
657 928
798 363
241 85
853 275
290 701
25 88
13 77
26 39
184 162
58 649
461 338
670 888
601 350
86 732
124 115
432 297
805 874
598 19
395 734
862 511
298 322
19 242
811 77
75 55
454 280
148 260
161 11
786 406
319 298
39 412
670 702
645 497
18 3
799 277
814 277
13 30
119 250
62 142
637 458
23 3
380 635
61 59
217 207
3 89
290 184
68 835
248 10
4 87
332 13
482 568
154 764
802 735
437 138
328 609
70 196
224 6
404 87
159 175
293 558
57 670
118 152
40 107
654 936
357 906
146 106
871 634
845 800
274 293
234 36
365 87
622 761
148 71
71 429
327 610
247 2
833 792
772 5
80 544
59 597
48 195
202 519
35 11
708 109
625 940
95 914
113 659
717 125
347 65
266 466
693 445
156 112
443 185
560 135
88 458
384 527
471 838
471 177
362 590
93 727
29 67
594 901
893 602
368 697
577 328
144 14
314 210
671 313
175 258
211 220
641 576
676 458
396 334
54 79
696 68
420 260
133 162
409 705
101 77
227 55
598 932
240 668
134 124
31 500
16 49
599 700
274 421
665 760
168 251
400 230
653 53
152 491
21 57
210 54
133 956
221 146
386 333
330 736
69 39
652 74
536 540
115 66
517 23
651 445
266 192
688 406
606 614
65 189
773 34
92 180
165 207
444 414
5 4
922 811
36 99
87 782
201 618
25 235
761 813
309 460
32 103
419 484
586 389
169 52
216 585
144 450
469 889
615 695
282 241
72 372
36 232
15 844
331 827
111 498
433 144
883 597
275 523
320 101
281 152
200 38
134 631
386 464
340 520
88 158
224 489
271 472
356 277
470 452
389 9
556 937
307 79
733 62
164 457
120 95
507 616
52 66
318 114
214 704
410 141
133 95
64 143
110 572
424 378
847 298
330 366
362 137
76 94
209 650
84 588
128 202
35 394
620 909
55 102
323 10
497 666
397 167
73 341
136 88
591 353
535 48
406 479
872 23
941 389
90 907
776 891
446 401
13 1
621 744
435 132
365 505
278 135
73 113
142 403
756 47
473 821
62 30
370 95
129 132
636 394
728 636
292 440
474 526
729 284
110 171
229 70
302 105
118 516
137 90
252 104
662 112
151 160
737 769
676 915
186 18
785 513
113 858
801 161
87 301
509 178
469 310
157 487
16 4
859 218
26 238
97 256
46 14
667 109
553 681
475 215
482 318
336 694
153 638
21 84
890 493
162 245
875 568
283 518
145 6
315 105
7 15
197 538
298 115
3 140
413 624
76 126
738 564
7 72
441 746
12 9
613 698
628 502
321 570
193 12
547 69
48 178
127 42
899 919
542 673
1 119
3 188
522 752
711 126
184 198
329 19
598 600
781 678
48 594
706 514
84 543
42 311
251 488
629 169
177 165
929 346
503 303
312 927
286 418
476 310
533 633
401 297
554 141
273 97
191 342
241 355
303 321
805 26
943 408
574 178
50 121
723 514
379 411
480 182
592 441
44 583
490 397
36 15
789 96
83 17
325 257
584 712
740 40
669 372
933 778
289 398
164 349
687 438
151 878
49 116
31 190
202 209
369 156
196 596
515 545
364 462
647 372
2 233
508 710
877 13
73 46
59 2
934 598
539 250
865 310
539 768
90 92
358 9
335 218
595 52
67 399
316 165
108 42
130 783
26 41
14 5
274 198
3 1
507 456
448 903
481 620
860 292
103 306
74 599
951 533
3 556
331 884
829 472
23 32
515 313
593 475
27 10
617 37
946 468
66 787
497 818
373 84
654 345
90 47
574 803
104 416
766 777
154 133
296 308
467 84
908 391
9 4
564 32
707 880
578 179
294 677
496 276
161 722
445 347
19 29
206 76
297 209
714 405
646 50
237 485
518 546
82 17
952 710
255 192
350 441
854 353
673 870
251 348
527 603
230 134
840 65
348 832
361 233
923 784
218 436
106 66
521 28
58 25
28 13
267 938
57 131
207 292
754 467
327 311
294 557
589 51
91 88
123 99
4 78
831 506
492 192
137 926
371 305
861 562
571 101
17 542
257 9
395 434
318 382
918 30
70 46
194 569
313 94
350 292
684 894
97 294
613 216
448 15
295 183
81 18
2 42
381 337
2 680
262 15
267 24
173 40
182 663
276 117
195 212
13 110
385 337
140 522
48 9
111 66
537 198
287 120
153 211
282 534
144 310
410 531
654 836
917 538
117 118
224 532
398 511
21 15
393 78
683 775
721 700
259 138
525 16
20 14
71 25
735 370
363 336
494 228
303 33
364 299
747 291
279 337
317 724
254 138
530 70
751 592
354 924
391 374
415 478
56 643
54 378
85 86
655 29
249 232
495 446
518 897
5 1
186 562
851 615
37 76
669 675
51 55
162 886
24 104
194 67
447 804
223 115
619 240
459 656
657 152
601 905
225 115
653 896
40 285
112 328
359 431
122 1
3 26
240 246
247 291
17 622
127 317
213 567
426 422
157 138
110 504
250 395
491 950
265 48
837 800
65 56
931 888
52 51
662 703
492 895
142 665
11 38
9 387
218 77
613 812
516 707
33 10
140 333
4 8
269 131
793 359
26 955
93 139
138 892
44 29
516 753
149 31
168 126
921 316
478 493
481 816
811 841
551 83
16 63
689 597
402 52
315 359
218 765
615 784
240 121
35 483
759 241
126 713
459 292
9 271
264 95
27 745
346 340
212 425
726 374
14 19
250 384
287 935
423 672
615 326
174 682
579 266
288 53
284 338
465 269
423 231
664 553
25 74
145 272
226 62
266 380
788 51
543 954
286 368
89 326
451 541
602 828
475 497
913 688
219 171
101 715
62 125
388 474
159 63
163 167
181 57
504 533
536 925
215 130
323 439
554 834
85 296
177 584
53 684
513 433
776 796
305 45
823 504
53 324
83 627
224 392
757 899
429 506
608 194
125 129
109 105
157 529
209 413
882 143
140 447
169 718
532 576
127 309
197 280
767 506
199 126
208 263
189 243
141 88
98 34
37 270
107 660
153 138
230 709
182 55
300 138
374 338
776 214
555 830
95 128
639 378
235 867
550 716
281 442
719 843
550 648
216 34
774 756
944 679
166 31
112 52
598 852
240 825
449 146
249 408
326 778
850 910
213 158
8 51
222 171
262 644
129 354
23 54
141 185
524 442
3 2
817 53
151 150
607 235
499 394
885 246
514 500
312 188
8 37
809 749
60 29
690 411
158 678
6 4
278 640
367 135
91 360
769 857
657 887
237 739
286 231
741 141
350 795
855 684
114 163
873 9
94 135
67 95
856 320
881 322
167 244
634 437
1 24
245 430
667 792
55 822
283 266
174 112
342 353
33 427
69 419
315 352
94 334
393 407
846 359
50 214
489 879
90 97
481 53
868 425
10 3
510 839
170 119
138 916
390 37
143 239
86 179
719 57
25 183
83 100
525 559
762 588
208 14
300 730
67 330
299 282
904 813
563 352
953 301
85 34
428 343
615 766
450 625
92 231
626 159
59 147
171 587
268 158
15 56
439 621
35 630
216 794
869 326
183 438
920 555
286 742
512 20
325 422
153 502
819 706
165 725
707 176 322
98 157
192 152
99 36
149 137
292 422
129 79
599 225
510 140
395 16
166 173
172 1
100 203
535 335
44 69
295 245
61 443
62 439
112 348
12 309
233 296
479 468
166 159
37 325
29 211
634 350
6 114
45 506
112 96
11 42
487 90
175 238
350 116
236 2
286 169
323 500
178 29
653 592
676 276
370 194
111 57
313 635
2 7
415 570
464 57
344 228
189 164
104 4
532 491
418 236
207 324
114 181
39 160
501 150
34 28
35 55
5 138
24 224
384 110
565 705
54 517
197 46
6 19
70 42
387 35
261 596
11 447
330 129
416 462
550 231
30 27
553 202
183 518
420 557
171 137
298 306
598 219
665 702
453 565
1 93
475 308
37 15
215 274
224 575
639 167
230 322
40 210
8 81
343 142
619 655
193 240
41 153
549 492
13 28
319 101
468 378
381 275
272 52
361 141
696 425
239 118
55 466
382 279
40 278
285 534
141 123
176 36
183 167
107 61
13 519
111 201
87 95
434 420
57 59
482 324
234 623
128 120
454 574
677 519
59 101
7 31
11 13
253 267
613 384
291 127
277 26
4 25
580 573
86 79
442 149
392 512
520 321
14 232
45 250
618 130
612 610
408 459
88 358
515 356
49 445
478 548
10 9
55 661
162 251
84 67
568 533
79 31
193 106
61 419
212 584
27 246
342 195
371 507
684 115
245 453
144 81
494 270
375 388
553 641
542 358
133 81
188 220
16 237
686 307
4 18
148 385
621 177
17 11
185 41
91 26
270 317
258 168
48 169
254 310
56 32
194 153
375 99
262 128
231 189
263 589
351 499
11 26
225 301
294 174
102 36
551 217
513 56
102 698
411 75
256 195
33 74
212 255
271 29
122 373
578 243
4 2
516 398
472 350
52 20
189 196
427 129
414 313
492 100
13 260
421 690
84 436
201 245
123 392
282 218
394 132
55 60
160 264
25 32
186 45
611 351
58 404
64 94
137 426
140 182
1 3
143 167
485 133
260 471
564 469
127 20
100 207
9 1
646 268
172 679
13 205
159 40
218 8
566 327
36 1
99 116
122 147
249 540
19 20
429 288
450 196
477 62
44 90
193 493
600 352
208 476
239 399
245 263
533 58
405 680
478 106
16 225
58 96
545 556
307 417
28 78
252 90
337 94
34 249
526 158
76 615
25 83
33 270
7 8
39 496
664 556
514 305
583 208
55 66
484 419
456 536
303 3
432 7
391 363
38 146
74 469
259 579
336 605
314 604
695 355
556 636
124 683
13 21
312 77
706 492
668 381
112 163
547 78
219 530
488 106
639 650
669 82
235 645
21 109
582 548
77 54
539 522
292 231
332 229
367 448
152 103
594 322
359 251
251 345
28 121
164 11
326 327
228 247
191 48
545 477
603 149
425 346
15 353
420 44
153 340
117 276
20 38
27 8
237 537
16 87
364 562
275 83
162 67
428 179
53 48
2 3
57 20
183 667
11 281
610 148
28 73
98 80
328 334
478 529
4 5
565 666
144 412
672 661
82 701
132 37
63 61
497 458
208 214
39 410
286 315
59 184
257 104
200 169
330 452
688 479
362 34
106 363
693 541
673 205
12 50
640 518
656 468
177 171
243 146
41 175
323 302
458 528
102 269
144 691
548 560
137 180
168 326
154 248
277 357
402 654
384 474
454 308
303 423
11 23
82 606
314 367
78 609
136 108
238 336
677 707
2 14
195 298
155 42
158 68
586 542
52 89
554 555
21 22
55 495
98 354
120 179
321 293
196 460
173 216
151 341
186 212
204 141
102 308
348 577
262 366
154 287
85 49
685 412
588 29
216 658
67 6
259 160
18 377
208 181
37 279
37 39
561 255
293 254
123 25
5 140
438 323
643 133
123 230
107 234
665 137
509 682
433 217
438 638
108 31
383 76
294 700
56 328
216 473
563 202
226 107
23 135
121 142
146 219
444 350
170 119
195 69
261 126
131 222
115 104
28 100
397 157
143 119
28 45
192 607
569 127
68 624
507 631
311 154
365 224
299 106
437 52
338 202
4 145
625 200
54 601
10 24
54 15
414 415
402 16
440 538
416 111
543 34
209 463
228 626
241 46
406 541
213 23
704 609
151 86
11 80
368 294
82 265
130 75
401 587
1 455
60 120
372 261
209 36
225 284
10 47
96 103
435 342
64 202
244 441
304 66
7 221
188 389
481 237
418 671
602 464
413 35
5 11
84 430
221 581
191 228
409 554
546 312
312 470
657 256
699 590
449 38
627 481
662 55
694 107
408 407
521 314
424 14
595 306
218 227
199 116
5 1
377 483
687 306
19 29
349 280
119 85
8 76
188 254
62 17
279 300
14 632
351 98
502 652
505 465
518 576
266 480
338 396
523 516
4 64
288 51
648 208
25 35
77 266
216 647
401 311
508 262
364 231
468 616
366 592
73 352
168 166
12 3
150 165
67 223
44 3
637 153
333 65
28 105
659 521
4 15
20 187
110 467
617 222
524 400
126 465
486 125
4 689
351 490
378 620
374 692
174 147
10 92
552 452
33 558
215 217
33 380
102 674
14 16
88 509
584 629
16 307
23 97
305 26
571 474
1 72
398 298
118 139
331 292
313 300
302 103
504 132
544 53
400 255
45 393
489 213
225 503
479 608
498 416
61 27
229 178
148 72
522 249
403 186
642 490
32 82
386 41
117 99
369 114
364 457
357 360
255 431
101 235
681 167
346 310
111 649
60 65
226 670
458 44
173 502
188 376
107 347
33 25
449 573
407 253
630 311
9 40
138 597
112 154
125 102
239 356
4 6
378 35
56 150
95 126
62 122
215 40
651 458
139 297
104 190
3 43
22 268
405 147
289 139
71 59
461 42
318 255
491 479
46 585
49 38
527 299
511 425
244 225
572 90
335 567
114 124
440 363
374 231
71 110
199 628
128 137
210 335
573 590
104 113
386 622
130 134
619 374
58 559
329 30
116 242
660 577
283 51
75 316
53 58
156 77
3 68
253 35
456 257
355 191
69 273
320 17
241 446
314 138
421 198
138 633
452 591
71 379
184 198
48 12
30 371
128 233
153 525
161 121
703 36
276 285
16 88
97 188
675 478
614 480
644 129
51 49
404 663
306 697
531 401
206 174
521 593
41 20
28 339
383 409
121 406
106 13
131 111
118 111
75 61
24 46
260 290
443 678
19 280
127 390
451 365
722 551 105
29 55
36 418
104 307
2 13
32 345
86 25
668 509
272 517
79 3
366 714
298 21
377 245
250 59
79 163
71 225
538 295
445 226
238 399
84 58
600 713
543 439
48 609
382 126
117 107
11 301
48 39
176 52
521 608
489 278
56 482
144 577
269 562
108 56
499 710
184 338
70 533
582 146
66 705
161 84
48 196
318 645
157 234
381 261
651 679
475 75
146 103
498 414
235 339
659 506
131 31
483 329
225 281
358 227
129 39
335 431
260 469
122 143
550 329
54 80
559 218
122 102
31 662
576 124
13 21
210 269
613 80
189 502
293 205
305 639
720 244
310 527
685 91
570 655
697 89
2 3
370 143
260 255
273 343
39 215
257 28
604 586
42 556
603 378
212 189
89 165
201 268
211 144
40 85
18 15
15 479
327 570
207 171
207 245
702 225
478 359
272 694
483 512
95 24
322 124
6 22
320 366
434 229
22 397
193 85
331 242
276 526
468 79
63 22
375 671
187 164
629 515
701 373
49 262
599 684
21 89
59 650
235 114
123 96
170 261
676 512
113 94
283 615
669 364
585 565
163 255
400 288
14 16
605 419
36 157
169 616
520 468
665 460
623 537
69 315
554 115
360 232
525 413
20 8
144 119
10 1
435 232
354 244
386 193
206 410
113 266
426 539
104 93
663 409
657 366
357 718
390 153
427 116
593 374
624 77
81 37
133 68
5 279
282 291
199 182
48 336
19 709
52 43
541 174
587 581
244 327
46 164
381 607
296 128
199 306
33 177
276 161
212 297
257 452
361 501
89 197
491 190
5 344
326 229
640 146
176 375
50 6
8 140
88 50
44 649
515 551
425 493
127 477
102 115
32 16
9 139
320 161
108 118
396 236
398 103
16 65
27 612
433 548
666 264
519 275
273 145
471 289
555 392
542 333
625 586
326 700
60 384
26 455
103 254
426 212
12 198
413 152
24 69
318 350
196 232
530 196
508 370
333 100
125 60
395 233
678 537
127 61
488 65
598 366
566 646
243 87
191 101
367 101
152 117
217 134
241 108
32 329
130 78
456 118
122 312
494 374
319 103
297 355
133 544
160 330
102 282
364 443
652 305
29 49
31 12
16 67
660 611
222 61
97 35
601 430
580 544
201 433
123 246
109 77
658 344
44 13
484 250
24 15
177 458
28 523
218 4
446 122
341 290
648 584
46 313
464 289
146 153
22 208
10 6
495 47
1 25
92 45
252 99
394 105
392 373
510 540
97 448
305 22
175 695
62 22
192 176
70 417
474 54
675 673
59 175
297 680
588 326
243 340
221 487
82 438
38 356
428 396
389 674
224 116
102 48
572 224
703 23
141 27
382 480
179 349
622 130
237 60
112 441
327 499
599 234
37 75
271 190
145 80
42 57
373 15
687 215
436 271
112 272
93 52
6 388
142 132
335 221
78 38
681 446
1 5
354 368
447 224
311 667
41 77
46 5
472 686
82 25
5 4
716 296
371 444
55 151
442 391
35 70
105 25
2 39
59 708
451 447
123 247
11 3
10 202
325 27
34 38
654 396
62 240
359 247
309 265
278 393
372 473
596 388
573 480
68 357
293 321
111 159
288 24
82 421
66 112
292 424
712 358
11 34
692 680
162 95
387 111
425 515
173 420
104 430
146 476
169 636
242 175
10 124
292 294
614 300
103 81
486 160
664 512
195 31
91 31
120 68
235 346
578 178
16 509
28 188
511 28
155 462
267 150
182 553
119 33
251 157
568 210
200 122
181 33
59 432
259 236
227 207
397 405
156 626
563 69
372 97
69 106
2 74
58 87
186 574
2 602
14 185
371 167
597 320
49 58
497 420
135 55
532 98
88 412
94 74
33 28
589 414
49 219
27 17
183 653
227 518
578 670
74 110
90 156
549 276
29 11
383 177
28 24
147 80
18 304
460 51
567 556
56 575
638 531
47 19
34 35
174 619
229 68
276 715
56 126
521 249
346 409
281 641
162 233
351 160
311 621
477 560
123 505
155 406
682 388
311 423
264 60
260 363
489 583
23 8
12 1
610 113
265 178
628 231
239 221
342 369
161 503
168 163
265 647
586 504
324 267
618 57
198 507
150 174
106 289
323 673
36 529
94 184
569 524
275 103
606 16
584 91
206 122
407 219
44 111
352 45
20 40
661 150
341 496
690 171
9 7
295 258
168 643
154 135
109 404
327 453
46 277
51 8
1 19
248 29
168 263
134 129
429 118
317 677
310 111
21 166
99 642
128 3
429 581
672 134
280 214
439 130
14 53
300 224
4 17
26 148
197 492
167 103
210 719
14 6
209 194
136 126
571 119
566 26
228 186
385 352
337 251
29 36
505 711
101 1
179 61
457 173
500 136
721 464
173 65
40 116
302 347
707 142
142 557
57 620
693 344
522 150
389 113
2 26
332 16
182 19
595 321
3 513
316 163
20 155
532 547
292 182
77 408
104 630
146 258
7 54
8 7
302 220
34 37
56 36
524 158
244 4
41 11
283 16
210 57
66 7
223 454
564 449
88 99
3 449
77 216
450 18
110 180
96 19
98 84
59 33
656 64
514 395
617 7
317 194
414 242
183 165
459 249
262 311
169 144
68 22
539 592
110 722
683 283
437 193
455 463
65 205
419 188
116 318
411 213
285 165
627 219
84 328
365 256
59 121
64 18
11 42
113 481
506 185
308 44
545 318
490 142
589 631
70 535
152 171
26 221
270 228
19 472
312 415
226 504
143 223
466 251
278 38
249 47
118 138
194 192
42 303
470 388
8 4
380 275
364 193
149 134
536 117
362 115
636 644
61 16
611 557
223 402
18 150
369 651
401 161
65 633
76 38
195 485
425 11
64 379
704 223
691 597
314 179
286 59
298 534
348 75
696 247
122 204
416 17
236 202
114 78
132 13
31 632
345 422
30 22
109 230
169 220
516 156
22 43
68 72
465 398
128 172
374 202
253 88
152 284
4 15
102 178
594 309
508 590
49 528
561 143
203 35
637 348
90 73
600 344
311 565
104 107
48 160
213 190
635 157
6 2
36 189
688 491
698 385
27 201
537 294
706 695
11 45
454 510
422 579
9 3
186 22
238 170
143 226
380 546
717 335
10 342
299 281
334 266
71 34
139 391
290 170
256 467
158 92
214 13
73 2
558 329
361 42
271 634
93 376
60 50
478 699
137 135
210 461
40 100
323 163
274 215
83 78
83 591
170 79
53 190
531 208
689 655
378 24
21 353
552 325
231 166
440 229
238 287
295 403
66 256
896 414 711
894 455
276 624
719 247
236 420
144 280
627 122
615 639
512 190
647 422
131 208
654 319
720 115
277 612
122 666
185 97
523 780
141 632
18 14
262 28
533 429
48 118
243 523
355 269
92 683
11 37
585 695
146 625
2 4
493 110
139 78
295 830
698 167
126 293
315 337
378 429
494 109
177 160
781 117
438 1
626 588
607 140
13 178
29 47
565 566
301 41
306 139
4 8
177 192
99 79
46 88
767 178
48 696
189 11
759 751
350 174
522 413
314 211
565 55
53 856
251 344
79 37
6 191
826 525
26 276
2 124
73 401
83 22
233 166
431 176
27 49
2 357
110 89
411 358
120 492
177 892
61 65
277 585
291 165
532 538
439 671
575 41
27 895
21 2
82 373
788 860
885 718
255 46
347 188
613 192
421 316
27 41
359 376
28 19
27 277
690 259
265 109
439 623
189 214
119 681
318 670
652 47
203 200
7 534
532 747
65 176
91 117
119 37
85 245
746 325
305 777
136 125
125 114
281 215
248 11
486 433
289 164
222 445
12 16
355 563
163 796
432 188
587 748
814 710
212 588
58 592
55 166
70 416
141 524
84 193
16 140
198 180
618 69
138 30
190 496
545 6
551 180
435 198
10 141
396 283
684 338
40 378
489 218
7 11
544 584
794 516
12 108
166 530
337 393
272 758
717 21
20 92
459 440
406 268
2 221
94 442
440 394
510 306
2 5
370 142
299 26
453 517
105 366
559 467
523 610
36 195
576 680
415 118
20 519
286 339
97 145
201 98
165 369
676 734
97 204
638 674
106 131
425 80
11 32
67 264
244 193
273 136
208 643
542 74
226 18
320 326
372 98
385 865
812 216
175 386
420 864
187 475
169 308
131 235
162 186
286 427
38 616
385 198
71 791
722 462
55 787
501 442
605 438
375 139
326 424
774 681
356 395
323 621
70 43
458 350
604 115
167 121
603 522
398 49
34 171
275 449
392 557
167 263
17 102
243 53
789 862
238 21
49 190
784 566
851 562
274 706
27 6
81 367
70 333
315 384
7 464
150 124
47 315
57 853
43 38
319 11
147 173
143 48
661 237
175 422
847 421
353 664
64 18
620 285
160 343
35 473
580 74
678 475
792 547
3 10
124 503
855 756
198 527
838 651
146 87
268 161
363 212
756 242
167 408
637 368
324 880
247 419
788 571
886 242
7 502
103 48
186 188
874 32
40 317
715 58
861 560
101 13
252 867
1 14
33 45
417 532
601 353
776 400
23 10
639 839
144 646
5 210
644 20
687 513
303 188
418 57
77 172
795 489
354 62
341 167
869 582
178 577
406 529
391 682
250 460
22 29
231 6
12 36
84 19
196 132
209 4
152 123
126 24
362 263
10 89
8 60
765 476
443 245
685 392
315 537
9 199
9 3
202 232
888 167
622 198
433 697
128 122
213 219
250 259
97 292
75 116
368 95
10 76
811 37
805 770
441 660
77 20
22 55
269 246
334 198
133 824
165 16
155 497
335 635
120 23
835 623
223 195
252 655
207 131
251 414
141 498
16 252
261 182
255 325
292 677
256 554
241 148
116 151
761 585
138 474
210 253
714 255
268 484
76 94
92 737
583 256
263 302
271 310
422 590
181 173
412 91
182 331
309 461
228 821
712 54
667 15
842 343
797 209
103 107
628 621
324 450
180 46
665 542
813 194
17 16
160 278
818 353
85 41
490 459
516 457
388 243
238 361
724 100
531 168
2 61
81 630
116 428
5 6
176 699
136 520
541 530
166 589
67 17
569 470
123 88
854 167
331 526
55 284
56 24
539 130
220 721
400 307
611 381
4 1
157 215
275 9
20 544
653 766
142 162
211 294
196 844
309 465
40 651
27 487
634 669
505 7
157 21
469 219
345 286
69 374
155 688
74 8
231 356
553 196
358 317
377 283
320 288
13 183
193 216
183 547
449 488
108 446
240 232
511 782
62 48
427 609
52 39
327 90
54 472
10 12
450 768
82 322
841 441
309 391
133 73
8 22
236 799
510 745
185 568
703 318
476 432
141 383
115 288
283 178
749 83
861 870
40 257
477 294
727 820
149 437
508 606
148 364
455 857
471 460
153 74
659 74
322 453
2 90
42 550
350 365
93 24
61 95
8 230
380 131
744 441
351 293
675 241
146 447
375 413
466 771
9 19
641 398
35 562
76 786
338 65
757 315
793 199
810 435
65 115
50 5
135 9
32 48
450 692
160 126
581 829
543 536
770 169
138 225
556 206
58 10
68 29
52 129
276 586
217 205
296 220
725 305
757 822
1 54
727 395
263 298
512 560
645 72
15 5
44 10
12 75
117 175
614 493
213 105
730 671
83 212
881 274
348 320
100 548
118 595
297 252
119 591
91 218
808 439
10 222
187 171
562 741
409 327
63 229
852 482
6 73
826 859
101 184
446 576
186 426
300 84
328 309
422 636
211 371
750 311
72 33
362 633
137 99
55 237
871 574
58 394
802 467
29 250
197 657
144 161
49 147
71 267
194 167
506 46
815 24
578 416
65 144
701 455
78 111
435 509
545 694
228 24
206 42
299 789
343 817
280 882
87 44
28 227
823 401
13 260
693 325
251 31
2 286
457 404
274 179
3 1
36 466
245 649
872 8
382 27
561 207
134 89
120 132
819 470
52 57
67 98
142 80
404 297
200 691
206 211
104 64
512 608
286 827
307 594
751 194
448 377
800 328
50 439
11 149
581 136
840 211
430 713
329 673
9 13
582 52
353 31
168 42
644 806
14 121
890 460
479 271
290 191
704 674
528 409
434 485
179 47
495 34
876 772
235 521
579 503
803 318
75 417
3 6
573 512
755 442
732 265
206 336
708 184
598 561
29 33
330 158
760 217
219 467
5 71
878 716
868 401
249 155
25 26
193 764
108 778
231 816
893 292
731 836
39 26
64 97
809 326
91 1
765 785
7 4
403 77
45 392
117 631
573 735
483 325
31 3
6 410
623 873
10 34
270 282
491 48
147 470
142 567
92 164
795 848
552 256
733 362
33 602
689 238
36 109
147 242
86 8
843 155
304 276
615 387
728 603
17 113
272 511
360 226
672 438
668 380
295 276
327 389
184 640
213 481
500 204
31 197
170 555
30 114
503 726
663 320
700 665
14 53
833 188
49 59
783 548
87 390
572 479
305 309
149 200
617 537
130 381
156 513
883 11
170 168
96 27
173 570
13 804
174 135
707 10
845 57
515 510
205 247
80 15
154 57
197 397
166 313
34 648
499 507
202 3
638 752
256 480
246 107
122 7
61 66
2 593
658 479
739 499
849 56
825 140
318 58
647 650
284 742
525 164
130 29
787 875
3 514
465 731
264 279
834 783
540 310
71 81
26 224
775 498
5 312
832 241
858 405
123 638
319 558
878 879
324 29
118 335
45 402
176 619
282 359
718 359
454 136
235 379
184 285
562 656
451 34
212 270
743 382
242 482
884 744
535 122
574 562
46 32
729 676
20 1
468 385
63 49
6 205
305 115
407 189
112 66
332 508
331 564
252 504
546 112
107 258
22 452
736 251
599 139
631 716
19 25
98 772
98 642
31 51
130 332
321 702
223 256
63 287
798 383
88 462
249 441
629 575
117 709
153 597
3 340
40 35
686 313
94 148
434 17
837 352
20 127
518 252
773 473
42 28
69 25
676 419
49 159
571 517
877 448
596 245
499 80
46 896
463 54
106 22
54 254
33 444
56 220
828 204
88 349
194 236
272 32
65 710
846 260
117 478
433 224
346 164
12 30
399 72
249 738
275 754
600 520
741 831
44 78
323 137
239 93
587 16
288 352
356 436
529 779
14 35
100 77
169 112
154 866
155 132
453 536
321 135
371 740
66 311
387 228
430 335
705 138
319 653
405 3
711 463
634 124
17 105
762 503
23 307
38 14
455 86
679 122
891 117
807 115
329 204
753 445
662 635
266 801
67 163
423 90
266 40
125 889
769 475
723 88
74 850
337 887
456 194
14 158
271 234
39 82
94 156
182 27
763 573
234 22
863 636
790 170
375 549
10 24
196 316
95 342
638 416 300
64 230
158 459
208 85
80 205
298 498
27 325
103 107
206 86
636 25
69 343
29 2
61 3
408 513
383 282
393 276
137 35
95 366
12 1
187 14
468 395
579 25
27 36
490 156
538 290
111 196
84 523
466 212
277 118
66 2
185 101
110 308
549 548
307 95
140 280
423 472
387 307
1 9
471 76
521 509
449 573
614 259
28 53
11 115
394 178
148 382
17 97
5 318
458 426
88 5
353 152
86 147
57 445
557 21
136 501
361 304
117 311
224 142
215 211
216 295
608 316
430 169
119 163
159 528
290 359
271 172
270 158
259 434
159 386
286 45
179 115
182 297
32 44
67 84
5 457
131 567
70 61
578 234
153 83
622 116
265 355
177 98
184 89
25 141
241 206
124 374
203 5
261 337
255 90
564 11
260 179
23 285
536 231
389 299
637 510
26 132
110 406
6 309
537 384
172 160
624 353
416 255
11 256
372 384
69 239
137 253
461 351
388 7
238 240
89 433
405 201
207 199
362 415
213 42
176 276
38 634
1 21
462 249
151 173
90 272
85 60
193 235
268 107
502 186
62 102
30 155
545 16
427 229
505 107
397 312
146 18
148 612
509 73
217 220
375 332
576 295
122 118
160 440
591 395
8 2
304 271
7 25
103 32
127 199
300 334
323 483
65 37
329 279
3 2
175 15
52 559
162 51
72 183
401 220
550 443
7 284
580 160
60 113
397 403
116 593
339 84
107 273
628 172
245 351
22 266
296 287
25 96
572 155
4 1
111 64
194 263
419 589
165 35
99 335
46 74
173 546
9 56
197 97
237 314
470 440
121 621
10 34
379 2
131 100
47 52
386 420
3 1
54 166
14 3
333 318
425 560
7 38
489 19
91 435
223 111
283 76
53 618
60 40
11 15
312 228
178 8
79 135
141 599
167 112
362 381
31 77
217 407
163 218
211 185
219 12
286 319
518 235
32 279
372 145
82 631
272 422
346 330
105 221
39 43
232 110
174 252
147 281
384 602
101 130
512 27
291 169
452 44
22 23
257 177
283 551
306 484
145 46
15 17
23 188
25 92
454 109
53 200
194 259
51 48
481 342
16 144
71 201
45 71
3 58
246 48
344 337
6 24
17 47
605 389
248 14
198 162
190 16
385 41
555 283
56 120
338 552
168 83
148 144
317 137
508 617
194 469
29 86
76 73
167 176
335 357
629 577
126 330
194 507
3 81
192 99
475 583
100 114
6 13
269 145
225 323
101 446
413 270
265 29
80 30
181 156
596 577
20 54
104 217
249 211
577 503
19 7
295 558
173 328
148 400
266 442
499 127
587 2
295 373
34 87
607 29
171 88
117 123
225 251
380 609
231 89
610 260
37 441
290 163
116 322
193 158
575 291
29 95
41 288
212 92
112 226
60 306
381 548
401 494
521 574
627 286
139 53
24 42
208 234
381 594
152 118
600 265
134 11
354 51
321 130
69 13
493 66
74 119
26 23
365 286
345 474
449 28
216 581
347 183
179 396
355 362
94 71
57 27
186 236
354 595
5 350
487 273
65 292
363 570
362 562
563 328
418 291
8 64
620 343
3 10
1 50
257 390
4 18
108 62
149 287
482 187
568 20
481 544
506 58
98 28
2 37
72 151
271 584
117 47
417 21
130 247
592 57
265 376
289 165
543 67
160 76
288 531
542 91
360 208
67 299
124 27
51 438
367 126
52 109
541 10
41 59
27 67
467 446
26 105
370 230
42 402
138 109
100 58
64 480
210 81
527 472
448 437
289 324
15 40
84 332
426 85
423 74
78 73
486 296
586 437
167 313
243 207
111 195
54 356
281 348
41 3
52 209
630 31
68 50
53 525
63 36
203 278
457 465
590 338
83 4
119 451
172 342
4 5
80 101
442 500
135 229
613 500
294 169
90 191
267 67
176 341
250 75
345 4
25 45
355 561
110 88
38 62
156 59
11 553
163 428
149 189
203 282
625 296
494 616
336 12
163 414
28 7
369 478
112 46
104 12
444 241
242 24
68 75
46 419
588 473
27 431
533 375
63 275
13 16
371 102
79 4
529 486
566 111
233 213
312 432
463 163
399 456
133 114
410 181
327 197
255 380
164 110
495 15
475 112
253 526
496 130
464 10
302 293
228 57
516 381
23 615
55 48
262 239
476 334
541 632
436 363
392 349
606 313
291 301
86 89
51 91
197 582
5 2
364 155
326 309
234 633
59 73
33 12
287 492
409 176
305 221
254 109
320 316
313 377
52 412
82 51
10 556
216 4
398 210
585 321
131 227
597 45
135 174
259 510
225 176
20 16
161 114
404 333
22 11
391 277
99 34
214 191
69 116
339 437
159 108
129 100
189 603
173 258
491 46
25 27
604 437
455 153
238 93
331 202
443 379
485 196
128 102
126 104
540 163
479 78
50 298
274 121
189 264
322 411
524 410
369 238
62 157
27 477
17 31
31 93
626 365
439 304
425 328
37 46
503 535
21 32
213 450
106 55
11 9
150 121
323 515
362 424
421 311
395 519
338 274
7 5
47 473
330 340
169 55
35 32
571 303
447 296
131 315
18 39
514 235
171 303
100 517
300 30
530 121
207 429
503 522
260 399
312 378
204 38
508 488
363 77
167 244
439 565
532 249
7 90
182 80
356 569
202 83
16 127
94 125
176 261
539 425
408 302
123 149
143 84
611 50
72 51
21 635
368 72
308 316
140 84
511 338
192 547
310 245
352 31
237 150
488 67
2 186
623 540
504 182
534 316
226 619
336 554
638 564
158 96
497 131
126 194
227 503
49 26
23 30
358 193
334 598
349 74
48 3
180 83
244 520
56 293
76 121
48 453
154 98
121 142
183 222
136 89
460 313
358 395
297 601
6 5
245 64
16 170
45 118
781 33 470
283 218
204 349
585 392
53 779
458 423
693 773
484 5
220 172
512 444
10 1
286 525
380 691
599 58
458 717
635 111
163 58
218 580
315 171
502 745
193 188
411 75
66 285
450 291
10 5
75 142
444 100
47 56
539 727
403 583
33 780
178 607
97 114
579 712
116 781
42 173
256 10
87 25
452 584
5 2
394 215
189 532
143 676
592 730
49 89
145 614
263 152
54 454
146 403
470 377
625 367
48 4
359 159
29 27
87 192
312 175
3 21
155 286
198 50
338 247
527 416
58 56
374 327
350 608
659 114
560 481
8 108
654 587
304 83
54 20
495 336
698 430
100 13
206 13
92 388
9 118
406 744
245 336
59 72
36 758
136 122
23 22
119 246
7 251
22 224
684 194
47 36
487 83
63 186
748 621
230 67
110 375
47 194
189 277
559 111
297 357
52 50
174 296
284 571
2 16
467 66
195 221
133 42
33 36
181 348
384 385
63 663
752 108
610 293
235 301
191 226
711 606
399 134
10 503
274 219
30 13
448 85
58 267
48 55
678 118
18 9
30 588
106 475
778 404
388 701
628 521
732 586
229 557
201 167
31 68
33 545
22 13
156 2
51 39
570 227
273 195
673 324
420 508
185 35
111 64
653 500
353 537
201 622
397 358
534 767
253 7
402 291
453 73
658 560
381 395
435 183
67 170
421 46
719 402
10 105
389 679
82 464
177 236
7 4
61 576
67 656
433 493
345 215
86 68
42 106
17 1
696 469
371 123
426 250
520 566
396 226
132 86
728 326
124 54
178 179
354 246
406 361
447 690
582 492
7 84
9 6
207 368
412 30
344 184
144 197
674 279
150 764
703 378
643 626
196 303
721 676
700 86
637 619
737 169
7 14
21 50
612 626
203 452
6 20
337 156
146 362
95 530
775 75
93 21
473 747
46 90
750 222
83 80
170 202
181 158
35 57
140 215
746 415
12 255
18 244
188 58
592 448
25 131
509 577
260 146
89 116
381 456
123 102
164 177
187 233
12 2
380 539
66 41
115 139
292 140
587 313
431 196
85 480
129 529
187 99
242 40
67 38
37 16
754 528
165 427
174 297
647 500
265 556
648 541
723 718
190 163
119 563
174 113
144 604
147 158
46 36
31 499
11 44
735 640
212 765
445 329
546 217
6 718
263 516
204 156
166 451
670 35
125 398
250 156
78 88
147 106
262 166
378 311
618 103
651 1
498 716
16 33
240 31
31 268
377 459
741 574
12 49
420 235
633 578
12 460
9 708
669 273
43 439
756 154
335 185
41 82
363 43
295 186
246 324
120 352
54 704
317 108
552 431
380 36
153 87
248 222
258 151
19 35
186 372
511 9
218 419
296 443
255 491
433 10
2 11
90 507
394 492
423 149
125 212
589 324
8 2
342 346
389 436
60 15
545 675
163 356
38 36
301 483
186 353
575 568
140 121
240 294
77 440
383 474
595 753
281 13
151 254
225 102
417 5
328 153
567 351
94 27
259 45
322 155
759 653
212 269
62 4
535 227
219 462
66 275
279 129
155 271
130 50
665 165
453 600
11 26
615 516
96 517
579 174
193 429
81 415
37 150
138 51
547 329
766 700
39 19
34 302
496 201
198 725
534 14
382 227
477 244
11 241
71 22
734 611
135 28
231 133
231 409
31 41
42 437
167 31
299 158
7 325
332 330
343 126
326 136
642 531
8 6
122 57
287 187
211 14
21 145
561 229
562 123
358 85
137 127
59 80
697 319
200 114
107 6
482 148
138 289
128 80
413 52
217 381
702 621
149 105
176 66
76 10
469 505
776 627
140 644
652 600
706 187
165 257
175 62
40 120
620 404
38 141
344 763
115 99
272 549
328 379
178 481
323 509
395 408
366 103
98 53
508 606
42 171
30 208
131 144
357 501
86 383
359 761
365 494
202 291
238 78
465 196
605 528
401 1
100 410
627 404
473 412
365 41
768 470
35 172
551 45
390 23
235 300
108 714
539 694
166 80
342 769
43 520
73 729
476 15
13 11
32 536
376 71
37 43
449 433
94 284
367 48
452 645
69 44
65 26
98 683
197 318
177 334
139 518
355 20
609 246
23 61
114 320
442 157
178 447
227 165
254 479
606 687
112 90
243 524
418 522
91 20
28 19
531 134
30 333
93 629
211 692
86 468
438 14
293 668
12 113
210 177
526 94
233 661
101 127
157 52
617 164
133 199
72 305
9 3
95 1
634 19
49 53
99 18
117 169
371 672
300 373
6 25
519 770
118 154
22 168
553 471
173 183
289 340
261 243
542 270
140 455
281 500
40 7
310 283
184 121
693 109
18 165
4 1
180 554
316 256
24 740
581 83
302 350
35 219
62 102
33 234
572 190
339 21
176 733
229 181
343 601
7 85
216 389
52 81
521 165
407 107
660 572
578 501
159 162
657 312
75 22
177 739
448 624
653 699
311 161
321 212
309 273
667 409
8 387
506 33
43 180
70 4
488 153
218 135
97 47
18 342
517 564
558 182
75 189
8 104
536 682
95 400
377 249
621 371
502 446
313 369
64 53
469 135
207 125
709 777
497 309
707 219
333 666
457 441
134 86
223 115
298 292
209 45
82 182
384 330
235 192
459 705
38 195
468 751
513 105
15 9
665 736
329 187
3 7
369 418
153 428
405 720
228 89
738 51
125 118
170 196
523 139
510 402
93 361
250 574
602 385
585 646
117 26
514 271
319 221
618 639
613 190
414 356
247 139
683 715
58 110
528 309
135 461
431 713
254 276
595 510
175 266
293 190
160 51
34 20
434 244
484 591
541 134
44 148
216 61
41 78
163 243
264 76
596 401
66 129
595 650
90 550
434 573
681 266
33 63
726 81
504 124
574 685
688 755
83 533
425 242
4 24
21 73
476 774
85 92
771 249
564 603
189 213
341 230
96 71
406 593
396 486
272 38
472 24
647 760
312 416
89 232
370 133
351 179
126 90
479 724
89 424
8 31
485 544
38 636
280 60
157 386
30 79
456 540
731 71
743 444
128 446
152 102
446 471
74 41
430 117
616 106
89 155
742 638
147 151
56 538
103 11
178 141
288 86
749 246
45 39
530 710
229 695
680 333
270 154
270 308
548 273
594 631
26 466
214 49
555 259
477 478
709 136
130 569
136 331
638 517
57 159
13 19
74 568
161 106
542 640
348 630
594 119
177 327
423 611
392 63
598 73
128 641
27 565
27 26
265 261
11 59
245 196
461 655
697 722
24 632
322 490
155 664
340 347
314 662
580 762
119 432
88 119
314 619
360 46
58 623
9 109
191 37
205 29
164 16
250 671
190 441
218 313
95 203
543 193
105 222
119 489
515 203
244 252
68 330
41 217
757 132
51 146
519 274
136 306
391 247
106 278
77 64
168 323
32 22
101 67
609 677
70 282
110 239
314 85
597 369
143 123
282 405
24 237
568 590
772 162
113 422
129 249
321 463
649 602
364 225
307 93
451 586
404 96
227 290
689 472
107 121
498 76
7 688
169 686
42 10
165 393
223 485
187 612
502 380 208
173 24
186 242
58 206
93 69
487 298
53 73
26 88
285 94
190 244
295 311
76 119
127 253
184 403
51 6
472 425
92 6
372 240
120 317
152 94
445 264
115 51
205 374
32 16
10 8
197 56
121 60
194 97
308 183
389 242
246 435
222 145
216 138
471 242
464 395
139 2
46 12
127 68
212 120
12 390
134 131
184 327
305 143
301 438
362 44
130 132
384 151
79 250
56 5
6 5
5 10
230 75
383 87
271 253
181 347
296 274
82 118
137 1
197 241
91 110
292 18
461 320
426 64
382 133
12 7
201 336
150 38
318 356
257 139
290 332
190 166
26 126
3 25
39 111
293 137
482 269
149 27
48 414
34 443
13 16
415 403
137 207
399 148
282 313
28 22
16 17
191 116
126 188
52 72
47 227
124 79
185 116
143 131
22 15
217 27
33 120
100 78
192 113
221 393
457 11
150 204
37 28
161 20
48 276
254 122
143 261
147 367
108 42
315 150
126 201
114 168
24 9
410 96
58 366
130 125
47 5
248 493
14 67
110 309
20 256
444 247
94 38
4 19
232 348
248 478
103 31
90 34
85 36
6 4
56 138
127 162
27 50
165 440
229 23
344 346
295 479
425 303
175 97
286 276
9 70
63 87
28 345
446 447
3 8
450 373
436 283
354 71
295 95
449 187
94 102
228 196
321 198
2 4
402 265
289 197
24 196
132 140
42 484
22 417
47 95
35 11
198 122
75 238
156 200
376 164
2 236
156 99
407 82
24 31
413 270
93 113
151 127
42 481
304 328
480 309
398 352
125 169
30 378
63 40
183 25
42 21
431 3
8 83
34 74
421 98
439 400
171 89
121 339
29 23
295 391
14 304
256 318
167 249
177 473
312 309
36 91
259 326
265 253
397 54
141 373
22 352
112 80
225 204
263 242
34 36
122 176
243 177
474 159
491 283
401 308
186 91
115 125
343 90
18 5
306 237
30 280
101 246
37 182
60 437
258 40
370 15
50 363
137 446
67 131
1 9
423 420
28 214
52 485
59 184
19 300
105 30
239 147
181 279
69 189
7 1
69 40
264 78
266 228
57 22
269 175
174 133
20 27
102 145
156 357
98 136
63 133
1 231
202 153
33 27
476 105
17 477
109 87
141 251
34 252
226 433
154 90
86 65
405 29
13 427
355 314
434 278
10 13
114 72
247 302
89 255
208 63
129 56
15 61
55 172
446 496
148 43
215 68
20 2
41 8
255 262
2 14
68 278
31 39
2 23
348 400
102 166
486 431
108 418
147 160
238 273
432 109
76 39
43 4
147 139
297 130
24 387
404 286
163 93
16 135
247 67
14 44
77 17
21 159
359 161
379 102
350 203
53 17
298 59
497 218
22 360
80 7
122 165
165 170
428 77
468 488
4 21
328 499
69 187
146 107
501 86
153 109
218 498
294 21
11 59
45 54
179 165
37 232
91 97
83 334
327 364
385 339
40 78
96 67
28 177
10 489
213 335
174 193
282 204
37 210
490 215
365 131
277 51
322 369
104 144
192 341
104 15
301 200
19 55
441 56
158 181
90 157
116 240
52 15
358 453
106 288
32 64
62 1
22 310
451 351
5 26
89 68
211 180
440 460
342 252
307 64
345 422
93 220
234 207
76 337
253 408
210 281
331 309
22 158
412 218
4 66
64 416
308 454
192 465
115 272
340 284
60 424
96 235
224 109
200 245
69 248
285 322
76 155
121 164
71 46
39 106
70 142
411 303
448 429
419 257
51 299
49 36
244 459
190 319
286 469
15 283
213 324
199 51
298 462
406 55
40 24
170 396
361 87
483 380
75 68
314 23
325 103
37 394
261 270
344 452
41 81
109 128
329 35
100 221
47 58
500 476
209 108
219 226
380 155
54 79
2 84
231 409
425 492
495 263
420 323
115 218
349 334
205 26
213 183
297 303
368 247
171 381
61 178
219 169
358 336
371 111
203 55
9 3
86 388
67 123
77 237
122 375
267 105
316 315
200 330
205 351
87 107
494 178
456 343
40 98
275 109
281 287
117 55
392 466
242 291
82 468
180 89
192 195
231 259
68 62
38 29
72 233
392 316
82 65
141 113
122 76
344 25
94 333
297 455
7 101
60 59
8 475
27 30
467 345
191 323
338 289
320 212
268 137
228 442
163 377
167 34
36 48
386 395
7 2
45 470
1 15
2 11
502 466
34 45
65 21
54 116
263 290
174 223
291 458
60 429
463 206
353 85
260 105
106 274
430 384
99 66
284 154
4 34
386 10
535 530 151
250 504
40 270
364 453
260 98
4 7
301 313
301 477
505 510
127 47
184 450
4 63
112 430
56 234
394 343
34 12
417 184
391 460
211 10
452 57
287 218
184 158
181 480
340 22
398 166
530 363
94 301
11 486
147 172
106 392
88 485
106 361
39 327
26 355
341 447
38 11
68 105
69 123
62 11
51 60
116 520
507 323
72 71
470 144
346 123
264 238
88 40
78 23
186 114
56 70
461 139
295 179
54 7
281 182
374 39
22 131
7 8
167 357
91 386
77 85
44 68
349 185
333 52
19 59
49 43
256 14
5 16
531 229
2 1
125 471
96 61
429 318
390 422
521 354
376 153
290 3
207 414
145 240
112 268
457 246
123 239
34 175
183 31
215 425
111 97
203 229
135 43
210 388
384 198
21 6
35 401
11 332
173 129
94 472
118 170
1 9
439 476
386 487
133 71
1 11
474 193
294 227
104 55
4 83
333 434
491 219
9 44
323 233
200 257
32 194
205 373
176 235
255 208
435 341
272 99
1 380
508 160
409 362
75 195
14 67
11 26
73 38
321 104
50 291
165 153
180 19
215 144
27 12
360 175
5 14
529 397
335 267
168 473
251 147
6 168
94 98
459 427
247 368
424 45
418 438
273 381
216 47
164 178
30 157
77 114
55 3
522 494
106 145
38 119
13 22
170 185
443 403
192 278
4 1
511 222
182 142
23 8
209 247
293 268
366 51
153 253
197 277
279 341
342 396
39 13
282 387
432 12
266 163
238 224
330 12
93 152
44 446
306 246
298 6
42 513
203 23
274 200
436 273
482 55
48 231
458 364
515 61
157 334
428 97
56 21
92 94
407 98
57 106
454 294
382 79
61 19
43 143
357 500
137 41
196 159
39 275
353 61
389 524
197 114
123 279
65 113
478 175
358 46
15 8
118 210
146 17
111 130
2 288
116 237
27 43
326 269
139 80
50 262
303 58
527 402
197 426
114 212
101 67
104 158
16 117
468 411
201 80
345 42
223 172
64 46
142 59
267 79
263 107
19 17
391 78
413 25
39 45
138 137
12 286
302 465
75 254
449 369
68 132
166 162
13 11
155 95
385 77
76 27
25 30
144 142
116 29
327 455
319 144
45 232
25 9
406 277
35 9
157 331
51 80
282 535
431 258
463 214
50 107
53 209
257 322
456 234
204 143
84 151
328 343
490 182
12 1
58 187
242 448
243 342
18 29
3 97
505 40
18 46
312 201
75 31
108 1
292 53
207 17
276 297
162 6
162 337
271 73
171 35
24 86
344 197
67 444
41 42
7 18
352 181
214 119
279 329
35 433
120 36
383 78
4 33
168 502
66 102
467 76
236 223
90 5
20 19
242 10
370 203
445 58
451 87
245 55
190 125
209 318
71 26
137 408
57 219
67 503
212 498
47 27
11 24
100 58
71 325
86 464
296 277
258 201
273 207
125 97
497 389
361 412
176 74
113 148
481 214
154 120
171 225
139 252
423 222
75 222
243 154
292 315
250 211
74 37
67 420
305 23
383 479
111 115
122 11
230 148
22 311
309 293
10 5
167 115
115 283
79 93
158 284
512 78
466 304
90 509
289 152
139 163
200 152
403 57
51 9
40 14
405 116
40 362
516 534
164 310
114 228
323 437
315 339
496 489
96 338
50 29
16 440
161 469
90 418
43 91
285 38
33 81
49 189
148 259
400 53
121 317
363 9
8 324
17 52
32 12
228 375
134 59
56 124
362 506
88 248
78 202
126 4
296 351
525 118
123 249
69 45
87 483
60 218
389 100
28 4
5 136
519 190
185 316
53 66
215 302
247 369
241 37
265 223
90 109
182 307
141 89
339 421
95 88
88 103
376 390
348 59
226 193
37 17
194 378
138 161
79 72
169 24
150 35
2 3
57 6
146 404
206 176
374 526
244 304
399 270
300 488
147 308
117 371
234 484
129 106
213 127
161 393
276 214
103 220
532 235
112 21
66 261
462 40
3 4
6 1
350 91
217 52
43 65
85 427
118 199
128 84
64 160
185 205
523 124
138 198
258 269
87 67
371 415
518 336
31 533
54 336
320 80
442 217
155 208
223 439
164 18
42 147
379 168
237 314
77 73
36 9
246 223
298 299
4 17
419 247
313 395
12 300
193 80
16 244
15 174
307 364
351 411
41 31
516 185
140 120
347 192
125 179
249 494
293 492
372 209
8 514
74 328
24 31
149 282
177 166
47 82
161 233
5 1
118 85
377 228
89 17
42 397
121 57
135 149
495 487
356 203
493 233
59 221
84 46
181 71
158 224
475 231
416 378
410 82
517 88
48 11
489 147
359 221
153 80
499 474
367 237
258 365
183 192
227 93
156 116
90 92
119 280
144 159
528 240
58 51
191 127
441 59
79 188
68 99
109 110
354 142
402 63
52 53
255 501
662 413 431
253 559
366 483
11 344
75 46
77 312
628 395
368 234
283 92
80 447
116 172
303 214
643 124
569 398
409 482
96 109
89 106
153 79
576 253
525 226
575 28
261 136
35 307
173 175
101 55
121 97
64 28
371 18
209 110
237 219
241 86
284 531
280 148
167 458
411 515
652 188
177 523
306 637
69 51
536 157
122 266
394 616
518 505
319 239
88 296
218 412
99 144
172 522
526 267
491 228
468 500
441 99
172 214
188 353
85 232
365 248
644 641
336 59
179 140
128 256
375 151
212 210
312 320
97 423
287 223
58 40
49 524
403 435
92 107
224 149
103 139
650 602
213 185
557 241
44 5
197 407
10 14
21 361
65 216
305 595
1 52
161 18
619 57
221 249
6 9
8 2
277 174
510 183
427 440
196 233
230 215
113 63
2 1
370 598
63 251
470 168
142 50
335 225
538 160
115 93
414 355
62 21
282 425
405 328
219 129
271 369
426 10
253 66
45 51
28 187
53 200
13 9
362 413
4 57
115 123
98 56
391 19
457 139
111 52
186 657
159 146
521 583
189 72
548 491
134 334
324 309
39 551
241 348
1 3
149 144
514 645
274 318
54 59
456 230
230 269
419 424
463 116
482 577
120 511
72 604
96 135
90 451
207 499
263 205
484 622
150 15
66 34
454 11
20 11
471 425
416 85
394 213
96 183
166 61
316 79
427 638
70 12
494 248
112 76
468 313
95 286
265 244
159 182
380 627
542 95
25 220
63 148
356 367
197 169
655 105
2 3
2 18
177 611
173 404
7 5
137 143
198 133
110 51
5 192
135 402
378 327
140 99
3 34
49 89
4 42
4 21
182 352
359 78
660 658
414 659
155 196
115 257
26 358
41 201
350 484
389 306
215 149
445 126
493 16
274 218
44 529
333 48
346 442
433 147
157 152
385 330
10 23
85 32
102 92
654 528
244 345
218 46
608 362
597 126
508 172
590 137
53 18
572 487
419 326
262 124
171 497
556 71
36 431
22 6
96 258
362 193
34 255
77 134
489 429
14 533
225 653
507 465
55 449
274 537
48 231
417 400
29 181
51 297
126 84
103 199
23 65
544 469
287 323
250 38
527 272
558 35
400 155
58 114
38 203
356 53
43 18
236 31
103 300
36 91
33 430
125 16
39 31
162 149
238 204
357 292
407 448
550 410
532 128
459 327
329 415
313 561
514 223
145 54
285 166
624 225
19 571
5 55
275 80
249 276
627 647
452 455
613 103
100 596
168 76
394 396
341 429
599 406
34 282
46 171
343 588
33 8
87 228
35 434
165 615
246 584
10 40
58 118
466 406
77 74
160 121
60 16
438 295
242 332
36 338
641 299
189 331
621 105
172 306
491 591
175 437
132 16
160 480
158 147
2 45
48 83
533 610
47 6
341 252
164 342
370 247
119 180
117 625
178 27
343 263
4 3
108 141
386 2
268 121
264 57
284 113
617 249
353 552
212 260
328 301
133 91
103 444
560 489
635 271
383 113
225 185
65 128
568 18
104 399
146 1
151 188
302 360
294 410
299 487
17 117
582 373
78 630
89 247
103 61
488 115
305 58
506 232
89 99
399 509
376 270
195 340
623 436
475 405
209 486
4 92
477 98
51 90
390 580
247 270
15 61
10 8
410 646
346 257
390 554
485 267
254 219
350 207
86 311
198 535
49 421
278 254
59 81
373 329
450 100
65 72
225 374
563 188
397 207
131 7
41 545
58 210
390 266
553 273
461 242
75 96
294 195
129 242
32 56
30 93
57 481
76 58
593 231
273 111
427 317
100 326
322 81
264 534
304 579
122 281
567 487
605 492
23 177
585 512
583 626
4 169
47 528
636 536
355 614
235 144
246 86
206 443
36 26
119 222
349 343
12 9
472 461
58 540
40 74
452 4
474 503
63 301
47 379
234 393
8 30
206 107
88 65
325 165
37 5
234 392
50 28
67 496
80 79
145 193
259 72
465 456
16 31
10 291
395 145
256 513
25 151
149 586
649 569
469 369
309 110
104 46
14 164
397 498
79 100
640 632
67 194
3 63
327 313
9 120
106 122
13 49
372 199
17 10
27 21
24 13
39 154
136 52
1 6
347 211
149 202
602 376
92 401
325 403
302 113
25 239
308 147
130 24
21 25
64 87
223 178
123 607
388 69
260 629
53 138
132 501
221 86
116 65
16 398
15 3
137 609
516 311
2 152
416 473
207 62
95 77
541 368
565 1
279 658
25 186
240 134
289 13
44 574
21 147
103 229
408 238
204 42
34 46
220 592
226 171
276 478
97 14
122 155
28 13
165 115
34 217
29 191
381 41
17 453
418 387
555 482
78 61
29 19
284 479
216 547
293 292
195 578
223 543
161 292
33 68
474 193
249 642
35 512
342 462
79 70
19 562
411 102
262 321
504 35
573 16
243 141
634 355
317 149
446 17
33 82
32 41
108 432
460 74
108 10
216 539
28 521
500 656
245 215
99 167
36 234
76 86
6 339
299 219
612 596
150 208
239 633
130 490
16 1
15 467
78 271
311 377
350 517
124 61
354 196
539 661
61 184
195 176
620 149
137 606
131 631
566 84
330 219
45 129
355 324
422 265
310 229
564 116
603 104
409 183
156 125
20 26
29 105
443 581
639 444
132 173
38 16
559 651
261 337
290 18
10 11
94 21
244 85
32 7
263 279
127 9
5 3
87 119
91 632
67 36
492 260
110 205
314 62
203 364
48 20
239 380
24 35
439 45
29 73
648 606
96 601
32 54
94 248
476 69
40 298
475 600
295 76
420 436
426 530
211 351
288 238
520 457
65 163
99 406
291 363
143 170
14 589
19 3
570 488
102 267
178 211
495 141
66 546
502 134
464 330
261 313
37 84
463 519
250 315
108 176
425 594
199 505
213 304
7 382
252 59
2 71
549 176
177 272
190 329
61 387
154 185
102 227
184 190
52 137
428 274
144 174
618 171
587 312
384 7
662 294
214 366
420 393
980 871 100
387 703
97 103
249 473
208 308
600 489
274 49
166 1
317 293
256 96
485 374
230 81
439 257
65 12
734 724
769 463
506 628
583 832
83 73
657 217
526 259
458 224
292 338
555 265
789 381
74 498
13 294
597 18
781 402
571 40
394 303
149 224
629 417
579 457
381 310
197 692
29 240
550 39
179 315
54 1
261 448
40 84
12 7
99 76
542 215
67 843
197 436
920 490
391 304
858 666
860 970
461 46
153 283
527 87
640 554
754 583
880 535
483 464
282 233
307 385
181 261
157 106
368 672
865 187
663 213
316 301
7 5
110 2
290 331
200 389
14 93
724 320
143 513
160 169
2 558
502 638
429 709
481 343
674 854
79 9
973 796
680 123
902 538
494 285
236 226
894 150
283 302
40 64
926 186
762 465
700 107
145 97
307 102
178 324
81 962
33 75
936 653
107 158
3 101
411 362
536 103
189 80
874 745
847 598
34 406
869 539
706 513
328 437
637 507
9 838
797 596
516 750
410 186
330 791
348 174
708 199
417 325
829 166
179 93
11 190
205 272
318 565
36 53
622 899
29 380
49 88
726 198
77 87
18 599
487 421
802 703
514 401
76 574
291 364
772 542
296 73
601 535
87 393
151 311
771 896
165 98
160 194
325 167
595 699
688 276
867 933
259 662
138 5
424 667
44 547
916 83
52 193
816 503
373 237
302 388
793 67
447 470
59 395
634 116
29 496
273 341
160 99
614 617
326 198
895 818
115 175
30 693
247 564
151 770
374 50
161 800
552 325
722 646
965 130
678 636
639 120
266 146
675 721
92 212
237 268
689 376
711 653
9 285
666 368
470 862
375 715
819 86
33 167
888 44
21 20
522 3
563 400
275 15
276 47
484 643
756 671
771 556
270 123
174 262
707 537
360 425
887 511
681 476
655 533
854 861
7 28
524 525
555 900
222 238
159 796
553 243
615 436
809 242
6 4
4 508
369 580
723 365
58 96
14 22
718 554
868 729
326 719
87 705
84 106
626 839
730 890
290 107
591 604
3 5
355 379
354 237
591 782
610 111
979 595
679 269
543 930
182 146
823 21
333 245
576 608
234 931
541 632
950 7
281 497
310 194
146 114
34 790
164 229
227 919
241 267
450 62
582 687
100 12
14 415
350 222
557 776
55 214
624 214
72 739
492 1
774 445
257 19
241 253
2 41
69 925
373 501
773 860
295 737
281 44
248 33
460 218
306 178
840 672
336 813
123 636
58 545
39 70
183 499
625 3
422 455
322 168
87 884
405 433
149 263
483 853
100 472
29 658
598 696
208 65
427 240
157 765
152 79
161 164
958 582
680 922
654 292
213 292
25 67
199 93
162 200
265 616
8 56
878 885
16 74
587 223
92 235
131 122
113 856
420 331
205 96
292 399
606 166
6 8
891 878
960 887
641 780
57 54
828 606
176 93
477 134
360 231
200 278
92 1
47 172
272 480
921 58
480 685
417 893
918 873
463 959
221 917
974 16
544 76
26 77
801 538
143 67
293 249
814 120
479 530
859 634
7 897
562 303
89 548
397 532
413 23
753 323
106 511
24 207
621 183
10 4
750 929
412 195
19 35
56 73
291 408
267 581
482 275
587 806
96 227
346 275
923 219
147 123
784 971
15 503
751 464
45 46
123 70
162 82
501 578
745 98
370 312
488 421
387 190
35 63
349 234
139 54
747 574
538 418
319 631
74 150
361 241
189 443
204 309
88 113
240 478
246 6
196 403
505 157
484 150
904 455
279 554
44 400
784 287
234 347
592 16
162 935
516 399
661 465
803 540
545 795
168 228
61 277
264 44
964 976
540 669
471 429
183 187
591 80
38 766
59 8
4 31
728 642
42 127
833 585
697 698
528 465
899 939
21 392
37 11
29 13
199 202
317 590
264 369
812 511
8 44
204 280
8 13
154 124
435 72
573 194
883 625
455 557
798 251
243 14
165 252
346 398
217 372
351 533
542 788
334 20
123 397
6 9
966 558
1 134
343 193
53 652
188 744
602 154
531 467
180 254
58 321
231 337
92 353
271 336
122 603
946 188
42 4
627 799
210 151
575 270
204 13
70 201
271 653
159 95
717 319
47 6
367 568
98 15
92 111
256 418
188 206
7 50
94 14
905 401
260 65
196 48
329 702
21 901
480 684
68 879
60 128
372 468
413 826
273 589
247 937
645 184
149 181
205 849
811 136
46 55
62 613
837 948
842 520
23 7
495 551
6 232
386 376
171 882
348 474
647 543
60 541
75 945
456 154
61 47
535 164
7 36
964 5
220 206
912 578
230 401
825 590
3 6
927 399
247 582
834 341
466 435
956 538
136 110
180 903
298 26
446 370
641 464
725 243
873 366
729 500
750 777
31 107
35 967
201 683
29 510
269 808
255 46
486 479
251 212
867 41
110 942
18 120
140 180
786 335
18 12
457 34
871 549
845 824
129 178
155 107
612 509
742 787
3 15
626 486
34 40
484 585
19 49
89 132
241 356
225 414
859 906
8 186
627 254
701 872
111 140
428 121
387 844
440 164
351 493
109 46
383 285
136 209
231 24
431 283
184 147
570 254
142 36
260 539
654 764
75 656
284 136
488 630
116 831
561 300
94 117
52 122
124 217
405 278
810 621
13 156
618 581
786 909
223 515
206 259
951 467
222 36
351 502
66 451
327 146
851 302
22 25
51 407
355 298
191 153
682 119
924 66
697 100
396 39
675 623
167 177
509 44
251 377
594 424
583 517
968 418
614 435
586 152
239 202
357 196
124 115
2 195
209 218
367 315
467 757
830 456
85 73
164 245
17 876
63 161
472 742
303 108
97 43
365 237
57 225
219 419
881 734
211 67
25 45
746 211
463 274
26 69
34 130
353 649
586 731
757 961
76 48
491 114
733 759
259 738
42 288
475 267
174 237
391 910
567 486
200 459
55 313
203 89
366 504
4 104
149 27
70 376
949 301
80 82
6 38
824 850
121 7
537 52
250 230
19 78
9 24
21 596
31 116
148 131
852 209
318 309
118 88
228 892
459 559
265 228
168 52
216 495
197 17
716 458
123 607
275 345
866 664
187 416
523 393
66 50
427 464
179 421
286 447
517 47
192 175
821 617
701 522
733 366
234 47
479 957
213 201
215 210
361 870
249 84
95 352
323 584
215 836
521 348
320 549
109 114
497 690
269 768
289 91
875 635
365 963
32 24
58 37
11 39
605 515
325 534
226 98
125 330
102 198
489 149
453 546
344 3
16 52
863 394
550 889
234 335
102 33
954 824
801 975
928 112
342 23
430 401
45 273
741 421
287 185
243 452
33 24
703 837
340 186
109 305
426 166
714 93
609 185
20 10
36 476
59 68
186 674
258 576
732 392
735 727
18 43
459 915
482 569
955 732
174 170
23 51
449 262
507 413
183 101
676 3
518 267
59 105
1 7
306 506
857 940
223 16
382 380
822 391
368 86
268 623
63 80
214 748
240 244
817 613
947 550
384 29
29 366
11 16
593 827
752 314
213 670
445 137
659 67
504 763
4 11
938 750
46 323
219 85
72 28
2 375
908 152
273 351
345 454
524 237
619 438
108 54
328 183
45 151
562 779
409 783
710 233
727 540
72 314
82 911
620 305
1 2
171 16
184 824
291 80
520 191
569 913
11 17
730 320
33 358
359 192
736 400
230 646
622 53
340 755
185 74
98 126
173 686
241 141
673 360
73 91
141 104
188 13
44 588
141 153
125 30
69 81
34 7
239 339
329 313
8 129
95 2
173 169
112 7
436 805
577 232
835 66
540 38
250 778
61 465
20 89
8 512
169 444
878 433
72 390
332 306
775 182
109 560
230 424
648 445
325 479
274 432
572 561
318 441
543 74
133 5
48 4
247 106
740 200
167 402
359 438
422 144
725 864
16 62
245 319
65 144
645 665
172 886
197 529
668 459
261 804
258 151
47 363
556 233
749 265
119 767
382 642
865 941
42 378
4 2
168 312
216 50
520 671
467 392
760 944
291 500
605 761
35 297
271 170
713 567
30 25
743 550
320 14
660 229
953 423
442 235
496 712
242 130
794 170
635 573
134 423
284 519
79 137
288 304
221 27
12 14
877 654
100 299
462 355
16 27
792 288
149 644
846 972
116 301
233 35
815 578
827 980
934 542
855 40
650 496
26 14
119 28
827 977
818 293
857 93
566 547
224 943
218 434
115 58
46 86
695 50
978 820
143 163
41 785
846 183
154 677
392 807
159 269
131 135
760 441
820 134
969 868
758 37
429 282
469 170
55 170
595 489
382 611
453 432
279 234
90 27
191 598
357 409
651 578
182 300
485 694
12 490
60 1
704 691
277 720
155 286
498 952
841 525
691 262
812 932
295 232
71 10
176 362
907 78
281 848
395 664
419 914
21 404
371 58
12 19
633 143
593 542
378 773
898 361
931 143 121
166 572
437 851
656 814
447 78
334 324
83 94
172 324
502 414
732 308
425 518
142 222
300 160
164 172
587 562
235 66
900 206
296 268
59 27
548 219
380 72
308 561
529 617
129 342
59 130
220 760
555 19
592 265
210 247
178 238
367 698
228 662
86 275
438 479
73 860
469 244
340 202
103 726
4 3
288 248
27 32
144 127
195 213
44 25
738 508
195 193
255 129
112 337
194 168
385 188
535 844
143 926
262 163
49 33
218 450
39 86
318 357
358 183
571 268
327 149
468 829
480 522
81 91
682 499
64 2
585 929
451 222
707 274
3 24
53 121
137 197
532 269
61 146
51 55
204 700
308 292
390 758
719 650
286 397
219 729
166 126
39 48
236 145
853 102
290 72
225 924
105 50
228 315
22 37
22 51
27 66
832 628
622 189
68 304
748 802
168 789
22 5
911 282
10 65
37 339
859 362
656 221
132 115
94 212
508 8
70 98
402 897
455 472
4 816
843 80
320 536
345 598
916 193
915 658
705 238
210 442
497 284
11 5
292 282
231 11
152 131
855 838
361 152
601 239
103 12
381 488
131 347
22 26
388 358
81 70
693 509
119 1
797 858
293 23
818 198
791 835
823 847
107 104
628 25
169 219
69 111
319 136
583 26
518 794
731 420
788 68
110 120
339 362
206 862
80 6
460 230
928 612
744 815
614 123
63 17
431 602
711 143
576 273
659 214
66 590
634 99
628 876
352 407
116 41
328 266
276 60
554 13
868 659
340 790
723 777
91 349
263 684
299 274
96 482
126 92
47 123
530 420
249 14
696 45
775 825
368 742
727 377
129 618
522 898
104 464
786 305
449 546
391 890
578 420
376 772
280 477
715 710
40 62
762 84
404 296
159 861
402 631
620 549
256 102
616 340
287 568
743 450
185 120
363 785
467 63
92 158
697 497
213 375
292 376
559 518
609 281
13 14
34 52
54 31
228 35
531 26
311 227
512 728
64 176
412 746
423 51
70 180
160 64
553 574
212 589
133 192
773 334
76 33
52 690
511 730
374 557
38 37
637 93
91 519
742 781
220 462
606 579
681 478
803 891
692 99
191 252
240 580
214 486
834 175
1 43
90 15
427 591
186 18
810 773
737 649
266 436
766 546
401 199
230 17
212 717
800 806
895 846
202 243
5 6
83 100
13 70
261 187
96 61
144 669
701 251
217 39
327 577
274 402
611 290
55 885
920 892
381 74
723 736
72 45
456 492
763 79
627 767
333 354
23 599
282 455
845 57
456 461
27 188
149 764
191 648
497 704
456 167
306 623
101 76
135 218
477 509
782 627
9 4
824 617
190 40
882 544
56 307
21 9
465 755
646 838
140 318
240 223
257 192
359 29
208 104
66 267
562 842
284 280
71 214
399 428
222 459
649 238
456 745
148 408
53 392
5 3
68 39
798 350
380 906
210 259
5 25
635 366
211 268
321 13
215 657
139 353
454 754
313 749
51 537
41 142
407 432
536 925
898 927
408 706
171 330
652 450
768 313
567 812
128 62
368 8
52 82
53 676
619 780
437 445
106 210
130 409
508 514
586 459
79 84
127 98
17 7
402 550
137 529
123 200
279 383
173 54
272 520
59 88
373 405
498 405
164 269
598 930
805 794
205 72
280 856
255 496
458 369
480 333
79 42
326 688
81 150
24 163
37 42
836 767
112 62
93 370
600 267
148 919
68 887
685 71
264 344
917 101
854 65
282 79
162 241
725 10
473 313
603 588
153 227
314 345
615 125
503 63
101 877
654 237
181 203
297 366
3 225
46 191
21 36
35 117
837 918
797 416
102 724
811 319
872 333
312 414
796 446
375 403
432 533
831 219
44 50
505 448
254 524
549 506
665 572
73 563
74 31
417 233
281 101
346 41
205 893
556 168
1 2
121 672
538 253
387 775
28 10
33 512
774 353
354 687
275 415
629 588
51 151
354 675
613 759
37 41
200 224
9 10
191 527
33 4
499 1
39 156
78 193
94 807
881 376
869 596
247 382
116 273
369 389
261 784
331 221
145 333
399 691
320 73
837 423
93 57
355 567
6 1
713 799
30 878
523 41
351 483
747 199
124 206
8 215
66 474
72 159
13 6
104 306
109 102
244 180
506 289
270 70
735 408
912 842
250 13
311 552
161 1
177 46
139 280
63 181
2 647
733 111
859 907
483 604
137 223
477 489
12 168
429 368
20 562
497 644
547 3
633 584
412 213
264 278
776 642
69 92
323 266
452 302
268 886
341 630
443 112
819 524
819 820
931 510
305 326
57 48
4 8
129 148
352 203
1 31
63 884
322 663
23 19
821 323
145 53
231 377
386 295
335 243
651 284
437 190
245 76
686 281
463 27
198 387
521 392
839 49
879 615
827 447
73 141
366 923
37 40
58 16
752 211
216 73
253 227
601 678
355 35
164 237
147 535
2 122
395 136
543 413
765 626
47 875
129 55
888 682
283 222
305 136
476 288
260 24
413 264
309 444
46 303
104 42
254 29
121 393
95 43
208 683
168 196
702 414
471 400
44 551
674 548
511 428
596 474
63 167
624 778
582 372
286 88
168 470
234 779
232 80
721 707
256 391
89 64
821 828
149 68
11 322
497 679
702 905
404 695
190 800
134 343
94 494
469 787
3 356
117 312
899 225
310 317
191 313
866 767
538 660
189 38
93 332
666 248
274 176
792 846
48 83
3 874
291 186
126 179
419 331
487 271
113 54
390 495
821 826
105 294
365 98
542 58
902 214
153 184
491 9
371 313
284 597
248 84
9 29
914 812
116 396
71 73
312 424
443 454
462 544
58 272
330 338
394 510
306 757
842 904
594 303
430 671
880 188
813 889
573 280
771 500
339 910
83 251
433 320
772 873
352 640
50 411
271 254
783 737
901 425
56 45
327 504
15 3
351 164
73 138
63 75
280 466
125 18
4 155
25 367
865 220
10 202
131 164
437 848
178 490
182 99
404 922
233 57
699 252
160 246
87 83
183 667
135 658
115 207
680 356
196 710
457 103
804 189
753 19
10 229
840 751
226 131
734 511
9 34
515 307
813 174
661 423
1 199
27 484
664 258
465 285
808 655
38 579
581 127
178 723
138 325
61 626
85 201
60 85
68 329
269 852
139 25
313 748
133 77
341 111
822 688
817 507
152 169
714 415
426 137
42 106
478 391
180 220
72 242
645 722
546 653
375 751
53 78
111 636
694 411
608 458
372 97
65 761
39 613
643 481
27 17
119 516
864 843
35 295
803 747
266 18
91 153
130 187
183 588
211 7
246 545
222 279
145 174
501 103
32 46
62 441
431 31
92 209
896 74
558 110
677 534
909 645
418 48
4 2
7 3
154 36
7 61
540 365
16 287
750 101
628 708
131 104
863 341
645 277
143 66
517 76
485 426
281 525
894 872
430 78
739 704
41 570
191 410
134 94
95 114
921 38
188 833
115 23
2 18
610 60
374 298
539 469
15 19
363 420
160 379
452 703
246 289
500 483
183 78
673 72
398 62
425 323
534 62
809 309
718 355
144 560
25 178
607 189
312 394
147 91
124 112
849 490
575 141
401 713
37 792
716 313
481 464
495 632
20 16
32 239
89 399
35 30
110 298
99 27
689 377
348 201
199 336
468 383
585 164
605 514
791 217
181 373
221 204
150 528
427 346
513 386
171 121
360 75
830 313
108 97
641 567
850 629
286 421
379 446
650 357
287 668
175 24
166 655
562 770
302 155
169 642
436 871
360 475
801 341
369 76
190 744
198 182
395 541
70 285
670 101
135 54
526 427
35 71
38 434
493 42
102 79
124 416
408 639
303 384
64 77
165 3
25 118
588 595
624 203
360 569
908 27
112 162
21 67
181 448
92 110
497 823
5 30
183 301
913 403
82 565
264 59
254 297
867 547
453 101
3 16
99 435
507 283
12 47
268 449
508 740
19 619
870 26
612 480
234 188
20 39
309 124
57 140
722 903
584 230
440 129
136 43
69 26
883 209
553 385
265 127
441 720
390 94
260 263
621 494
314 646
560 709
841 356
137 115
120 277
793 484
142 422
615 795
132 157
87 204
406 230
45 43
60 56
627 376
439 73
10 170
316 111
97 30
769 149
400 68
442 593
217 258
276 857
438 186
378 367
363 85
892 651
756 140
212 310
1 12
23 53
364 139
395 564
560 638
350 104
65 314
625 191
566 101
648 712
741 359
909 282 666
8 19
348 212
306 890
760 783
137 69
880 516
205 332
847 152
304 745
10 515
213 493
544 428
270 209
342 150
536 565
41 317
371 100
768 132
437 359
558 685
178 383
78 104
434 633
375 76
250 504
491 554
280 89
83 63
126 455
188 412
219 229
525 113
486 606
232 248
249 129
11 112
197 498
51 140
449 694
164 226
38 172
905 155
405 302
800 568
613 317
260 597
164 88
180 253
519 120
26 30
44 448
119 113
792 554
631 870
243 431
189 222
89 523
120 61
182 187
91 50
531 128
295 269
142 119
56 539
909 264
625 377
82 361
255 7
130 330
437 641
104 719
30 138
480 273
430 304
434 276
225 292
592 346
491 624
417 149
135 38
33 46
659 374
324 189
40 150
20 36
724 344
407 591
509 669
302 467
261 499
577 30
177 154
301 238
488 368
244 331
790 273
273 67
627 420
38 15
76 28
741 248
294 158
710 308
94 24
640 524
420 115
84 141
166 254
356 284
108 879
357 185
294 883
214 809
31 86
846 866
376 33
6 3
906 280
399 570
711 412
466 873
22 127
408 509
439 687
37 34
212 90
180 425
537 402
178 26
762 639
43 450
35 765
390 551
81 2
286 875
3 9
473 673
836 426
4 122
536 193
217 477
730 608
359 45
589 145
307 566
276 561
109 20
651 598
319 604
134 101
595 463
147 179
132 279
839 245
370 60
84 111
461 562
512 268
511 412
813 156
265 238
337 492
252 2
132 653
780 456
151 43
28 45
341 155
436 688
246 527
191 48
138 302
78 240
465 817
224 93
695 398
164 296
472 859
611 514
484 181
162 189
162 251
881 585
21 29
206 593
874 818
488 888
97 14
305 21
43 168
895 76
3 44
670 27
24 323
473 169
776 7
42 712
64 716
85 50
465 811
32 101
2 17
286 580
643 738
599 78
337 277
426 93
267 472
272 398
399 276
838 555
7 13
404 469
691 280
102 88
112 364
55 48
501 893
105 79
141 188
561 856
359 621
151 789
422 30
210 219
204 791
99 701
728 587
193 654
208 108
231 557
115 7
889 343
428 299
56 87
203 24
61 26
56 126
108 319
82 801
355 159
333 22
28 66
387 96
501 500
119 583
516 256
50 23
515 679
41 798
11 152
59 429
147 169
700 360
115 121
814 336
23 100
10 28
297 278
61 78
628 848
657 729
534 878
863 49
51 414
381 636
82 23
218 158
704 105
681 703
166 635
489 482
11 14
424 223
167 571
622 274
64 28
22 339
198 460
144 112
287 823
201 1
736 504
436 308
372 62
11 32
117 392
104 243
7 4
833 852
555 125
299 759
215 196
585 571
482 14
746 374
86 668
213 258
18 27
178 899
7 457
263 124
165 289
85 858
16 12
72 165
750 188
133 231
375 529
757 249
160 336
118 237
62 4
541 362
559 383
663 437
556 544
695 826
292 607
587 585
8 11
772 908
205 214
213 244
10 73
22 67
549 132
23 287
121 338
667 558
71 44
797 364
91 497
241 151
721 467
41 202
87 149
408 114
360 517
574 566
546 871
181 304
586 680
268 194
324 449
6 5
133 183
810 235
46 52
210 579
230 538
387 799
9 401
612 381
487 474
500 487
734 393
171 233
304 400
754 708
22 98
744 456
714 195
742 392
816 158
210 769
218 281
339 421
186 502
340 319
492 777
13 182
59 470
40 56
808 830
265 300
665 593
634 606
256 55
555 749
575 552
194 362
221 259
570 845
24 462
787 394
522 141
829 640
277 432
13 390
166 5
618 52
727 587
163 93
266 271
822 846
530 347
86 108
28 157
47 25
547 229
614 138
808 744
812 346
407 150
125 335
415 29
11 22
564 64
693 126
218 238
80 197
399 528
213 27
766 430
415 526
831 489
37 404
876 900
595 723
608 69
317 439
190 68
681 680
632 117
27 170
239 463
424 495
272 112
2 239
116 96
134 204
677 615
649 199
423 642
435 510
329 58
630 122
293 14
416 51
164 406
259 464
802 436
18 23
242 837
45 51
277 69
843 599
74 315
896 319
743 166
172 884
345 185
207 266
605 348
129 91
537 796
413 643
869 317
47 228
209 145
512 600
125 518
581 13
532 43
476 221
457 458
182 325
156 31
699 284
865 484
41 211
86 118
775 737
715 584
63 130
267 451
54 1
44 824
701 864
111 835
767 206
205 722
15 125
67 397
21 4
35 75
174 658
173 423
127 648
674 508
610 702
77 107
180 456
664 365
11 88
111 147
87 778
779 498
731 85
675 367
590 328
219 230
479 359
256 269
142 411
195 155
726 215
740 53
611 747
385 56
728 861
128 234
227 222
138 199
33 68
123 60
92 78
324 629
343 349
87 318
51 672
95 78
86 124
28 42
206 696
170 354
788 670
725 355
53 79
504 885
139 821
388 128
57 175
143 52
50 662
54 184
586 573
176 107
205 257
139 584
56 446
308 157
66 77
571 602
443 181
800 827
571 619
94 897
265 288
758 249
80 267
284 195
72 159
134 327
395 154
468 127
366 380
872 192
566 682
61 755
35 2
331 351
368 353
747 898
732 589
671 576
4 25
419 655
631 369
626 628
276 183
99 678
65 30
834 397
857 44
235 234
201 638
794 366
194 80
198 36
145 87
151 442
894 382
403 475
683 62
487 540
309 238
86 245
132 121
145 645
147 274
573 820
280 291
4 59
233 363
322 365
472 661
96 18
97 193
160 260
712 785
49 160
690 78
429 435
171 103
572 178
419 138
276 326
196 773
507 203
686 249
132 155
175 521
815 668
338 486
116 563
6 162
133 62
220 225
901 377
474 819
102 520
491 418
576 219
199 311
3 33
23 26
232 393
77 322
14 764
807 258
180 129
236 232
69 454
717 100
200 10
36 41
804 647
652 509
1 8
175 461
32 113
533 220
9 20
200 320
508 327
344 440
61 93
418 366
698 611
753 795
261 64
483 396
173 166
64 283
494 251
299 199
122 290
868 397
844 464
382 167
43 307
80 427
174 74
103 148
63 733
55 298
445 122
72 7
403 327
882 251
64 904
477 886
582 5
62 139
121 146
138 205
154 115
262 15
180 389
149 378
134 573
876 71
749 751
402 143
673 877
720 354
346 312
247 181
48 447
323 891
322 753
374 41
806 443
405 481
46 74
76 114
170 708
367 35
5 1
88 314
4 2
850 315
148 216
548 18
286 30
560 786
567 190
692 267
615 339
506 144
48 84
271 840
784 464
514 146
84 842
394 609
90 78
485 626
217 221
71 369
601 301
56 637
410 793
431 774
610 236
116 660
63 282
617 95
8 15
396 466
234 285
10 1
232 803
30 207
705 117
112 206
748 58
478 343
841 737
62 223
312 296
497 558
855 496
555 805
19 250
664 825
649 832
74 131
237 644
37 409
472 650
12 43
666 173
771 332
57 33
360 152
49 26
478 756
349 616
6 851
887 14
50 503
377 286
333 471
242 201
186 51
514 596
123 136
709 515
735 209
103 676
646 179
129 867
160 545
16 158
586 902
465 330
103 37
379 174
119 452
818 682
569 321
217 28
22 24
107 560
325 524
328 23
173 444
241 413
40 350
379 737
131 386
31 860
88 316
69 59
530 907
683 760
513 200
4 196
103 459
623 474
347 95
228 384
345 485
595 892
258 505
73 474
603 203
366 222
66 89
160 373
822 229
9 18
588 585
59 60
50 321
496 86
862 592
33 410
318 707
259 343
58 1
761 667
739 585
139 220
380 534
246 394
291 578
69 310
275 542
713 517
355 391
25 264
647 283
550 128
499 782
763 710
8 697
159 535
181 3
358 191
93 313
200 246
639 54
59 854
533 546
31 12
20 334
12 1
689 125
168 306
275 155
620 575
78 303
655 833
440 598
61 63
903 455
553 265
192 30
770 681
205 433
453 123
117 76
310 656
153 108
752 570
11 161
210 68
853 309
353 305
226 781
3 344
552 31
73 232
568 25
97 167
70 27
20 34
128 21
5 48
718 154
99 19
187 438
178 772
543 13
278 242
594 491
247 657
828 457
684 456
381 117
1 4
706 538
57 441
8 352
849 607
490 340
2 3
185 131
106 12
53 3
40 13
39 24
28 110
11 80
39 396
747 726 503
249 368
372 628
66 139
42 233
5 12
624 702
483 119
169 83
4 158
436 568
337 91
189 80
357 151
189 552
236 84
91 263
257 680
32 142
582 224
3 5
102 384
16 4
267 124
615 437
498 187
89 113
390 1
20 231
380 121
739 295
566 23
83 577
463 375
520 198
232 159
18 709
85 101
28 3
493 425
39 84
400 641
47 280
620 544
515 459
262 685
484 315
129 165
217 419
258 356
322 238
607 152
129 673
731 490
23 56
241 55
293 216
199 132
399 727
462 228
675 651
372 157
343 407
553 297
721 194
333 601
111 16
612 280
265 61
256 475
303 39
128 276
37 512
508 240
639 527
22 120
629 475
437 199
735 747
177 153
108 17
330 125
7 11
411 617
132 146
575 307
54 131
600 24
411 236
45 96
4 2
190 461
10 74
455 222
284 11
2 39
157 144
295 334
209 243
2 48
136 359
705 605
77 127
726 585
224 145
386 55
140 115
262 122
483 622
405 728
346 95
298 625
126 150
310 650
44 421
234 420
183 190
439 273
104 180
145 659
41 46
676 178
242 431
26 474
144 414
530 618
527 430
51 207
581 86
30 616
611 400
108 592
158 663
132 175
23 340
62 72
579 324
125 85
64 16
215 352
648 528
33 345
385 73
430 487
84 510
42 94
380 492
312 457
651 287
441 741
275 257
550 136
35 4
310 290
154 51
208 247
208 257
163 61
162 735
539 701
638 421
220 125
744 236
174 25
135 522
657 444
441 447
200 204
44 32
373 513
216 485
293 344
654 62
359 719
65 398
259 570
380 403
4 27
595 310
2 201
353 127
62 450
242 442
619 710
108 168
746 139
616 692
396 194
60 164
153 370
35 82
31 235
66 34
56 565
450 471
244 91
147 131
502 83
9 6
92 613
693 279
110 116
54 51
706 738
176 104
192 203
640 668
59 309
269 16
108 129
58 25
191 188
99 173
225 416
59 34
3 2
206 128
730 422
168 379
79 554
569 555
361 688
305 201
525 348
720 358
318 301
348 293
52 185
52 19
114 240
167 649
490 99
53 25
471 608
426 614
252 314
544 354
327 674
7 215
252 542
661 528
500 482
9 24
214 279
393 162
281 265
126 80
47 196
144 22
328 52
26 149
556 80
143 596
433 536
590 66
605 431
376 19
60 81
126 306
481 585
103 248
689 294
393 646
476 488
361 161
134 591
70 91
25 62
736 734
74 183
341 378
142 643
402 298
633 470
533 671
708 659
18 4
144 494
105 213
264 110
67 571
195 94
378 557
223 21
490 539
349 72
202 92
277 724
194 486
208 505
65 35
606 438
563 63
90 33
16 25
284 429
165 667
366 369
482 223
677 439
15 400
133 733
188 507
418 551
309 317
273 211
351 343
387 205
547 137
644 376
578 355
77 221
80 159
14 198
451 168
94 684
342 360
602 295
35 362
59 304
100 533
16 98
395 17
271 178
503 93
269 438
66 312
426 105
732 541
302 540
514 263
458 206
440 412
371 594
83 227
523 442
381 53
397 165
339 35
249 130
19 697
42 152
614 690
36 83
422 7
159 662
266 176
413 559
454 377
138 448
111 511
3 7
113 589
212 285
211 636
326 127
139 171
412 301
401 464
194 106
619 686
350 298
273 496
491 562
586 723
150 197
448 609
270 325
34 5
365 201
468 52
478 157
469 68
107 109
603 273
315 84
269 681
37 88
51 63
68 1
155 146
23 2
291 213
742 303
538 647
363 477
373 593
433 558
286 4
274 333
270 392
655 338
129 162
244 725
561 266
1 30
204 424
10 37
67 132
82 148
1 4
368 635
473 10
526 19
713 626
31 9
118 123
2 67
2 287
715 25
141 111
394 327
538 457
206 441
160 155
114 509
354 535
460 175
344 564
387 678
13 105
311 286
112 57
129 610
70 93
238 391
121 102
343 190
449 321
288 263
20 41
203 737
359 572
6 92
700 665
645 398
303 388
27 698
175 256
281 320
219 108
87 69
366 137
34 666
75 694
105 222
734 497
106 92
389 353
2 57
144 423
408 191
179 120
213 321
64 619
268 233
82 255
98 687
584 642
311 745
69 7
114 45
415 78
371 409
28 75
133 434
626 433
164 316
707 426
87 524
537 20
440 624
115 182
307 178
452 65
49 313
176 695
21 656
95 67
652 201
192 245
205 41
416 580
604 131
25 497
60 13
118 13
225 88
40 100
255 382
39 331
25 295
668 722
158 184
432 326
103 93
479 108
32 115
20 16
170 270
19 405
18 43
54 258
1 5
206 354
317 481
574 496
251 401
560 482
12 534
156 24
45 122
284 363
108 188
105 134
26 51
546 184
29 1
46 85
470 5
208 186
41 230
237 114
405 504
32 16
322 632
71 373
8 329
446 377
491 66
286 476
272 260
24 136
199 327
209 660
21 4
229 68
2 55
543 181
8 3
97 8
427 62
307 341
404 109
135 112
64 137
55 717
183 410
67 133
55 151
27 573
584 104
11 47
519 587
10 2
2 119
16 17
26 71
716 507
453 232
79 124
14 5
545 238
322 383
116 300
631 460
278 213
239 364
211 406
743 515
129 549
86 54
417 388
714 38
297 243
125 338
254 336
324 145
303 358
28 38
351 456
292 276
267 506
430 350
576 288
49 39
259 548
420 653
377 147
586 389
103 521
375 29
30 252
465 327
301 45
273 489
239 195
452 519
703 688
226 165
200 45
208 374
670 291
5 128
168 261
24 61
704 73
265 277
77 64
418 120
218 187
665 490
294 247
59 117
48 153
384 413
234 102
711 207
172 19
274 210
217 52
206 672
355 333
193 50
48 212
12 104
9 15
152 621
134 260
637 119
518 168
143 30
230 282
138 283
13 22
145 116
19 335
423 425
90 238
1 45
26 14
35 598
302 226
204 242
158 583
107 7
178 89
8 36
95 192
488 588
45 466
530 170
481 679
299 238
35 664
36 73
712 125
362 658
516 38
139 459
42 10
555 198
289 282
8 76
187 166
308 256
529 531
740 26
299 347
16 50
706 665
211 100
367 218
399 8
118 250
729 281
411 630
323 174
498 640
220 444
33 10
34 110
9 13
122 634
443 371
186 80
55 371
143 696
613 718
130 91
467 254
79 47
495 477
337 472
436 103
529 40
341 623
228 62
42 78
181 27
202 445
131 210
290 60
170 36
306 691
246 50
499 18
80 12
133 167
312 332
53 99
344 532
40 12
64 70
428 169
699 312
89 36
335 435
166 87
597 108
138 259
567 219
183 296
23 161
669 109
433 264
336 342
541 86
298 179
283 480
238 528
19 251
8 19
209 140
93 253
168 214
211 517
6 2
349 682
102 70
216 150
335 501
14 254
319 198
298 599
683 519
627 439
138 44
517 332 65
333 450
16 72
21 109
483 225
58 82
410 343
2 5
86 33
96 19
163 501
25 17
55 308
492 312
218 210
55 51
487 394
222 174
117 223
77 368
46 83
26 8
63 74
184 271
72 277
251 167
172 195
2 108
497 277
314 369
19 41
488 425
50 111
41 129
407 388
11 12
319 239
393 317
13 2
22 28
54 121
250 509
178 472
170 37
364 326
43 77
38 339
478 296
112 198
114 89
365 329
24 168
417 327
260 264
385 236
52 178
64 1
35 91
9 241
137 152
388 467
158 73
363 222
455 161
481 190
81 85
21 115
188 275
196 216
351 332
495 57
124 33
100 185
511 284
86 89
68 235
231 200
136 20
92 50
263 232
262 514
77 137
17 98
254 125
30 6
360 245
470 384
128 146
138 48
210 28
217 62
124 149
80 32
466 240
452 235
314 163
258 84
2 126
28 51
81 331
357 294
299 386
57 100
281 23
321 235
54 68
207 184
489 230
296 181
389 10
28 176
299 296
171 51
477 256
22 5
8 266
232 292
268 43
157 431
180 245
75 174
26 87
167 345
240 438
476 344
411 60
236 406
55 163
43 157
209 11
103 205
17 8
54 104
51 133
180 215
59 232
19 10
131 179
260 128
96 267
85 200
23 128
376 97
55 90
344 95
153 155
224 230
409 138
436 480
38 13
424 202
89 312
40 28
219 41
193 129
284 158
430 366
131 486
238 92
293 140
154 142
352 118
150 405
173 473
314 346
443 86
111 211
189 334
14 18
290 463
165 379
51 240
439 158
29 69
44 107
112 189
160 290
134 54
229 222
74 144
304 305
239 396
433 283
29 461
89 418
212 415
169 72
445 368
54 172
513 345
175 2
7 50
325 266
427 107
279 287
5 59
493 231
66 2
199 162
65 103
47 20
10 37
306 67
9 320
70 56
7 1
421 36
98 259
171 285
218 342
119 310
62 50
399 395
55 75
194 43
24 4
130 19
74 78
240 261
227 125
440 252
392 198
355 3
236 90
9 388
459 264
173 38
383 76
303 222
86 93
346 378
359 243
103 153
138 167
169 506
20 13
53 31
33 118
56 362
5 21
202 128
456 345
112 24
139 125
43 3
63 309
10 9
429 288
8 9
52 333
454 358
5 4
94 72
36 71
349 203
420 26
5 15
143 436
214 84
182 358
21 46
404 102
326 305
13 113
304 225
20 54
420 432
96 329
426 309
95 80
242 227
140 108
398 331
317 250
280 42
39 27
4 160
29 13
77 390
196 46
244 87
92 150
6 8
206 416
77 97
228 180
164 373
305 328
19 42
105 449
120 50
251 255
385 412
197 47
99 156
161 192
166 73
448 206
414 221
45 57
8 505
60 88
87 143
191 157
11 67
131 128
33 123
279 260
73 371
457 373
462 73
306 500
370 358
206 189
79 23
76 272
3 1
252 146
164 10
324 60
63 45
276 116
338 213
147 187
54 61
54 247
196 382
374 15
1 494
48 28
35 22
194 413
72 119
21 273
435 231
53 132
131 340
277 313
272 335
24 65
372 293
95 221
360 460
446 164
444 187
186 101
336 180
14 135
479 349
3 23
253 367
108 265
9 52
69 237
139 294
182 204
341 327
3 9
141 127
32 423
133 180
125 109
391 422
512 229
188 92
397 352
106 10
274 508
182 140
256 157
144 234
161 40
434 412
127 28
183 289
208 384
348 18
353 45
330 152
58 5
468 283
250 137
203 298
504 121
2 7
283 253
237 490
215 297
137 213
49 3
474 352
11 9
105 23
36 19
201 224
425 280
31 162
19 177
291 71
229 442
491 117
193 243
73 61
502 325
137 288
9 301
68 183
484 140
203 25
332 295
270 232
14 16
507 52
32 17
315 288
377 329
451 133
38 375
89 286
307 251
394 369
14 356
408 258
28 208
7 31
190 128
416 465
295 97
403 358
375 453
248 184
80 117
82 253
262 282
212 161
383 475
233 79
187 220
256 516
59 101
496 324
225 45
151 10
23 27
322 133
16 471
148 21
193 517
99 55
196 400
184 9
274 39
401 326
25 181
437 92
160 354
150 361
18 159
246 153
145 52
2 14
402 73
136 498
464 152
441 51
1 116
250 318
485 399
192 337
204 327
428 263
316 124
302 26
447 267
76 69
347 211
39 147
130 257
54 60
278 155
297 395
293 380
142 12
209 226
113 122
142 499
9 269
3 45
17 81
381 278
163 249
79 165
323 222
510 476
262 29
161 239
391 339
419 69
6 4
34 9
13 56
343 61
387 93
329 350
393 515
458 21
34 102
503 138
311 128
201 167
37 300
469 205
366 165
44 36
44 84
18 110
33 22
252 482
823 297 685
312 734
787 247
90 231
747 635
106 122
336 800
204 241
99 179
438 24
205 35
662 509
341 199
8 55
769 93
94 50
295 30
695 615
190 134
732 524
472 133
508 634
43 185
276 324
152 485
585 397
399 150
115 26
129 804
185 394
435 130
112 103
18 198
328 217
44 25
729 239
649 338
275 279
659 21
614 255
708 310
54 127
32 252
306 81
477 766
737 83
503 312
188 50
32 139
132 698
723 287
691 751
86 8
490 337
381 328
7 12
33 46
365 213
231 303
53 119
82 161
401 369
361 229
184 466
249 184
379 461
263 254
159 68
33 107
220 80
320 78
89 42
73 277
678 716
107 498
35 147
521 228
546 117
7 32
283 515
805 604
32 36
623 817
402 656
51 62
43 8
742 197
557 309
588 267
621 568
465 581
774 668
184 293
338 647
713 101
236 1
6 9
102 432
52 214
256 702
43 174
582 245
739 392
54 26
222 79
426 317
9 25
204 96
211 56
578 635
242 137
35 30
84 342
728 312
272 360
468 199
599 227
294 66
563 542
24 51
28 50
380 333
788 379
784 126
533 250
681 212
25 128
803 692
223 300
538 761
36 37
29 69
623 718
596 447
191 369
10 95
720 627
632 236
407 565
308 273
84 176
564 657
398 279
326 587
22 221
590 78
119 700
320 604
638 155
132 793
430 323
131 177
332 2
64 511
460 371
253 197
160 47
146 593
231 812
110 210
356 347
615 75
386 758
178 136
609 336
5 15
208 27
220 338
229 245
86 91
392 266
293 477
114 132
195 114
173 14
157 108
197 136
760 284
454 185
589 31
666 194
250 550
54 383
153 572
81 116
598 548
34 15
42 16
558 810
158 694
103 87
150 282
47 46
145 537
305 4
534 630
21 14
783 151
177 749
269 794
140 256
28 302
238 2
487 442
5 6
197 225
753 174
818 91
97 408
314 418
189 172
767 492
364 530
175 499
217 183
433 37
317 47
606 308
738 614
459 567
627 248
172 141
387 482
719 4
2 26
414 214
493 230
448 274
85 21
109 108
207 663
105 272
152 124
201 235
412 59
284 181
467 455
56 18
743 27
479 315
104 213
101 156
658 322
97 6
327 244
528 318
777 655
240 125
685 335
447 360
692 79
72 20
744 580
262 780
649 670
247 568
132 366
347 140
99 14
93 65
25 143
368 355
371 135
172 504
509 778
489 129
74 69
28 10
463 125
278 194
356 556
258 190
504 781
252 650
405 8
520 314
633 141
29 255
474 480
386 71
311 273
356 478
150 49
715 354
46 114
110 379
149 170
603 217
717 523
11 17
754 87
39 82
110 234
7 4
154 264
331 209
451 49
61 200
288 141
668 261
185 268
3 8
345 349
166 102
391 51
123 248
425 319
671 802
219 169
16 20
444 628
180 348
297 273
693 771
807 126
406 266
76 68
597 686
63 23
114 169
50 192
307 492
183 163
53 14
773 734
206 200
156 209
104 334
608 374
790 592
283 629
135 291
8 30
308 462
342 552
2 134
607 356
61 30
133 25
14 125
30 71
128 664
63 83
574 815
202 164
411 71
140 676
37 481
214 237
323 370
456 665
72 135
326 795
726 148
223 18
10 7
820 532
706 147
516 559
340 346
153 67
130 71
799 540
467 618
755 456
705 95
298 49
416 274
561 268
476 126
175 384
135 400
445 509
721 517
189 321
67 36
78 121
516 429
342 424
58 110
207 190
232 231
84 7
764 208
19 33
16 9
12 437
270 204
276 166
239 90
625 823
310 390
81 31
90 645
158 436
370 571
314 228
500 271
407 809
579 87
216 116
373 631
34 149
397 305
264 495
219 352
301 453
512 108
107 690
18 11
822 41
644 208
310 101
359 218
145 545
639 137
441 450
542 180
367 87
24 18
569 228
86 350
117 187
642 29
17 167
38 488
155 1
299 393
225 442
7 5
49 96
696 357
79 66
727 105
544 374
45 73
105 61
672 159
3 2
679 179
759 280
387 417
326 357
105 496
233 641
460 475
58 191
612 506
14 11
22 87
600 722
529 689
91 573
55 100
147 151
6 1
459 394
45 247
640 289
17 27
63 180
226 10
811 743
215 675
654 182
413 523
169 286
19 14
148 140
46 111
385 87
28 164
113 373
312 329
220 378
21 376
669 361
8 4
277 469
415 570
137 110
415 157
124 121
387 225
304 24
494 514
410 47
540 575
209 534
60 184
301 119
50 59
363 158
13 90
63 117
459 539
608 691
439 813
619 306
353 301
772 360
806 417
637 349
393 502
44 553
712 526
343 246
78 165
7 66
782 517
115 296
222 558
497 415
56 57
40 29
354 117
443 96
735 710
224 181
590 655
162 36
178 473
215 636
630 730
185 337
208 710
423 153
44 319
437 513
414 746
409 330
6 617
462 551
341 646
330 404
538 504
429 60
508 714
622 693
16 138
171 119
76 491
140 458
54 64
160 372
11 3
158 46
445 121
20 431
58 54
626 455
821 725
299 3
108 233
330 77
182 707
770 246
231 269
26 230
532 444
270 420
132 388
51 129
260 232
364 88
374 282
611 562
75 80
517 5
105 106
23 16
235 413
340 66
562 377
131 74
577 311
524 316
25 610
630 808
444 341
375 396
281 211
103 494
10 262
223 325
464 623
113 74
36 52
432 505
666 671
392 555
745 445
39 20
274 48
120 115
47 126
798 581
30 752
601 328
711 710
60 335
170 470
258 701
508 378
161 194
554 262
814 370
22 49
22 31
238 289
40 228
688 280
191 620
193 100
215 143
384 622
592 196
166 196
345 60
290 446
697 211
175 78
375 574
313 207
595 586
29 17
733 618
449 305
35 375
115 168
60 1
233 250
407 404
183 586
140 44
389 344
192 510
29 266
259 228
18 186
652 172
677 599
2 48
527 377
130 199
72 145
65 88
440 22
144 92
51 108
259 427
30 136
548 128
525 405
402 355
625 260
103 212
351 113
117 307
13 12
425 526
483 227
268 318
457 443
309 176
765 406
312 293
518 116
12 41
322 257
152 229
683 48
242 768
547 457
237 251
273 161
203 178
750 641
131 661
146 34
740 666
507 489
457 624
290 125
584 155
123 18
648 373
22 75
540 434
786 774
292 86
131 600
543 564
1 2
307 326
643 33
274 484
145 280
674 131
78 653
704 153
687 620
45 6
382 312
148 246
178 244
254 175
580 541
449 560
680 650
673 391
549 43
409 452
62 182
217 519
260 271
283 274
674 699
459 724
709 208
419 369
78 16
154 142
403 169
354 756
660 98
44 344
428 57
355 349
86 227
60 323
104 736
543 430
444 583
88 285
334 434
81 92
258 486
762 388
450 667
250 536
98 74
97 591
72 118
816 610
248 316
439 217
529 456
60 65
682 300
30 201
775 705
3 101
243 159
566 361
104 76
142 36
331 441
339 22
616 452
267 231
651 725
797 354
275 52
792 410
578 159
789 510
6 38
796 360
678 346
501 199
522 24
347 819
333 155
71 102
140 358
456 272
336 313
153 265
757 562
89 731
68 45
684 555
54 377
763 336
602 262
801 79
1 218
121 287
475 541
651 703
141 2
109 471
498 791
741 697
464 333
576 227
257 10
86 362
594 217
323 455
169 506
55 776
605 99
230 422
465 218
270 597
531 34
395 128
315 210
122 651
292 785
163 25
75 421
748 353
22 7
67 70
261 10
223 474
535 188
779 78
82 181
613 470
77 13
614 37 201
593 50
284 104
474 606
300 229
162 2
34 21
9 30
312 228
18 6
45 46
62 256
287 353
2 326
45 253
478 106
169 274
413 548
143 138
484 100
43 212
494 177
359 184
30 447
45 28
243 85
85 115
492 416
55 351
356 423
221 66
431 556
3 19
36 29
472 517
97 125
26 32
419 4
25 278
86 201
304 332
144 75
147 105
139 390
89 268
51 12
208 117
425 113
118 58
17 52
396 1
199 434
156 187
123 73
325 121
557 92
327 584
492 522
54 35
613 134
202 127
311 358
200 16
156 380
15 261
142 118
291 360
21 126
66 50
44 378
173 488
565 68
89 270
303 583
42 72
302 364
553 30
381 310
85 52
546 154
23 14
164 38
101 85
16 13
38 577
395 293
238 341
16 21
220 154
291 445
40 63
2 192
469 246
323 13
189 173
209 190
100 233
482 588
398 56
16 170
35 25
530 417
218 277
59 135
31 1
1 6
498 200
272 218
318 345
37 8
59 223
229 279
25 463
279 355
32 40
607 570
122 48
563 416
218 70
217 118
290 306
7 188
6 82
411 467
2 7
354 15
142 374
348 350
227 582
82 462
252 418
26 22
25 594
545 226
74 172
340 202
258 79
185 150
6 41
116 59
353 479
5 4
520 82
561 80
547 145
81 257
309 288
432 220
122 509
267 365
504 231
401 103
13 244
87 1
143 477
59 327
230 60
58 148
549 61
60 2
334 573
42 1
84 119
403 261
394 531
1 27
207 225
97 502
1 33
19 152
574 21
249 76
160 71
161 112
413 335
68 17
12 539
178 3
252 119
39 35
612 5
538 73
259 587
92 368
34 158
368 409
159 143
177 349
317 7
56 65
70 154
259 302
2 3
546 568
204 135
420 202
605 97
592 595
361 601
566 34
121 96
366 345
451 25
328 555
57 43
401 559
598 380
179 89
102 487
89 295
481 289
426 387
329 68
20 47
43 196
12 59
129 191
79 235
93 247
127 53
296 103
71 12
9 2
240 534
273 526
265 142
98 13
174 105
428 231
387 405
319 188
41 246
255 393
477 536
313 417
145 165
307 48
83 79
305 17
196 236
459 409
132 127
180 206
552 170
74 1
581 395
249 301
544 147
214 9
465 282
506 218
135 156
50 387
248 342
117 53
8 5
328 491
131 183
579 284
33 88
271 259
105 114
294 193
427 228
379 253
344 382
245 233
59 97
567 187
137 226
49 239
81 255
41 96
3 17
103 9
48 34
53 26
199 4
298 219
439 9
315 156
18 240
337 503
99 17
114 529
216 70
73 17
104 528
1 3
155 98
90 14
155 169
70 153
367 163
443 378
177 124
219 216
318 190
166 131
50 227
373 2
113 43
61 62
43 67
244 375
352 505
264 48
237 41
24 11
250 92
71 330
185 343
309 514
150 48
288 310
14 92
192 222
64 17
35 105
589 335
8 7
213 178
234 320
431 558
286 82
511 508
604 358
93 74
602 135
70 138
175 96
167 11
176 197
311 475
429 210
141 121
421 97
209 460
45 276
388 379
285 59
323 377
448 170
564 122
304 223
591 304
411 375
69 1
128 113
50 38
51 95
12 372
454 109
248 60
344 92
33 145
362 193
61 215
57 58
19 386
464 328
140 288
369 19
281 195
57 168
190 177
578 113
23 231
17 299
14 136
6 436
539 586
100 86
39 523
8 107
287 59
291 238
210 36
110 14
101 352
267 473
313 139
205 186
308 188
14 519
489 413
173 182
202 234
203 175
580 362
500 494
18 112
78 496
216 450
540 295
449 252
254 23
79 260
13 9
495 84
173 115
440 184
149 71
241 196
521 201
610 544
311 5
435 130
130 146
97 104
106 59
560 535
454 458
97 402
151 123
174 383
321 59
446 493
3 70
178 471
49 184
77 133
249 551
25 7
109 104
229 209
569 523
280 385
53 61
17 49
55 303
592 89
456 366
356 26
311 424
36 554
232 334
246 361
129 21
20 228
167 242
136 207
93 266
543 170
80 11
314 208
120 102
79 76
251 392
506 585
527 464
176 144
14 56
225 406
262 259
11 483
348 253
550 27
241 357
611 379
328 327
229 263
91 73
399 37
75 74
322 41
355 422
290 77
55 14
134 32
322 486
86 34
224 23
111 90
51 124
338 316
60 194
415 263
78 525
224 400
232 384
541 215
474 238
365 430
22 131
263 324
414 89
29 19
183 431
599 351
455 33
608 122
203 597
263 572
425 472
238 128
248 412
390 510
532 264
408 88
393 518
84 53
86 603
513 283
200 416
11 14
576 33
91 370
127 171
10 3
104 433
375 562
88 515
468 313
211 81
535 159
388 516
600 440
12 10
346 305
186 148
4 6
13 137
79 267
6 404
89 78
292 499
316 64
193 104
52 81
497 219
537 260
438 57
122 289
20 17
139 123
426 470
512 511
93 609
335 88
310 507
28 18
202 273
280 244
333 236
376 254
490 64
480 140
501 52
39 575
157 50
307 410
220 397
446 158
252 457
197 437
38 37
508 184
85 130
24 347
482 80
509 596
129 293
275 123
236 283
251 94
407 231
542 173
32 43
371 36
15 5
292 122
61 77
524 387
533 490
485 125
3 195
382 442
73 140
590 323
339 123
614 19
122 389
292 441
20 102
570 34
297 294
78 31
368 571
476 175
461 262
466 282
8 11
43 232
304 337
94 87
87 198
15 22
259 191
79 108
282 116
331 131
180 41
181 13
151 269
452 203
11 44
453 241
429 444
4 163
363 134
336 58
394 281
3 76
391 42
943 251 921
265 706
72 418
62 243
476 421
297 428
645 805
572 204
210 169
55 171
71 743
753 941
3 61
728 50
848 641
250 778
130 32
256 198
124 30
285 414
768 141
475 148
208 427
803 748
64 46
266 446
461 77
738 83
115 571
926 815
331 6
16 748
808 311
672 189
431 166
650 320
698 329
34 90
55 18
391 29
676 505
15 77
211 120
361 321
931 555
362 266
327 318
411 282
70 581
71 139
497 622
260 301
53 901
434 372
14 5
98 400
200 343
392 256
6 56
338 771
83 163
117 322
47 208
717 420
31 668
211 812
132 658
160 409
314 238
75 68
732 102
355 529
616 270
26 21
265 673
701 531
742 277
58 522
4 129
154 100
677 827
147 199
330 236
59 10
718 349
599 460
1 9
567 456
795 681
211 839
292 57
70 590
766 614
868 813
447 107
734 704
38 33
661 554
281 886
628 724
31 126
504 228
612 28
67 48
233 487
222 29
378 208
464 15
185 40
215 161
423 320
826 321
69 123
11 31
204 470
858 202
710 753
865 551
764 595
457 799
283 600
630 649
75 516
344 896
340 9
23 618
531 578
509 288
917 711
15 543
884 271
154 451
749 455
166 149
50 107
244 87
332 398
30 162
70 229
488 503
473 58
699 542
893 766
745 24
780 675
269 253
70 474
533 640
713 264
1 5
93 645
94 128
98 55
101 384
560 503
347 604
585 540
125 83
637 802
430 423
852 696
504 695
272 29
50 66
558 461
191 449
197 145
731 410
79 144
605 747
313 47
56 317
38 51
5 7
261 336
530 890
255 59
86 456
94 91
625 203
285 382
14 39
212 233
435 143
294 190
639 248
42 828
197 624
906 679
815 545
303 756
479 1
712 58
821 82
20 158
525 633
751 798
834 188
595 278
229 419
242 532
830 183
282 172
2 169
665 688
811 692
213 302
385 264
95 303
577 885
935 143
111 100
104 776
808 928
223 642
183 85
35 95
799 903
165 77
6 4
837 783
308 268
448 323
579 124
146 240
279 275
4 73
325 374
179 149
297 160
237 452
838 246
403 674
142 125
938 244
900 823
882 859
247 257
66 608
266 171
796 336
30 65
13 15
122 132
182 107
63 100
25 307
119 150
546 591
872 37
249 145
647 694
120 700
809 349
161 4
33 370
579 596
252 152
568 200
274 276
70 29
84 41
30 74
160 128
12 37
131 520
575 909
256 290
883 66
371 357
157 880
226 147
402 670
677 150
324 863
288 843
3 137
893 905
924 794
113 194
229 436
397 224
222 328
867 553
418 513
203 108
598 570
71 376
251 310
588 907
916 158
272 898
777 704
119 91
112 28
88 9
230 114
595 611
678 181
127 25
72 62
902 308
164 51
675 26
519 30
26 29
496 355
242 405
424 183
819 311
395 785
268 222
387 426
88 270
752 542
169 191
2 24
690 576
285 816
866 5
846 402
514 483
475 725
166 433
74 344
195 54
787 432
286 636
658 923
50 49
887 286
422 54
53 141
651 125
763 286
861 629
506 239
213 410
727 71
769 158
406 276
696 261
606 644
12 18
34 117
57 82
87 632
613 314
327 358
176 425
378 894
156 38
249 484
56 248
12 540
326 710
758 694
258 691
250 381
131 8
511 472
551 150
207 265
171 720
432 81
556 709
472 452
192 533
929 565
469 382
147 196
355 171
22 93
508 552
918 265
22 15
589 231
862 183
24 283
854 20
231 151
325 268
14 135
653 72
253 485
293 219
5 25
609 845
48 8
9 62
222 857
47 25
388 782
349 309
557 820
151 610
559 937
23 85
439 23
440 288
165 463
204 40
462 369
588 715
152 605
518 307
573 765
35 825
162 471
801 324
109 116
365 6
486 274
38 54
824 141
233 500
298 200
794 742
263 49
225 67
908 19
453 746
177 375
236 12
24 584
670 719
300 295
122 942
147 481
443 849
415 292
656 22
248 779
239 635
342 63
65 202
183 489
425 458
188 99
940 224
411 460
149 34
18 401
147 68
575 750
292 655
81 512
561 144
175 232
528 243
139 319
553 9
573 641
663 643
151 559
550 667
7 10
648 177
273 26
782 871
267 54
7 312
606 316
13 573
180 444
5 173
227 320
285 517
152 174
791 184
167 44
210 247
406 790
548 122
833 58
537 490
75 546
140 3
269 534
102 31
615 744
498 456
614 355
506 735
172 353
482 177
24 34
160 214
437 351
238 643
406 483
930 423
102 205
897 319
5 4
536 337
393 360
786 735
620 621
271 853
303 508
920 577
864 702
804 671
35 8
146 139
429 525
148 714
476 507
547 919
363 334
320 669
18 27
76 412
14 395
359 261
64 227
557 167
363 550
414 493
166 407
144 207
243 657
32 106
228 4
19 12
312 939
133 545
121 21
172 20
873 253
355 660
453 358
275 121
90 338
456 477
851 881
641 851
245 98
215 251
711 181
628 869
172 774
442 112
216 549
103 860
3 60
14 733
343 454
24 457
148 21
232 416
210 793
196 588
69 157
110 350
16 213
72 133
155 186
762 121
708 934
936 532
501 554
844 722
354 15
115 53
175 69
176 914
1 408
68 2
478 366
806 424
159 118
32 14
146 193
11 71
593 17
130 594
583 835
891 535
389 855
665 494
574 889
547 303
178 260
391 603
262 459
616 683
380 290
64 104
367 389
170 123
434 542
4 751
775 352
242 228
102 515
318 253
81 337
152 254
367 539
63 212
671 182
704 314
342 379
333 225
842 70
859 146
529 729
508 619
101 74
69 63
841 262
286 176
556 509
6 78
21 2
662 290
36 583
647 48
49 15
203 441
468 189
296 3
457 565
831 657
430 723
285 75
247 346
352 154
438 397
62 136
527 340
390 290
75 235
541 194
36 79
22 23
64 277
38 822
81 224
37 122
781 332
874 398
250 99
75 492
362 455
530 288
187 877
491 387
396 306
4 8
757 516
192 324
575 344
122 274
136 364
739 344
43 29
404 73
416 629
46 58
876 600
760 150
28 6
582 818
95 339
31 200
912 389
43 44
692 239
264 420
899 17
682 549
108 566
680 290
2 3
657 810
373 26
76 51
335 168
510 87
40 29
119 321
140 311
324 366
501 492
400 521
175 684
497 225
836 95
430 800
20 6
700 755
630 628
99 68
29 36
180 171
2 1
49 63
615 514
562 350
239 129
28 52
36 45
927 47
478 664
241 212
123 523
270 499
402 401
187 122
329 141
879 173
83 53
414 666
488 77
337 368
443 31
96 64
218 164
191 823
703 533
779 783
136 494
617 475
576 18
404 466
689 110
13 5
736 137
314 737
895 155
12 41
46 40
4 11
652 232
847 45
72 943
14 110
609 301
767 921
698 708
139 220
369 91
838 932
289 209
78 80
892 324
741 50
570 331
55 933
42 118
190 49
448 601
261 194
91 27
67 217
480 454
776 911
221 20
259 211
922 717
154 538
280 261
303 705
329 597
797 562
186 189
53 51
105 84
326 121
58 89
17 12
856 382
345 206
3 6
304 292
357 14
115 145
61 81
738 910
285 686
875 94
35 223
195 264
157 219
424 620
206 278
125 181
394 308
316 97
262 387
117 284
659 555
304 626
904 400
726 642
888 171
11 33
829 770
120 421
139 299
135 295
50 767
693 690
467 305
504 628
710 832
77 206
569 537
156 574
403 245
176 40
203 383
271 55
188 291
78 813
435 586
253 18
408 417
631 568
12 16
564 382
30 8
57 28
284 315
191 288
28 155
913 506
278 526
36 42
213 638
168 12
789 136
169 535
184 84
372 77
178 139
685 132
40 531
490 524
388 177
281 161
471 555
126 309
544 449
347 5
870 915
185 356
730 413
116 258
209 131
46 153
672 687
201 96
502 272
814 483
341 62
258 348
308 323
46 754
87 587
113 287
32 495
650 770
2 238
52 114
878 732
399 354
92 351
212 377
363 773
4 143
138 129
582 20
109 63
40 87
83 306
681 369
334 9
231 237
150 262
103 152
185 386
840 773
722 125
108 41
607 363
115 216
97 67
616 788
759 481
592 296
679 2
784 641
87 246
277 450
19 654
88 92
925 402
82 120
707 65
577 543
85 602
429 255
59 623
57 86
216 702
761 363
192 39
303 627
195 413
340 721
329 807
455 580
817 688
563 434
229 332
505 461
646 114
139 198
772 118
315 637
16 134
446 740
83 103
234 80
366 716
634 251
30 360
456 850
465 335
296 870
69 305
177 22
490 466
306 445
367 280
95 113
12 6
792 328
310 697
107 151
535 178 332
277 466
11 98
75 157
15 260
53 508
75 53
63 53
93 250
228 115
73 384
69 2
106 102
88 313
333 162
49 381
96 175
192 363
3 4
409 526
492 18
241 252
501 281
83 299
123 42
139 218
177 80
70 396
93 72
303 139
413 76
288 79
263 70
74 285
367 410
58 79
224 45
515 288
362 431
111 199
165 502
38 20
325 195
452 498
197 361
489 56
50 262
222 464
208 312
171 102
47 167
453 109
3 154
140 75
172 211
227 129
118 417
30 68
144 203
430 268
38 144
214 96
223 387
137 369
156 55
43 443
309 243
67 307
496 446
324 54
6 2
96 75
386 509
191 114
296 109
436 122
481 113
375 245
485 115
272 344
1 18
411 381
239 104
437 144
92 186
416 278
277 470
101 12
120 104
258 124
361 503
342 114
435 74
63 273
406 273
256 110
286 204
151 13
45 7
495 2
270 399
81 206
41 16
86 47
71 94
392 223
427 193
76 241
222 279
55 141
343 290
297 19
355 438
15 23
106 306
500 450
186 348
11 382
317 98
108 242
148 402
309 403
47 268
237 102
274 320
469 290
226 220
349 128
277 181
254 534
73 219
38 169
453 530
244 335
169 379
54 103
53 184
429 381
150 389
311 250
173 397
11 432
216 434
180 171
5 1
10 48
419 359
100 78
250 275
274 94
352 301
145 197
174 75
314 287
473 488
55 47
13 36
246 15
511 429
352 364
75 181
118 414
121 401
391 472
80 41
68 478
69 126
186 370
300 163
139 322
404 229
138 159
486 233
361 494
66 39
373 48
190 79
9 59
110 124
422 224
78 499
3 5
147 62
77 33
67 198
518 524
114 259
194 177
31 10
200 44
18 89
223 282
90 128
188 171
209 418
452 415
132 107
1 245
142 251
33 4
196 338
372 380
20 1
51 30
3 22
13 25
400 299
170 36
362 248
44 355
517 486
474 97
17 15
139 19
143 385
130 127
375 520
257 444
57 40
386 262
162 249
142 121
5 95
398 49
104 117
298 153
255 125
267 316
9 487
156 327
15 143
223 127
63 150
73 201
92 222
482 400
14 47
270 391
292 395
178 74
45 162
10 5
54 25
40 39
189 50
73 460
15 133
442 2
1 73
122 357
457 362
158 114
61 14
439 288
86 116
163 16
152 14
531 465
135 346
47 135
79 213
4 2
131 11
441 61
146 119
479 144
91 8
504 67
55 183
72 433
104 39
30 3
373 394
483 267
13 8
206 236
49 446
232 301
299 459
235 81
321 51
85 39
351 94
71 46
89 149
55 148
406 493
44 233
428 39
354 343
52 187
331 45
65 72
266 421
54 205
58 21
22 153
1 34
293 18
107 69
87 7
367 99
72 113
271 6
135 310
516 158
83 512
88 2
230 203
39 82
341 292
304 425
220 372
272 212
29 12
10 11
278 262
390 72
262 359
477 314
15 52
109 8
5 368
424 293
90 80
453 484
180 192
199 281
303 318
48 119
9 83
274 345
7 1
27 76
470 471
326 52
324 332
108 308
337 253
108 134
254 90
525 416
117 173
60 168
285 376
53 371
64 3
264 134
10 24
291 106
21 105
114 78
8 78
46 292
323 179
409 145
302 256
447 462
243 95
138 68
207 44
46 523
445 152
449 7
29 62
289 43
114 182
2 8
290 122
329 62
72 204
29 160
19 378
257 79
304 225
513 447
450 92
253 180
69 112
420 174
56 43
295 95
34 125
6 12
67 5
379 393
516 522
115 106
461 3
350 280
185 40
34 270
480 59
447 438
491 144
6 1
65 97
50 15
377 350
521 352
78 108
360 408
167 339
35 137
111 60
65 40
529 295
109 463
24 42
44 14
118 63
29 121
234 87
122 54
388 82
80 84
150 155
83 383
187 261
201 518
365 132
283 42
23 26
283 356
256 467
235 407
161 276
415 448
103 179
454 415
166 59
49 1
15 11
136 305
81 336
302 374
266 115
231 144
290 519
505 155
161 154
366 4
247 183
46 8
490 358
210 191
319 124
345 353
423 35
527 181
468 391
347 214
77 110
385 475
19 328
507 317
58 440
45 127
75 209
497 2
166 195
449 535
41 164
92 88
272 510
43 27
287 116
102 45
215 164
172 11
129 29
53 30
32 7
265 234
31 212
7 28
99 77
63 294
202 91
232 98
15 19
175 315
156 208
193 115
50 221
39 18
172 284
458 430
21 4
427 532
114 465
238 267
7 37
81 5
2 16
214 426
165 148
216 269
533 66
182 358
209 514
24 136
451 19
53 60
124 244
246 360
455 58
35 14
9 2
437 473
528 140
143 220
96 145
265 412
196 193
216 99
369 476
296 456
70 47
248 179
401 415
21 27
74 69
3 14
113 176
340 164
506 429
334 261
229 121
331 405
217 138
254 330
131 240
280 210
225 1
79 238
608 487 169
471 139
17 215
268 443
322 262
319 429
562 591
375 579
46 485
187 607
239 6
425 511
363 501
202 155
37 41
95 558
244 131
470 393
460 80
26 406
280 562
55 232
183 136
192 82
37 86
145 210
4 5
113 101
112 41
81 133
302 398
34 379
499 556
498 244
131 135
543 328
25 109
165 115
441 60
599 88
134 137
347 16
82 199
388 73
318 529
41 67
282 268
135 181
122 241
325 130
4 16
250 123
92 131
180 377
6 13
246 518
139 182
260 139
245 585
495 447
233 326
116 158
252 136
365 520
57 52
80 248
337 469
8 56
337 10
370 362
11 12
9 287
293 142
273 217
411 249
159 587
357 184
197 174
66 118
107 86
313 137
221 122
502 481
274 186
541 41
376 294
179 478
146 277
333 195
514 470
152 256
19 73
38 26
429 588
130 356
339 355
37 423
94 30
396 185
176 424
92 288
148 561
12 578
67 84
7 44
372 221
49 19
138 330
35 15
115 150
445 488
31 189
247 276
176 115
165 295
399 546
399 415
69 33
163 78
381 300
135 353
9 136
48 115
376 479
379 402
301 466
13 23
111 52
31 39
173 139
24 8
499 582
227 437
359 74
252 468
332 535
526 141
71 123
33 242
68 44
20 253
100 92
119 46
571 594
135 205
267 252
401 23
602 509
25 390
575 153
279 274
146 193
477 491
272 525
21 9
119 291
364 5
27 20
304 285
24 29
187 445
7 222
417 431
76 32
406 446
86 92
161 571
118 249
230 14
2 6
132 147
241 447
188 181
407 534
48 96
314 150
28 21
125 56
414 577
47 90
46 24
603 582
108 110
154 102
37 52
462 160
52 343
33 10
301 59
459 326
8 454
184 504
93 140
142 33
10 74
172 391
318 554
293 298
152 236
354 54
237 321
1 30
425 364
174 194
69 93
83 393
606 596
49 175
33 102
143 139
50 178
278 373
152 311
34 409
385 458
105 94
481 166
310 150
549 521
505 37
330 563
523 184
13 34
284 309
210 243
349 149
581 571
43 13
244 366
368 366
77 40
584 575
71 275
247 224
493 362
590 25
68 327
171 49
531 104
341 487
3 20
12 151
6 1
212 394
94 262
410 283
271 342
186 86
133 553
305 260
1 208
346 389
172 68
92 226
456 336
165 258
476 149
62 126
114 84
286 130
595 110
288 407
170 2
332 12
101 85
206 51
278 433
108 219
18 177
15 25
54 120
430 537
179 94
202 229
75 9
420 332
311 432
184 27
177 234
127 105
195 54
403 455
324 86
132 145
547 194
90 185
608 163
295 522
568 542
113 339
42 340
169 8
41 58
132 251
371 20
453 180
331 315
295 341
586 233
25 55
45 48
6 106
113 430
410 550
6 63
95 174
399 450
175 216
196 142
438 371
47 40
12 42
395 303
9 2
53 26
139 155
246 95
378 77
365 85
436 143
163 551
527 164
4 153
200 167
306 7
85 95
179 416
104 240
116 496
31 400
205 601
18 4
74 414
62 157
428 384
423 435
248 508
63 285
15 88
251 524
222 570
358 231
270 188
127 516
512 4
6 17
189 426
374 215
120 352
281 319
70 308
30 45
200 299
539 256
2 152
116 180
279 280
124 33
218 536
306 315
13 130
329 281
207 67
266 48
14 4
246 482
122 316
61 217
67 104
3 583
63 576
15 72
465 182
37 159
32 121
4 457
231 552
573 557
17 334
320 279
545 443
290 16
264 131
331 404
215 480
61 129
141 124
557 160
160 19
29 36
519 479
61 36
300 288
415 513
97 42
69 91
356 510
297 198
70 128
22 21
449 555
348 48
336 257
74 464
117 492
6 380
330 397
208 214
261 213
19 367
418 185
444 182
134 146
506 65
384 329
11 449
169 212
461 458
155 509
71 532
168 20
411 467
5 3
320 382
398 475
500 71
486 74
119 220
560 280
96 187
507 219
574 196
238 162
269 34
412 483
605 190
213 33
167 59
111 284
392 69
517 241
490 363
418 572
82 12
287 292
198 98
323 145
5 19
80 55
79 83
204 160
439 59
138 38
263 362
246 317
497 387
134 17
261 289
327 515
46 64
531 559
32 71
32 12
207 257
188 338
270 473
181 600
76 81
161 108
357 363
295 592
88 477
419 175
55 201
60 190
160 422
271 106
24 233
604 553
124 361
40 3
273 564
228 199
364 593
369 303
412 413
278 146
39 139
5 15
21 85
161 191
96 227
50 12
385 375
596 175
519 538
272 113
589 173
542 361
103 102
19 66
540 314
440 489
40 162
281 403
87 29
442 176
598 230
463 250
108 97
128 351
421 167
567 54
548 400
14 37
302 234
335 238
318 54
109 117
25 116
51 21
209 191
405 76
17 60
31 21
254 78
1 255
216 303
65 149
503 22
383 293
296 9
75 448
231 100
387 77
2 4
60 144
338 345
178 237
3 8
3 1
259 98
417 297
42 59
136 235
146 346
39 565
2 7
544 494
148 65
30 375
193 294
530 471
427 59
217 472
79 15
307 262
132 57
412 249
11 2
474 50
57 360
22 166
6 26
47 78
89 22
308 533
223 47
569 463
219 245
225 189
42 283
239 281
38 156
350 241
451 60
499 109
70 59
408 44
528 164
65 34
108 265
71 312
211 13
30 580
386 348
223 597
566 445
263 135
353 440
188 268
484 83
98 36
203 7
10 4
70 122
224 39
192 218
287 494
62 36
521 501
281 344
399 161
36 99
159 164
39 434
54 37
452 103
328 263
898 303 496
303 159
13 17
222 229
286 463
580 43
52 125
277 657
757 323
156 785
635 27
492 630
138 308
489 415
354 384
481 248
461 754
304 502
18 4
79 144
617 773
143 167
1 692
245 38
222 227
618 304
525 848
203 65
4 327
134 275
16 492
191 217
158 351
482 217
624 670
56 104
269 106
1 2
786 482
30 110
850 561
4 69
70 79
739 845
439 720
8 96
388 485
313 846
109 783
379 370
87 186
251 268
97 151
748 564
105 86
277 606
352 311
434 852
281 194
587 501
11 496
301 749
75 91
67 41
784 379
9 8
247 431
180 29
615 456
161 204
541 135
235 206
366 228
142 498
66 244
126 213
397 325
215 293
841 752
286 153
107 65
479 19
883 642
541 828
777 550
545 642
163 469
55 130
419 840
194 592
309 377
48 60
60 314
347 31
681 236
93 99
262 190
725 746
19 339
189 374
722 833
142 401
91 209
78 90
304 357
181 172
555 683
5 11
153 7
24 29
101 161
473 179
238 426
22 2
153 706
291 64
7 2
156 35
341 354
274 8
637 52
810 572
17 537
20 689
124 140
525 257
408 165
238 157
596 889
17 38
321 543
231 544
579 9
709 248
14 499
223 168
8 5
724 532
32 84
45 1
383 321
797 272
824 330
877 73
37 390
40 752
325 333
650 632
865 275
64 256
3 26
32 8
749 815
235 373
854 540
689 838
552 532
682 614
385 111
33 3
222 764
187 228
150 472
308 313
167 263
41 320
222 609
176 158
518 337
725 687
66 92
338 253
452 576
452 333
48 18
376 270
832 169
177 462
289 21
170 425
58 24
257 264
349 308
28 11
596 87
50 122
109 216
263 270
500 561
106 215
497 804
88 131
377 599
90 185
70 476
744 647
77 93
722 9
15 611
870 223
568 133
10 20
153 812
562 801
79 653
511 7
303 487
88 294
557 281
39 201
174 172
714 266
124 73
8 258
410 54
289 364
280 329
17 41
595 57
375 159
168 44
154 577
649 64
299 584
381 341
61 86
158 129
67 465
348 123
116 315
736 349
389 542
13 178
519 443
36 136
230 700
877 886
114 95
154 149
345 68
792 720
306 429
719 130
456 179
79 310
11 15
669 874
2 30
827 59
413 662
378 354
847 642
29 37
47 56
647 57
867 375
116 48
95 119
47 82
157 394
79 687
176 387
169 164
151 260
356 888
17 76
368 57
158 325
21 97
53 288
160 128
97 763
407 437
78 602
71 483
12 882
796 285
55 428
188 66
150 136
157 60
349 399
585 263
627 149
299 422
701 129
494 483
113 100
855 663
169 547
8 36
517 858
768 805
64 27
531 329
123 196
35 257
407 524
745 557
202 645
523 49
680 864
26 49
514 669
632 813
244 802
755 120
83 632
179 250
246 175
461 40
427 178
207 656
416 793
169 475
143 560
887 772
606 654
42 513
330 572
481 605
340 86
570 93
36 85
253 68
142 114
76 504
424 340
135 290
339 443
39 43
350 120
342 667
41 876
183 128
318 646
794 363
507 242
132 684
648 511
194 109
123 108
712 150
664 737
53 563
67 372
207 20
3 31
42 30
152 116
343 480
129 78
503 459
608 81
171 130
496 761
65 4
50 148
498 619
234 508
69 239
369 92
590 441
17 118
823 65
61 2
645 891
296 486
200 629
776 444
20 70
588 655
686 611
644 161
245 362
78 8
176 578
34 438
388 240
61 842
630 808
441 758
202 442
295 380
126 134
28 540
146 202
775 351
100 46
524 693
254 575
190 172
124 145
694 83
618 731
293 880
795 337
419 265
235 468
12 19
53 103
498 688
170 59
612 215
208 20
751 487
32 471
555 27
436 447
247 35
666 717
34 47
128 533
89 420
413 122
38 205
287 271
451 250
267 159
578 830
384 603
663 643
257 553
39 52
248 75
664 221
685 438
309 41
503 534
739 132
503 707
522 770
127 59
533 691
266 535
355 814
500 271
46 18
655 799
169 459
41 782
633 197
226 47
61 249
470 280
146 32
92 101
522 329
191 565
90 200
154 729
274 617
306 122
115 70
618 825
631 75
330 243
351 881
53 195
185 527
4 1
11 57
122 155
71 23
730 844
152 165
710 511
400 330
809 735
93 198
238 856
305 177
556 507
528 227
169 284
234 158
156 197
223 554
553 588
843 486
133 626
787 677
564 613
373 589
134 550
520 510
182 24
228 713
371 623
875 542
76 296
716 487
159 25
11 50
211 31
427 863
535 551
156 191
372 676
212 396
591 371
405 108
435 368
660 636
3 4
389 488
484 516
564 505
90 109
365 240
116 334
316 3
868 588
15 597
12 163
48 63
1 55
382 329
94 728
172 155
569 207
278 6
637 769
77 2
131 871
146 583
492 800
46 98
75 404
259 14
36 371
406 346
393 727
789 146
128 138
894 594
82 193
409 490
216 526
128 233
743 723
321 104
114 872
121 624
822 399
235 460
342 331
573 315
434 574
353 415
355 196
150 545
651 778
665 168
726 39
53 323
16 14
216 337
130 695
480 819
120 453
102 90
866 732
112 95
68 11
418 621
226 240
756 165
301 205
691 733
38 651
83 59
51 532
24 466
222 153
509 504
115 126
65 87
141 395
798 458
64 344
34 817
120 857
494 530
5 21
158 243
27 12
24 2
477 412
4 162
7 652
549 223
26 283
167 241
224 788
411 20
414 228
839 318
21 467
273 187
107 711
152 295
634 58
54 120
152 680
282 222
268 601
237 119
766 54
206 454
79 705
111 10
81 32
31 643
358 412
86 359
103 149
269 409
322 97
345 666
35 33
83 135
741 2
641 407
234 759
214 32
323 464
740 519
3 2
449 282
341 234
620 250
768 384
346 90
392 89
538 340
272 353
705 851
286 892
12 218
265 444
168 423
410 505
551 559
829 237
65 192
228 292
177 124
347 367
300 208
665 765
818 19
367 790
325 721
30 72
678 496
337 440
164 332
51 80
175 46
238 254
78 224
417 182
636 196
302 201
393 614
671 231
67 661
95 696
731 762
8 75
835 430
628 42
664 715
352 446
88 64
658 167
212 147
699 615
189 187
831 437
779 682
432 539
1 184
232 15
89 7
139 10
5 2
536 388
389 290
20 66
878 465
299 285
44 128
262 370
25 7
325 562
225 159
772 397
807 263
622 781
266 207
81 610
445 407
358 117
342 780
600 54
26 546
610 811
478 484
106 277
15 586
279 35
261 161
110 363
1 166
514 697
638 134
26 690
10 6
245 640
430 115
448 305
12 236
407 698
398 359
461 495
94 39
493 510
566 490
615 702
708 471
13 9
318 73
40 750
599 898
896 788
582 540
332 515
272 178
432 327
458 457
594 134
718 245
837 697
132 674
493 40
147 93
879 216
673 296
54 37
730 629
567 135
742 653
604 587
281 361
736 897
62 386
521 365
39 27
767 125
826 347
853 543
213 581
245 734
709 821
672 303
2 436
44 206
60 95
343 258
307 150
82 276
255 103
319 253
280 56
145 677
108 73
10 12
474 593
514 45
76 242
571 393
718 834
639 820
265 248
723 169
121 199
859 326
206 598
616 445
301 869
407 64
329 393
285 199
164 418
137 125
304 146
98 735
774 39
254 326
164 84
73 143
679 150
44 8
607 25
356 167
517 11
317 82
173 54
210 142
50 298
220 152
209 271
314 771
97 132
40 22
187 84
77 231
548 97
73 25
625 66
895 891
747 148
188 497
464 791
1 6
501 14
1 836
22 230
732 576
58 121
78 416
439 760
421 184
720 884
491 366
308 441
274 529
402 314
433 249
430 704
59 50
632 893
92 659
14 4
753 713
342 885
53 26
284 622
30 703
803 105
133 126
252 236
806 25
96 311
62 434
83 862
19 23
34 33
860 796
248 297
375 668
816 726
588 861
328 9
457 24
10 141
639 307
316 512
849 784
439 20
57 117
187 251
324 196
360 86
102 219
253 450
331 253
48 106
43 51
290 335
171 890
430 478
474 379
21 74
179 91
221 119
238 455
873 181
312 558
283 506
391 211
18 62
286 675
80 403
738 328
336 324
312 205
966 316 102
32 227
294 722
410 156
774 786
526 72
396 118
6 28
293 715
645 923
619 575
103 25
344 884
355 148
498 102
541 340
167 1
420 593
299 282
428 41
887 827
130 714
303 123
604 231
544 581
18 56
239 399
587 183
435 248
423 379
433 201
452 13
3 126
544 804
919 648
704 11
337 82
766 539
954 70
325 441
476 114
34 7
520 459
206 557
954 962
87 178
9 4
666 269
9 125
179 7
601 158
57 92
129 13
348 346
361 111
172 273
35 10
328 830
66 34
669 608
309 639
847 423
23 130
30 14
1 10
215 30
153 952
109 291
312 505
195 849
720 573
43 229
12 29
513 559
685 534
74 231
452 527
215 475
648 951
217 375
895 915
298 511
966 273
784 443
906 534
292 71
703 896
16 42
918 462
85 31
37 22
353 303
765 574
55 477
109 151
694 602
227 659
243 598
799 756
419 229
188 811
175 253
408 241
10 5
644 273
222 376
404 15
461 537
662 755
610 475
737 164
948 183
514 761
357 521
529 317
63 192
34 308
597 296
217 72
25 895
602 406
13 21
953 634
236 200
52 464
740 377
15 255
76 23
101 760
87 864
370 546
481 518
11 115
929 365
825 222
253 266
136 173
1 9
41 341
53 425
44 769
390 258
140 950
212 139
649 321
570 405
379 204
104 154
50 20
19 69
124 35
17 49
284 3
629 718
655 870
532 101
27 17
71 75
23 3
194 767
118 279
247 237
5 3
115 812
538 537
313 834
347 308
17 13
2 98
27 318
193 243
286 66
91 46
154 492
383 794
48 89
24 93
338 175
851 806
783 398
226 48
743 297
197 222
205 223
193 103
200 85
251 174
875 430
406 5
41 137
67 11
10 234
709 115
36 97
80 374
443 309
112 77
471 858
89 120
558 475
543 183
167 240
623 922
265 53
388 292
437 572
98 169
144 62
288 32
173 191
47 439
949 309
63 156
315 283
365 138
320 381
224 203
449 325
279 568
535 793
107 312
49 161
8 2
1 165
71 276
589 843
620 48
60 1
83 964
206 366
671 353
65 707
241 100
154 637
174 774
661 407
50 795
826 398
914 149
388 491
336 421
186 903
287 167
686 13
701 190
90 311
60 117
805 569
436 379
337 455
218 302
296 171
566 402
446 777
150 122
330 143
470 28
467 401
780 323
230 110
207 132
106 97
417 485
20 202
430 387
562 869
32 533
239 203
676 120
515 654
210 742
517 687
242 627
133 673
108 61
234 565
256 66
24 4
606 364
315 840
446 3
655 663
614 842
145 71
724 105
149 395
134 42
327 241
853 631
346 198
64 7
233 163
594 872
193 725
51 33
633 556
873 556
304 594
752 177
935 23
548 797
197 350
442 156
42 170
305 607
317 580
6 61
397 189
368 603
454 629
94 5
99 647
237 901
359 180
1 257
555 335
65 242
305 448
10 539
201 756
503 611
590 38
297 832
419 945
616 106
521 653
11 636
623 102
214 523
203 371
912 210
576 4
551 528
710 288
420 207
512 326
12 20
11 400
658 817
382 316
42 328
456 339
210 458
584 104
838 207
721 609
71 478
571 48
349 807
38 25
95 20
33 389
474 931
210 524
174 78
181 82
31 57
147 283
605 882
12 363
2 7
274 72
122 401
632 282
323 585
55 835
845 103
657 247
135 38
86 55
22 184
29 277
142 617
466 127
52 23
679 372
928 304
586 246
808 475
326 153
172 320
412 300
151 194
437 67
386 66
298 542
143 744
18 12
52 259
237 471
168 25
525 223
232 508
551 860
362 562
480 499
683 661
925 549
81 841
820 672
691 153
630 932
246 778
672 23
246 344
588 660
809 451
26 7
72 155
188 179
78 153
72 44
74 69
268 540
364 176
190 429
16 19
591 940
736 395
5 119
693 251
64 73
775 708
355 753
212 313
335 218
233 295
362 114
3 776
266 702
328 615
397 552
554 618
10 53
22 83
942 694
506 347
122 716
345 279
16 6
728 62
788 164
336 129
767 930
22 650
719 50
105 122
517 502
19 732
645 504
414 322
236 316
462 859
70 614
423 553
360 231
29 68
393 375
360 560
163 750
73 205
816 363
732 891
109 415
513 575
904 312
773 565
660 665
114 139
585 640
198 203
384 184
285 32
329 321
100 118
411 846
297 101
507 268
315 319
341 495
678 321
609 220
127 943
317 664
739 219
448 862
136 282
462 104
69 589
31 81
582 524
179 824
343 22
454 107
121 195
45 29
481 42
583 818
135 354
648 677
85 624
80 15
146 208
232 127
703 304
22 486
263 479
183 54
120 185
281 100
917 715
467 642
157 20
827 20
295 848
34 105
178 427
199 152
78 583
850 690
537 648
757 375
160 211
36 911
301 38
258 57
764 789
69 123
690 417
802 476
469 801
101 98
681 629
127 574
87 515
122 411
18 684
309 101
630 937
941 544
30 398
32 201
861 390
51 131
550 305
155 723
117 138
222 377
32 158
4 39
403 327
175 48
254 118
487 313
47 7
257 796
504 567
522 600
204 64
1 545
169 578
96 26
320 888
197 137
501 477
245 889
727 926
431 293
508 771
40 218
40 563
101 459
184 219
233 262
126 655
694 856
800 444
844 42
461 829
910 522
356 166
194 461
643 216
560 592
280 370
306 304
333 237
641 481
136 119
239 339
34 160
605 244
13 107
121 171
263 480
107 734
670 252
418 365
188 444
430 749
257 453
243 868
119 163
317 373
652 17
46 189
294 409
496 148
77 4
234 958
27 59
894 623
109 763
874 630
631 347
206 74
402 188
14 8
828 305
762 18
457 239
196 145
955 763
33 19
148 30
787 718
638 228
615 656
748 89
382 417
682 947
36 489
323 934
678 927
944 919
351 242
555 855
139 213
26 36
921 478
32 104
139 141
75 700
833 920
907 666
18 40
203 472
42 70
561 77
21 438
479 689
838 924
196 334
357 416
109 55
138 500
48 30
308 938
401 516
599 517
179 293
185 900
39 140
209 30
303 591
407 139
310 713
13 5
210 534
815 548
246 37
854 506
274 289
426 596
3 79
414 770
698 95
99 53
365 387
97 121
307 303
80 162
149 59
59 225
420 510
573 566
12 321
23 367
263 52
19 22
863 390
745 511
2 15
369 509
253 705
132 62
33 180
503 289
311 695
768 594
108 331
670 785
225 369
513 936
324 42
314 148
530 456
729 202
42 249
130 298
473 381
25 228
82 164
960 709
378 297
107 252
717 676
534 791
275 154
290 806
187 352
290 380
908 14
141 790
24 564
385 286
186 531
909 358
810 883
219 290
27 143
712 671
646 343
878 203
164 424
726 237
217 372
160 913
11 9
540 730
836 570
130 186
819 356
342 98
87 708
340 837
941 965
422 395
696 167
332 63
706 139
515 764
322 579
658 236
15 44
13 46
405 613
181 294
87 5
395 625
331 497
576 959
285 711
727 667
35 772
493 469
15 32
198 195
126 187
277 803
304 32
57 133
528 121
190 141
494 30
612 113
33 451
180 746
607 963
731 879
97 440
680 147
792 778
465 125
114 86
26 110
916 138
83 733
519 15
460 29
721 902
73 111
549 351
300 115
674 225
428 447
172 76
325 156
244 125
468 155
369 391
152 13
317 152
145 237
535 491
349 328
38 71
823 814
2 554
93 675
434 107
20 54
692 548
662 564
504 81
296 621
782 581
798 29
12 8
405 112
578 897
164 280
488 37
474 55
347 667
921 957
577 290
432 228
502 19
455 536
261 118
268 28
296 392
59 65
296 758
890 228
62 23
469 107
70 323
11 55
115 166
871 535
230 668
310 48
60 833
547 520
229 426
634 464
131 250
814 29
869 961
773 933
94 102
569 262
216 38
813 810
91 741
446 751
224 892
529 635
15 63
831 628
182 178
107 886
260 38
595 296
498 881
724 893
82 15
544 226
221 50
9 58
1 31
876 603
210 44
682 557
831 880
368 24
68 176
865 433
779 158
245 108
41 6
956 537
101 445
697 320
741 885
628 175
384 483
180 450
228 482
905 303
839 354
151 857
267 32
3 8
113 89
357 169
899 316
463 373
513 348
4 6
238 98
155 235
251 271
867 69
44 127
630 288
293 699
179 358
300 394
66 116
383 155
413 48
651 55
747 661
53 548
23 43
53 738
877 558
11 88
426 946
176 177
694 898
353 622
754 461
456 735
146 3
866 623
781 217
240 522
214 154
7 6
269 822
147 126
1 220
8 270
264 165
608 478
17 142
78 47
371 821
446 852
90 86
371 556
178 248
61 100
484 421
688 62
588 56
48 84
246 305
322 214
939 859
159 272
17 25
810 726
426 514
340 95
111 159
269 22
368 626
221 278
759 529
731 260
418 490
62 128
663 633 356
335 453
266 620
405 189
390 220
10 68
264 280
412 426
38 132
317 257
45 609
122 108
63 169
261 14
621 258
186 160
140 204
119 83
235 123
34 161
203 61
606 598
622 162
93 85
628 630
100 125
619 23
156 336
284 482
94 562
24 88
4 42
228 108
318 372
215 218
120 101
5 415
439 375
91 66
654 372
35 406
400 171
310 474
20 338
76 42
16 127
14 4
6 222
175 236
189 150
515 379
39 86
194 128
328 397
133 158
286 21
115 62
444 523
293 618
47 350
40 263
412 510
186 278
82 28
47 72
17 13
470 437
139 165
397 455
560 471
539 225
394 262
582 104
592 560
31 256
54 195
550 101
38 6
233 12
13 31
24 282
303 78
206 178
46 491
76 167
595 407
281 300
213 463
162 359
54 117
32 14
176 229
209 55
546 218
171 446
23 65
40 586
26 67
599 516
451 547
306 543
5 325
272 189
118 29
410 490
298 259
45 136
31 111
389 535
129 529
629 181
105 476
30 17
647 257
2 252
339 99
23 388
265 1
134 153
168 161
284 196
285 537
154 87
13 21
171 172
81 73
68 585
421 653
47 440
356 553
143 227
218 411
4 597
398 69
269 206
180 353
387 252
128 260
389 82
593 465
306 287
276 1
416 424
212 332
216 454
108 314
182 84
83 89
224 334
163 100
217 524
61 18
60 655
407 648
419 2
548 192
100 423
155 307
40 146
37 12
238 44
516 274
326 24
409 32
162 289
29 484
414 504
23 8
541 379
381 116
462 454
101 17
511 66
658 523
183 142
500 605
104 87
596 72
456 246
357 194
26 151
78 69
517 663
273 264
610 367
521 298
51 9
9 10
487 160
28 237
71 288
106 27
612 394
11 18
118 380
558 473
49 166
639 33
209 581
151 304
176 93
5 12
16 6
365 303
650 69
131 38
45 52
139 88
103 231
563 385
5 3
253 10
66 42
290 5
20 40
44 207
146 245
283 285
230 90
141 451
481 646
507 238
402 377
156 56
603 27
166 170
8 600
193 120
102 363
634 611
458 390
120 488
92 7
31 199
607 333
367 26
478 1
272 418
397 420
448 375
213 628
51 464
427 189
26 109
24 311
181 302
354 339
64 213
138 112
297 233
649 305
614 380
329 103
496 583
54 113
41 1
36 70
123 345
112 72
259 292
660 63
527 464
295 632
345 349
223 100
99 343
573 575
4 3
255 214
7 22
394 422
551 128
496 579
13 27
62 226
27 404
633 367
181 264
401 645
508 229
48 247
365 590
323 139
350 408
154 328
4 457
109 532
90 44
434 608
304 371
499 40
433 23
80 12
4 73
312 95
149 8
22 514
157 153
25 46
66 257
14 55
32 567
284 564
9 248
438 3
55 270
296 301
45 267
489 446
187 79
481 192
33 107
436 273
34 20
150 25
24 97
611 260
259 230
207 503
517 193
56 116
304 465
177 571
240 78
9 4
86 212
53 57
31 635
315 293
5 2
241 37
155 501
305 48
578 189
187 262
437 429
74 20
443 357
187 220
104 348
106 205
274 366
135 530
147 140
60 221
83 94
637 24
215 213
310 587
25 124
77 432
449 179
145 416
452 201
301 413
242 234
467 139
113 198
346 375
191 461
86 135
32 83
524 554
1 79
485 344
100 174
505 45
488 520
383 109
636 545
48 318
154 185
480 493
472 282
28 11
377 132
191 69
651 504
126 21
602 242
214 37
72 475
555 525
87 26
436 495
559 191
197 18
640 90
453 580
23 47
145 243
335 344
43 49
15 35
3 7
275 8
210 2
62 428
147 638
506 326
234 87
343 659
134 369
223 552
613 540
81 142
85 27
414 561
77 137
512 63
11 4
341 166
16 102
459 57
599 641
32 160
78 130
38 525
514 522
519 517
271 87
287 30
327 223
121 58
274 142
643 463
179 14
360 498
308 8
50 41
378 134
568 174
46 661
177 13
244 572
362 69
20 190
363 624
502 14
144 364
399 253
644 467
256 340
26 23
127 144
143 662
135 208
309 342
29 25
214 225
20 43
50 497
162 141
492 132
177 346
27 173
98 56
333 218
188 138
3 330
574 320
53 35
356 557
250 483
569 87
496 66
445 299
459 589
224 62
209 396
290 293
11 20
145 80
123 26
347 58
24 12
178 76
412 431
32 108
246 183
382 536
388 509
576 68
105 48
294 158
565 76
268 131
391 352
12 625
53 129
184 17
254 202
30 382
566 51
41 152
70 232
588 188
22 63
71 34
56 43
414 290
159 127
468 413
66 500
133 79
143 89
404 479
79 450
281 10
31 141
4 1
32 84
321 434
83 534
235 370
626 30
11 217
154 392
251 237
140 28
296 368
5 6
401 73
276 376
9 486
19 351
164 7
627 244
169 324
494 299
598 1
343 656
155 133
95 64
48 403
54 30
27 60
471 211
538 464
373 13
533 275
473 329
374 302
110 102
30 299
92 175
14 15
545 254
168 180
201 5
79 386
594 180
13 313
13 4
441 50
69 35
62 29
297 410
444 213
149 544
175 239
48 35
412 136
557 657
27 531
271 355
37 291
137 407
95 337
323 617
97 518
466 58
310 22
103 88
3 33
258 111
87 642
26 430
1 2
96 39
584 558
244 94
513 47
19 6
82 211
417 413
425 393
59 41
249 79
29 134
57 549
98 577
429 307
540 533
6 148
25 39
319 255
157 385
528 167
573 165
616 71
360 310
187 202
352 306
26 58
556 500
145 219
309 126
379 149
472 477
177 192
384 245
114 5
591 105
321 184
421 143
277 263
445 469
163 283
181 84
161 652
8 3
147 196
338 395
100 56
200 178
38 631
44 15
335 132
38 75
435 362
2 36
231 320
227 358
92 542
128 107
372 442
393 210
570 59
25 6
226 250
42 45
460 234
601 378
526 347
279 48
615 144
135 295
206 447
99 59
239 322
67 77
42 64
282 361
316 223
1 331
93 266
66 171
623 617
599 604
250 296
106 216
389 480
356 222
698 358 238
183 107
43 180
3 8
65 692
247 511
103 18
222 70
336 5
7 5
461 305
234 408
287 44
21 91
603 220
293 197
310 218
363 534
537 233
16 302
343 245
24 36
569 408
32 288
120 387
486 377
118 300
612 319
75 147
239 243
202 242
548 482
132 31
247 543
424 618
131 74
64 125
241 199
203 375
20 497
110 226
342 103
1 20
212 146
557 472
179 12
43 559
123 492
373 376
9 49
39 113
397 86
48 77
259 368
245 475
38 555
661 696
54 463
667 522
550 229
658 242
84 138
526 74
54 304
147 197
383 321
394 84
157 90
292 192
182 316
112 491
223 192
43 65
488 471
4 259
443 365
490 684
101 294
529 308
352 347
608 332
430 423
202 155
258 193
267 146
211 28
24 66
407 24
137 455
530 138
120 554
279 243
3 100
229 85
82 53
70 1
640 329
60 561
45 29
15 31
185 307
243 282
224 67
250 628
672 313
188 57
9 322
271 269
225 272
317 67
504 354
579 212
92 295
121 427
42 685
564 251
599 467
301 18
73 185
55 127
598 539
1 467
151 228
1 215
165 122
225 318
44 161
472 502
124 283
52 42
3 2
298 292
164 619
688 173
412 195
279 600
563 157
78 90
43 119
109 87
339 3
59 25
41 97
47 425
19 677
670 8
59 338
30 152
24 12
382 426
681 190
253 468
14 524
582 131
445 279
195 459
365 214
22 1
101 41
172 240
544 345
519 585
432 354
181 439
215 333
175 604
8 78
680 81
51 652
575 232
219 501
377 224
231 161
534 572
402 394
48 151
536 101
375 615
47 14
420 540
297 8
570 556
338 409
260 250
91 419
229 261
21 134
366 197
329 75
10 464
661 188
135 55
565 573
19 38
3 123
510 371
108 40
399 176
187 196
22 503
249 218
189 23
480 601
2 19
21 268
2 1
636 499
3 457
429 83
107 181
208 230
313 243
31 39
323 465
238 96
421 508
70 73
171 105
51 136
166 195
77 232
120 114
43 81
62 76
523 4
4 363
4 3
386 406
210 8
28 20
87 72
490 270
111 190
16 34
59 105
518 365
213 218
580 285
494 134
184 162
31 167
331 137
71 484
419 669
48 96
1 13
79 44
213 649
102 104
336 656
346 385
668 380
396 420
673 427
252 77
244 645
589 444
234 101
80 69
137 281
327 351
268 320
87 607
6 2
352 448
158 392
146 117
33 25
117 255
74 83
3 11
112 155
241 289
578 520
269 170
449 216
471 451
566 694
284 21
122 50
675 214
225 405
15 43
50 20
191 80
37 62
288 583
241 500
545 205
323 212
436 515
48 3
86 27
149 65
42 63
98 663
441 21
156 203
24 422
35 248
192 181
139 438
81 133
204 17
489 422
303 14
493 146
123 124
39 118
21 16
304 613
119 250
547 354
475 596
116 175
57 74
53 594
314 268
285 238
154 695
26 239
68 24
358 290
622 679
290 657
308 361
467 597
176 312
587 107
132 265
481 87
33 217
367 576
400 3
560 342
689 420
7 247
338 359
401 270
407 495
95 153
263 215
369 627
194 64
76 396
342 634
26 172
622 483
682 523
89 92
48 367
2 9
110 1
395 98
36 44
333 616
286 259
372 245
482 553
683 211
560 644
6 324
268 356
44 64
275 188
278 2
27 655
75 73
157 346
641 41
648 320
38 466
196 327
75 159
371 89
55 116
90 220
111 1
41 137
168 34
24 664
148 27
138 169
483 610
214 134
639 81
96 117
95 236
568 671
3 17
202 245
39 99
364 333
477 88
81 129
17 527
15 16
256 614
388 51
120 173
291 203
266 193
290 442
88 8
166 160
31 144
397 498
33 41
178 629
121 262
61 141
91 227
485 396
64 423
102 415
243 513
151 567
362 384
251 437
441 454
69 89
296 186
630 574
306 264
557 593
541 126
201 330
328 480
121 44
506 425
276 228
237 43
212 577
453 520
678 260
235 676
345 149
220 354
482 382
8 10
128 111
28 29
210 411
6 12
17 18
472 71
5 3
391 250
552 351
301 348
20 42
106 51
319 194
693 527
248 353
635 238
207 72
327 538
491 632
183 517
56 19
209 135
193 112
65 349
239 562
398 24
625 614
114 256
126 76
592 553
146 177
94 114
23 46
57 84
259 393
364 566
447 28
51 6
57 28
386 452
371 643
325 132
321 157
595 507
624 235
360 165
469 141
348 687
646 112
220 253
31 270
402 487
37 216
66 479
11 139
357 514
674 523
347 404
568 330
237 332
546 349
508 542
254 77
14 61
365 609
315 21
402 428
626 165
356 470
651 647
305 99
378 247
341 186
58 403
150 611
71 51
308 280
539 697
340 96
474 414
281 512
180 374
1 26
182 43
76 164
244 36
326 80
333 380
55 40
414 462
84 187
416 362
143 369
93 56
16 162
274 83
33 98
130 20
476 83
235 207
176 660
200 146
521 61
328 202
387 453
355 36
382 193
3 72
67 170
390 283
27 17
200 233
192 246
129 280
6 156
1 4
1 370
7 528
380 642
9 23
85 221
662 171
174 381
10 14
69 32
30 11
121 623
350 40
172 551
458 420
620 7
386 18
94 7
221 337
298 414
160 130
11 53
588 586
444 393
107 143
251 362
54 2
413 228
32 15
304 698
97 499
42 154
539 54
186 446
435 157
123 581
286 357
162 309
602 340
647 468
525 402
37 142
67 30
225 659
106 299
633 690
266 571
275 558
205 450
66 186
158 2
290 23
206 167
180 199
270 556
389 665
68 440
443 638
227 478
631 186
103 145
277 201
36 140
57 311
174 64
233 373
150 62
13 60
431 584
5 15
605 489
155 347
184 264
107 75
505 374
418 201
159 335
174 205
14 574
396 586
424 63
456 253
200 434
13 25
85 42
208 197
335 389
201 49
58 29
54 633
68 417
9 35
460 371
44 516
623 686
395 533
78 621
163 257
112 38
213 431
152 590
132 176
653 106
115 99
218 565
216 219
40 2
379 174
71 198
591 208
59 509
198 213
654 575
344 343
433 315
310 421
436 121
531 476
118 483
204 251
19 95
522 6
89 451
207 273
51 637
178 80
222 496
319 519
102 68
410 207
37 9
82 606
81 163
102 532
691 419
549 491
134 535
408 473
247 666
225 206
507 145
559 650
617 494
239 334
976 851 829
487 581
116 78
446 704
90 358
941 518
312 14
305 389
904 412
626 434
19 10
418 63
583 370
181 165
943 974
211 165
302 433
120 507
424 599
685 377
177 474
586 262
366 899
491 337
327 440
390 416
101 253
774 443
19 107
182 632
847 751
11 831
559 659
30 447
490 226
509 564
3 239
753 617
59 452
160 240
529 262
39 420
238 623
93 515
688 825
328 413
14 315
289 167
373 919
29 307
182 236
462 163
35 103
58 136
521 350
62 33
32 679
53 18
480 656
372 18
34 390
343 428
95 488
319 34
374 442
555 523
937 503
11 58
316 56
34 166
145 383
721 46
325 8
810 948
958 820
327 250
278 201
963 139
175 64
370 76
734 789
69 441
362 339
321 259
115 5
329 706
883 494
900 427
387 693
353 329
252 12
709 179
349 612
559 631
343 167
114 43
890 441
545 767
353 540
110 495
44 119
42 205
116 973
320 476
849 715
388 580
90 124
195 69
227 640
817 610
82 862
319 527
40 68
64 432
388 150
288 254
928 946
491 608
871 296
175 268
633 564
33 6
191 497
178 111
501 101
48 192
125 417
485 885
968 221
541 296
430 173
28 517
34 36
467 593
320 956
212 306
359 342
950 892
69 21
274 162
589 101
728 195
26 177
495 644
518 294
56 85
471 235
201 178
811 560
542 707
66 272
398 652
360 27
478 114
703 147
915 650
211 477
86 247
654 829
538 92
37 772
158 261
155 344
939 305
245 311
598 209
304 163
873 369
677 176
135 228
124 242
132 734
28 406
722 940
89 83
3 6
532 361
85 866
18 80
392 77
509 266
545 297
230 892
4 7
28 59
172 341
498 85
814 836
505 69
786 650
194 293
6 10
780 621
318 294
21 14
717 393
79 610
230 105
699 399
305 242
152 209
549 273
27 645
864 841
563 134
98 144
733 414
874 778
518 858
28 705
4 38
98 134
281 70
432 508
219 314
670 477
488 723
554 833
32 34
120 296
221 678
310 367
78 65
410 404
854 702
39 121
528 509
691 348
385 155
173 317
5 8
218 194
201 554
37 91
13 8
193 257
924 199
38 770
651 410
110 142
238 182
806 459
913 446
474 592
101 229
422 100
87 930
161 9
199 103
742 537
97 163
31 13
106 77
181 368
458 305
763 243
917 790
736 729
148 36
205 217
764 773
399 896
964 813
931 204
873 916
627 607
735 390
323 25
322 147
853 471
232 943
184 676
174 421
424 268
137 384
193 271
922 929
321 794
99 597
98 347
838 373
171 50
627 635
600 7
574 905
431 403
54 72
534 850
235 16
819 56
369 304
30 3
24 50
597 856
58 426
89 502
680 542
127 290
65 54
359 822
29 130
653 552
844 574
183 338
11 286
169 827
15 953
27 45
143 901
954 1
175 810
60 24
867 488
448 249
51 71
648 518
961 224
205 260
102 402
27 248
29 13
714 20
506 227
683 314
135 855
859 730
434 799
32 12
152 174
414 152
219 210
205 371
279 349
133 135
585 258
170 530
232 265
28 397
949 39
464 671
290 291
98 4
31 287
333 377
288 510
561 5
258 535
206 111
74 87
32 966
662 840
666 730
216 158
386 142
160 40
223 22
697 536
194 183
945 477
378 174
165 387
196 62
100 4
68 75
253 303
80 275
918 267
286 503
549 750
17 16
93 117
972 655
391 842
164 210
179 18
324 133
138 801
821 630
176 83
609 17
102 543
654 748
84 357
239 778
429 142
394 102
81 309
469 235
153 106
674 698
188 483
413 696
878 170
781 289
514 145
952 117
361 566
339 284
766 92
682 162
53 76
282 536
490 882
73 66
715 238
122 131
411 26
97 54
790 671
313 802
435 18
450 160
57 8
72 409
122 85
304 788
128 270
250 702
363 339
201 560
75 123
557 340
150 45
12 101
221 605
793 105
765 95
509 578
144 165
634 297
70 345
647 662
79 96
380 852
843 695
611 481
97 184
305 542
496 443
722 508
779 444
237 64
625 314
44 94
233 500
574 210
642 605
158 334
687 360
584 334
182 4
119 207
85 102
137 104
544 744
771 481
374 315
263 533
347 754
480 526
235 655
39 9
300 174
35 947
455 339
785 247
191 254
602 776
220 133
391 332
295 19
927 403
283 74
960 293
975 748
235 522
146 337
332 473
702 920
791 410
576 830
546 83
50 285
5 4
335 12
417 643
170 49
550 266
782 596
352 485
69 126
313 684
92 299
655 720
761 92
872 67
99 658
911 413
463 251
623 726
669 617
737 195
258 232
159 41
18 37
6 208
464 323
60 637
142 547
219 398
183 328
552 12
218 877
294 365
64 43
276 173
83 816
54 143
6 1
460 66
253 400
233 903
183 472
57 145
414 841
191 26
67 39
167 71
65 865
470 40
869 222
155 130
520 161
81 2
310 214
629 641
860 884
493 220
144 401
6 47
292 14
70 15
571 89
30 46
22 10
2 3
128 193
832 733
198 244
613 545
590 469
222 184
185 824
381 650
573 306
4 11
198 155
190 783
26 141
149 826
259 139
484 270
727 29
333 729
519 429
270 969
77 140
3 9
813 801
1 79
957 423
405 494
258 302
307 352
588 31
332 257
321 604
286 393
355 908
663 634
312 621
51 172
146 118
537 212
313 114
629 30
599 701
18 879
160 434
66 16
34 83
56 37
72 553
631 755
840 959
436 218
41 298
570 262
673 519
16 15
828 139
148 336
281 373
936 348
105 614
110 74
675 204
238 354
190 551
282 238
784 639
332 749
111 10
781 805
197 168
253 340
844 863
262 11
419 176
359 375
391 630
906 897
868 825
47 164
107 127
156 112
72 212
269 203
639 661
57 739
516 191
511 96
19 333
635 664
292 888
17 183
112 427
328 556
2 55
320 186
385 617
25 109
572 213
17 41
914 380
49 16
461 247
595 150
700 328
480 114
487 470
860 466
43 13
446 204
100 482
44 775
112 22
646 46
113 29
48 132
512 175
459 245
534 419
587 309
318 444
297 200
246 68
711 525
922 721
395 328
559 13
881 646
538 837
301 83
169 34
600 719
732 589
568 373
5 15
701 758
455 616
77 668
183 350
909 286
364 99
615 49
396 928
965 413
845 499
19 23
54 759
186 355
777 707
232 174
571 665
898 243
576 164
51 2
839 29
5 20
18 12
639 13
594 768
486 316
61 108
45 204
654 259
55 105
27 48
54 8
846 416
30 93
147 62
404 368
418 713
29 63
59 203
627 834
33 189
111 361
279 123
467 976
324 619
894 650
343 657
143 955
577 243
94 453
818 725
479 769
408 117
94 99
751 35
331 216
938 686
804 45
97 168
431 718
747 618
242 724
273 130
134 277
479 297
539 389
451 10
8 24
787 61
193 456
396 196
56 934
746 24
28 17
29 224
445 355
129 84
926 62
492 200
326 206
221 156
887 691
426 891
5 607
76 467
90 62
177 710
253 602
449 254
620 540
118 52
656 907
857 179
355 797
190 68
171 457
764 699
135 243
214 163
454 380
504 429
88 567
579 24
558 332
649 387
494 660
923 695
152 134
752 624
37 231
132 267
481 429
489 75
25 20
762 247
2 5
902 852
14 104
122 738
458 962
580 636
796 472
438 212
14 187
39 215
329 250
95 548
47 870
139 129
318 757
113 173
381 224
88 379
195 812
88 29
67 251
214 284
58 342
688 13
606 427
465 330
603 294
963 970
241 14
201 971
407 78
924 944
521 531
278 443
808 149
195 356
308 172
624 674
912 215
967 490
351 215
565 197
142 403
220 264
425 135
84 820
423 397
82 38
136 809
369 712
158 132
113 188
102 667
157 141
67 77
951 143
933 534
382 375
183 250
35 690
222 622
571 886
689 301
376 247
875 280
4 1
524 446
15 686
807 197
145 743
921 878
200 3
638 24
137 798
37 162
64 647
120 79
692 708
138 63
74 31
110 133
935 644
48 897
672 153
343 716
187 294
173 800
631 942
151 30
552 725
186 51
813 823
624 551
302 405
628 492
666 315
300 692
47 681
59 84
44 128
513 436
386 523
73 225
68 125
31 35
342 876
569 267
2 27
1 14
835 119
93 149
92 88
78 86
249 110
256 130
95 66
113 154
42 7
249 266
366 332
8 227
234 96
893 733
534 601
851 21
442 740
596 509
618 543
369 760
330 195
857 932
12 7
126 263
52 18
889 234
267 348
792 392
8 380
44 29
695 639
152 814
40 25
301 741
575 245
251 280
327 756
228 233
185 105
544 169
434 439
278 399
795 130
803 398
274 910
68 202
372 437
468 433
848 257
591 518
360 594
466 97
83 346
266 525
28 226
895 764
174 499
26 1
925 647
32 815
272 562
231 745
582 404
412 376
153 213
61 57
368 731
415 53
880 738
255 204
180 176
475 396
861 37
245 62
694 84
627 449 562
59 136
47 125
176 407
548 288
354 420
203 6
318 551
252 274
120 66
1 29
374 322
237 222
151 83
283 219
190 259
432 161
376 143
114 206
320 434
627 164
33 315
21 193
97 144
13 7
10 7
524 349
441 203
160 161
90 36
67 43
118 513
192 94
256 356
247 410
286 528
118 95
23 26
102 31
595 526
547 306
247 200
206 422
7 301
7 5
493 540
607 244
268 491
308 22
90 275
326 544
111 93
158 191
221 525
475 367
70 615
177 217
542 251
438 613
102 141
10 52
582 367
41 148
466 178
24 505
161 230
8 1
25 9
449 129
594 19
70 25
518 425
233 288
247 394
265 289
624 333
99 590
260 277
93 30
286 155
256 296
253 217
73 419
159 56
33 360
145 55
288 514
43 19
476 233
426 326
1 267
431 423
343 463
546 96
611 322
128 59
142 124
354 283
12 2
275 585
487 142
264 28
101 158
154 390
32 621
54 69
194 115
89 398
306 571
238 94
170 79
231 40
519 170
239 68
52 103
68 21
204 13
451 109
201 324
14 72
98 389
325 75
553 62
345 239
11 23
274 539
409 106
235 32
399 162
4 162
5 135
424 185
208 25
604 59
115 76
31 21
319 541
44 65
285 307
366 416
157 106
14 79
198 297
408 178
221 430
291 28
244 281
85 156
108 175
510 432
418 352
256 312
23 41
23 444
74 5
426 447
272 175
141 508
101 583
132 255
543 147
205 68
33 213
477 426
244 269
9 228
295 474
19 258
38 381
245 348
5 11
28 502
187 46
461 266
336 255
80 99
2 177
350 326
532 557
210 51
39 199
118 404
47 225
185 222
411 61
568 261
45 22
479 433
414 178
467 24
442 54
33 37
153 1
50 481
214 284
98 13
418 436
203 282
201 22
198 141
522 269
254 175
411 558
428 314
9 15
229 15
251 483
258 326
75 54
232 262
129 445
43 100
387 550
112 10
264 565
11 137
13 351
580 305
51 87
197 21
584 330
342 238
172 280
606 566
522 596
257 567
10 85
93 352
26 49
9 5
56 278
176 302
302 532
86 285
521 608
384 210
554 564
294 293
157 209
292 190
107 95
515 14
5 36
20 12
320 300
484 265
273 145
303 552
406 390
105 196
131 458
210 214
279 171
30 19
530 459
49 183
91 3
129 17
349 44
560 461
609 518
338 144
533 216
157 166
599 392
76 60
333 173
51 94
37 572
62 249
304 563
623 39
97 559
251 588
1 119
13 117
496 112
130 94
24 63
441 511
83 51
124 121
40 358
121 241
400 84
311 361
132 429
575 69
78 51
180 48
67 343
251 215
469 337
73 37
319 600
504 255
387 452
88 256
555 393
398 493
427 82
135 188
166 223
212 136
372 75
64 385
294 598
115 186
244 213
85 110
48 126
597 329
405 330
134 337
8 53
261 129
154 19
453 116
366 29
4 215
269 625
381 455
41 417
61 184
353 273
150 130
149 516
28 14
531 443
133 73
80 74
426 435
271 386
16 19
167 91
362 105
169 157
77 41
136 207
91 363
472 488
340 263
288 346
265 196
521 168
286 359
81 86
15 602
482 238
400 549
252 8
304 306
501 348
114 443
133 171
480 159
51 104
540 581
330 325
4 6
471 134
408 489
334 254
30 122
54 535
7 3
26 263
460 503
68 365
445 464
221 48
130 537
195 94
15 92
587 375
140 81
223 287
71 20
322 316
201 556
42 47
94 318
423 200
1 22
197 396
71 143
187 341
64 51
80 220
33 377
339 296
470 1
105 468
504 570
328 1
45 383
604 622
116 83
9 16
147 63
35 21
9 224
24 619
3 139
347 56
295 413
574 162
576 589
357 38
5 27
314 12
248 178
108 43
316 36
10 58
367 144
17 82
62 601
454 401
15 42
80 202
354 437
438 303
10 605
335 175
190 95
331 246
327 289
279 529
10 24
146 94
245 401
39 33
129 319
79 163
8 370
208 393
55 49
462 446
156 271
161 495
131 117
344 164
303 3
593 511
60 55
375 45
3 1
145 179
478 394
497 153
403 242
120 499
36 38
266 184
127 123
245 192
124 132
457 359
57 45
323 378
498 259
367 382
14 7
20 61
184 226
569 327
216 392
591 270
323 240
18 16
536 147
433 432
523 499
4 5
440 399
40 33
11 250
11 17
176 6
152 38
430 492
73 290
86 181
77 189
27 54
152 168
50 39
566 561
56 33
21 62
81 165
500 70
71 185
40 66
127 573
276 472
236 213
40 88
96 14
39 578
139 160
47 506
380 527
255 300
425 74
173 170
153 310
17 391
182 85
23 620
166 355
105 49
197 298
74 219
71 610
89 412
554 154
2 34
592 242
430 561
114 33
369 191
149 133
59 95
106 62
218 124
577 140
223 473
8 155
89 76
260 148
134 216
129 603
278 586
81 45
283 534
232 230
317 312
334 397
286 456
32 538
478 517
364 169
507 228
618 496
96 293
421 298
30 51
97 78
293 299
326 579
494 175
90 626
512 320
84 402
79 311
33 1
139 164
109 29
154 174
24 84
153 200
242 175
332 214
361 450
380 48
485 227
52 138
48 13
172 60
71 234
121 58
178 120
134 31
321 61
509 344
379 6
6 21
373 353
387 36
259 486
76 388
541 576
231 459
101 87
396 614
240 257
32 22
562 402
151 304
305 231
280 295
140 460
211 48
101 313
59 6
135 368
272 448
280 617
612 223
616 471
340 545
490 190
54 329
2 6
32 44
86 268
307 439
240 19
100 446
113 22
520 376
123 115
354 395
213 309
233 270
2 1
157 243
8 415
371 300
7 276
227 223
465 90
5 246
46 44
526 214
81 233
835 515 195
99 5
314 703
43 23
216 333
380 661
748 732
302 92
419 534
4 64
116 271
356 193
450 358
248 278
3 824
716 341
708 112
103 114
192 820
497 638
139 330
20 199
410 721
28 58
384 73
150 570
14 73
242 319
236 490
90 115
251 543
497 444
232 195
2 235
219 139
298 427
17 36
250 213
23 49
15 105
537 198
807 545
431 18
419 649
155 519
420 125
127 172
814 24
218 454
370 246
374 366
87 351
153 49
337 226
200 340
69 101
29 166
720 458
429 151
503 784
222 254
21 59
602 496
234 157
439 353
120 154
9 89
159 126
224 169
344 204
419 79
284 548
412 15
536 164
84 39
606 832
72 74
562 463
356 460
6 190
9 168
29 251
410 356
392 400
493 723
595 795
636 678
216 554
718 347
789 783
503 437
459 454
725 283
305 401
177 39
377 149
178 242
505 801
495 819
803 725
382 119
471 414
144 243
575 173
682 12
584 295
144 143
296 577
351 601
194 275
391 143
681 253
158 56
109 128
433 310
457 133
365 449
182 168
441 336
216 111
15 60
220 359
306 226
590 78
282 560
475 530
2 533
155 557
585 56
178 221
438 434
70 304
65 237
97 434
253 305
131 20
766 746
473 823
131 151
189 793
36 52
159 290
278 521
83 16
621 369
118 768
432 7
664 639
215 212
47 388
5 729
751 825
268 517
812 795
285 724
204 60
550 225
198 27
282 156
446 188
65 462
106 244
263 313
372 241
46 281
101 127
2 88
348 628
566 142
44 95
542 169
366 764
810 459
25 260
13 62
591 254
223 567
254 289
233 697
353 7
594 192
518 753
485 514
63 606
288 357
328 272
339 38
270 35
483 388
555 428
467 80
546 310
625 690
24 20
715 680
76 348
134 38
547 376
527 516
151 192
168 292
38 181
19 42
81 613
219 323
815 146
352 120
146 576
195 381
258 140
473 315
122 36
205 146
24 171
46 19
27 6
59 266
565 679
368 742
6 231
367 226
114 618
776 389
302 643
378 205
349 709
49 85
486 270
558 90
760 680
414 631
179 549
149 74
470 433
19 417
37 405
428 772
398 241
125 112
35 701
98 90
457 487
39 53
254 277
357 472
670 392
255 238
335 180
115 777
129 63
53 137
51 110
187 46
81 157
407 347
826 539
96 627
220 184
253 178
78 642
19 580
404 667
443 140
416 366
257 818
167 117
27 343
124 685
6 25
490 523
475 5
47 17
114 135
33 160
424 447
184 779
308 553
178 22
309 34
109 280
39 25
157 778
115 355
743 443
477 471
61 174
330 510
252 362
38 24
243 596
200 57
312 263
295 58
31 10
610 751
361 259
756 576
508 253
6 4
106 273
79 24
813 292
524 289
731 246
172 256
273 423
13 87
119 73
404 150
705 303
539 225
13 93
31 37
559 273
586 409
30 15
632 458
16 123
110 488
327 565
62 143
660 292
59 615
135 745
296 504
259 206
91 654
20 29
672 571
430 465
218 196
405 482
1 297
25 111
301 556
106 8
185 141
704 317
746 194
174 710
89 113
773 623
50 25
38 428
51 56
365 184
105 455
69 148
448 363
183 126
513 540
164 358
43 545
113 736
60 188
128 314
104 18
379 144
691 472
249 18
7 2
211 170
706 308
288 369
43 51
461 31
771 147
179 592
550 656
246 214
188 394
72 26
210 28
63 262
341 234
625 148
46 544
285 318
176 702
371 124
48 286
107 222
569 223
119 749
212 6
2 40
639 278
522 518
587 293
541 149
686 27
54 329
26 165
230 44
143 156
180 239
100 117
719 441
52 103
629 248
346 167
647 19
759 174
2 422
85 162
391 804
285 161
31 71
339 399
172 713
123 393
67 69
244 614
747 577
257 287
85 120
163 21
529 278
30 822
43 696
139 110
350 71
395 307
622 633
712 242
574 403
345 620
727 681
43 142
4 10
833 523
352 366
97 225
567 600
501 402
142 413
331 757
665 515
235 796
44 77
132 14
808 41
595 302
146 7
714 262
485 461
118 195
516 658
489 2
752 608
152 217
137 223
176 160
82 175
15 4
62 515
233 97
191 120
434 500
147 27
390 240
205 659
414 407
409 131
821 780
107 23
186 160
118 464
281 380
473 769
13 9
193 117
352 694
179 81
184 155
613 645
79 272
686 689
8 5
598 17
507 359
492 340
340 800
365 451
402 282
102 43
205 452
164 683
536 610
589 478
24 208
336 192
695 655
244 397
353 739
392 321
442 248
285 389
65 54
9 1
468 75
775 728
4 3
653 326
476 236
152 481
552 298
423 668
27 138
1 373
453 480
40 375
466 137
8 1
300 40
132 386
435 831
619 266
656 673
406 265
4 26
770 602
20 54
78 52
711 144
675 521
173 120
531 507
561 479
345 626
241 10
194 178
345 242
79 228
630 23
334 456
28 10
46 494
796 797
811 72
430 128
163 650
252 113
76 71
7 14
111 774
799 484
396 762
307 622
345 740
525 52
547 735
18 5
104 781
73 81
100 55
38 325
234 445
32 116
2 21
609 505
219 568
47 316
68 604
183 636
616 279
125 418
48 30
532 99
67 59
487 599
30 213
195 236
676 571
35 34
321 174
794 362
69 611
40 109
259 605
276 326
572 112
4 180
53 140
311 484
522 809
783 40
511 425
498 276
369 458
750 728
281 502
299 93
491 84
435 38
452 782
138 152
66 652
32 1
92 42
505 103
87 269
78 479
237 248
288 816
27 526
118 74
226 261
166 424
187 651
218 597
698 434
638 687
829 661
827 247
40 70
496 393
364 272
182 226
502 830
368 190
161 27
780 295
291 87
102 124
19 112
499 49
677 312
175 363
637 543
581 21
342 10
2 17
381 758
534 640
655 100
790 754
595 662
835 232
293 82
663 11
108 56
12 765
157 349
118 214
728 708
250 425
573 312
242 288
327 219
623 220
268 25
71 141
311 245
38 145
411 36
2 22
603 521
358 806
14 19
692 329
238 92
293 641
118 206
722 437
65 96
37 474
201 108
41 29
42 189
68 29
548 734
383 571
360 76
307 66
320 287
315 226
207 173
282 308
684 754
302 535
34 57
726 566
538 425
498 648
310 551
546 582
109 296
520 212
1 11
415 412
112 164
634 528
80 22
408 174
227 31
563 265
332 245
3 2
18 20
155 72
136 34
238 385
209 168
45 14
341 528
14 579
366 607
150 3
209 588
229 216
669 194
688 484
646 603
155 283
347 331
274 4
89 264
94 2
566 738
54 666
51 169
133 132
301 69
294 700
60 426
787 410
310 158
612 582
530 671
6 9
788 93
20 23
268 324
828 744
99 121
86 733
55 196
376 332
674 115
148 317
104 436
18 90
737 368
453 124
785 425
129 834
32 63
805 800
493 284
12 11
617 504
17 55
18 126
693 69
121 284
604 680
44 3
276 294
174 203
418 792
19 86
32 170
329 334
141 322
624 567
7 516
93 403
16 506
97 38
564 196
321 767
408 608
75 276
440 313
48 91
22 34
331 97
229 421
495 425
279 8
504 786
512 194
817 433
513 156
684 446
509 314
518 256
162 578
194 730
263 74
171 478
247 51
338 75
741 75
61 54
530 763
725 732
755 577
159 257
14 469
271 802
463 359
72 303
56 437
546 657
400 444
396 43
298 18
593 472
607 635
33 31
699 9
387 154
337 761
644 420
7 16
255 354
66 47
5 7
209 245
95 383
240 215
35 82
265 20
717 678
583 287
617 791
744 384
130 76
41 75
798 103
267 227
155 197
597 707
202 4
970 379 633
325 535
191 448
597 542
908 902
414 77
505 170
6 169
24 749
130 304
635 372
284 809
109 518
43 21
533 330
745 651
214 121
4 5
493 203
107 399
10 129
970 695
427 53
387 188
25 461
348 432
490 200
420 517
22 213
344 886
402 850
291 880
64 71
45 137
236 509
113 100
810 685
567 261
368 340
442 150
652 125
464 299
634 189
826 429
11 79
695 589
277 473
641 54
684 321
636 924
931 86
381 133
529 45
326 338
136 126
16 36
142 111
961 664
926 227
383 37
637 26
887 863
287 795
685 15
614 25
167 254
454 2
106 50
66 24
600 230
346 720
718 615
737 119
589 101
714 449
351 581
32 343
320 106
927 723
330 457
45 34
28 60
407 366
482 266
178 80
455 149
222 403
812 932
273 892
185 676
547 332
64 51
650 600
305 246
18 3
32 158
9 119
471 917
816 224
471 673
929 34
255 12
621 111
511 528
254 322
611 371
954 46
667 99
659 534
93 12
78 2
201 134
61 3
215 43
8 408
112 172
98 394
227 295
302 561
278 283
743 615
653 278
186 86
191 484
72 35
5 96
349 191
95 449
191 17
4 37
118 404
66 69
308 348
56 269
53 382
608 391
793 426
418 112
575 806
105 769
570 520
259 717
549 945
360 83
427 548
914 528
407 415
969 966
314 27
661 811
205 91
424 236
31 23
43 164
8 15
52 43
426 758
182 853
337 314
827 534
625 438
55 160
766 356
331 672
290 102
111 14
538 915
247 282
409 495
557 742
158 503
110 462
130 378
289 266
32 90
324 526
59 350
193 63
753 364
595 587
533 757
48 242
79 466
319 384
206 79
55 43
307 579
744 403
123 24
891 868
238 55
28 11
457 787
457 537
126 841
30 38
830 38
370 376
944 551
112 143
328 551
18 102
219 124
107 170
487 350
692 565
733 617
305 446
507 725
493 564
27 41
369 678
962 877
890 182
483 265
631 277
916 412
212 260
898 206
546 210
202 38
14 176
249 48
118 21
946 260
53 38
540 569
215 494
835 145
912 505
318 7
18 496
293 775
686 937
490 690
110 247
83 73
181 549
438 857
719 701
855 723
646 596
401 45
203 86
41 303
89 65
272 906
25 307
47 472
276 693
211 468
561 592
131 222
959 674
35 730
162 423
208 311
5 3
197 669
552 171
163 127
801 488
662 278
571 16
37 94
61 584
821 473
347 205
848 774
377 61
352 843
862 206
138 623
121 701
19 813
682 13
777 562
372 63
943 790
772 174
263 27
390 240
155 138
265 89
228 55
57 216
86 83
86 87
911 490
347 596
302 5
138 196
26 39
58 95
622 250
854 120
233 513
10 239
3 63
785 93
661 249
262 452
139 126
39 151
259 367
406 443
16 67
495 507
67 190
670 45
701 881
578 680
194 309
72 270
88 580
357 293
904 226
928 822
333 126
184 134
913 197
332 334
227 169
374 16
68 256
783 858
341 130
285 248
87 126
522 494
328 7
61 763
724 5
367 428
24 25
817 727
487 593
351 851
412 594
291 262
138 100
576 132
288 317
80 312
935 301
100 31
890 893
493 803
145 147
150 353
172 660
177 491
963 406
69 413
386 2
761 833
128 231
769 800
581 828
296 577
27 101
258 69
487 624
657 414
694 462
339 266
511 219
25 168
968 39
814 554
200 85
44 150
366 312
156 157
233 900
534 756
364 607
259 112
82 575
146 365
3 12
345 875
640 487
3 22
278 130
804 228
446 829
799 214
866 44
8 21
558 626
606 41
381 391
68 132
153 845
80 75
349 460
329 583
488 11
356 373
43 173
130 41
370 379
63 441
955 929
73 185
61 329
874 557
277 29
94 335
23 65
236 159
796 465
36 598
430 632
470 794
246 67
563 165
27 62
271 78
276 398
390 586
141 177
721 414
643 268
29 114
152 67
14 12
496 665
429 256
734 641
846 520
856 953
213 751
159 310
85 24
235 557
401 664
66 112
10 617
37 478
303 410
780 41
144 226
117 218
174 107
440 771
77 590
223 431
80 445
105 59
663 454
956 762
710 271
155 232
500 20
20 288
680 856
877 338
131 683
10 19
40 477
54 540
790 348
14 308
121 197
153 93
55 604
750 199
97 53
357 371
104 128
23 456
447 849
358 752
140 362
175 73
815 81
93 109
825 100
136 899
109 530
131 76
74 677
319 299
512 167
642 514
56 250
389 515
865 799
379 903
146 187
966 888
389 214
64 141
402 194
599 228
226 585
296 224
64 965
88 18
398 587
104 28
358 7
63 732
4 2
778 673
123 459
566 562
66 166
884 330
107 36
331 239
62 253
363 952
187 767
130 419
691 712
703 88
755 589
613 575
412 293
556 361
103 395
116 34
302 842
143 351
692 779
164 897
453 66
1 696
216 301
257 15
85 188
244 658
727 960
1 2
364 739
23 689
479 17
261 134
651 861
73 127
425 333
128 225
224 469
967 858
393 309
560 344
51 140
940 340
498 1
305 489
144 87
100 609
17 10
633 274
654 215
16 3
179 220
2 8
612 262
210 74
342 627
681 37
267 32
121 229
123 359
111 325
543 276
727 731
222 601
224 786
293 812
64 553
34 50
50 182
668 869
397 686
369 22
723 485
148 619
558 334
273 361
666 128
615 310
871 795
405 705
207 43
8 9
247 436
784 220
99 27
405 57
7 1
431 485
30 434
23 204
400 319
281 80
514 230
195 160
286 213
281 352
709 309
918 603
863 755
59 364
832 689
177 591
636 747
267 504
152 154
448 465
867 783
839 487
234 481
58 486
13 421
744 936
271 885
148 61
667 722
919 559
90 122
488 859
521 212
741 324
81 56
770 138
727 54
271 797
523 433
448 805
195 221
135 252
528 746
888 742
677 895
41 708
110 6
534 618
212 123
703 934
57 582
155 162
2 30
492 52
165 117
53 921
922 761
518 687
251 910
60 451
668 477
48 21
671 555
183 199
40 411
47 336
98 83
555 301
149 909
630 639
156 299
305 820
50 279
736 725
48 691
380 342
10 13
470 74
447 501
860 577
58 12
243 171
248 396
156 499
293 300
818 91
565 823
414 444
648 819
160 344
272 58
740 116
690 958
174 711
100 241
375 430
426 55
81 713
215 480
22 135
544 216
46 45
196 315
48 57
142 145
139 316
198 187
762 2
77 4
308 559
20 42
264 42
194 645
930 419
76 32
152 923
108 21
1 276
125 108
146 574
92 79
545 290
844 826
523 573
224 519
15 287
781 483
702 374
36 180
852 803
71 120
17 536
86 716
478 707
73 375
524 265
525 925
836 425
516 230
49 156
676 889
433 26
536 773
735 107
555 905
372 531
345 385
165 268
764 387
510 203
9 251
235 148
479 774
194 98
192 63
445 651
37 146
182 237
212 525
355 240
106 189
942 747
476 266
41 275
97 248
363 36
323 96
840 355
516 700
169 327
578 77
25 636
73 55
454 834
948 295
503 602
330 124
436 554
760 711
638 589
115 85
153 697
420 14
620 38
67 70
726 479
37 280
753 938
783 339
161 4
206 532
902 244
56 292
292 356
76 217
6 5
1 33
467 193
25 224
24 8
759 545
354 66
109 124
300 947
475 366
4 27
568 159
572 279
674 47
345 291
761 363
294 808
221 882
74 541
595 776
67 458
154 616
245 883
324 231
693 788
7 84
65 68
648 957
352 822
872 457
31 435
474 439
644 637
222 565
125 765
798 191
754 24
254 262
456 768
78 313
126 234
864 594
450 184
72 539
11 32
464 647
950 285
274 138
354 789
284 84
663 675
26 7
941 877
48 167
90 706
5 20
230 85
527 300
297 33
159 2
440 309
438 28
370 257
406 386
1 3
265 321
729 78
138 417
121 23
432 949
23 179
183 63
3 51
346 98
495 901
424 782
699 475
229 508
698 591
47 33
23 894
40 56
149 649
304 791
18 59
506 438
119 655
244 179
748 15
327 868
219 896
542 436
287 605
88 409
137 629
35 49
168 208
550 265
223 298
701 964
34 497
588 68
45 240
51 388
245 208
202 266
95 807
704 419
951 66
103 20
397 192
209 105
471 249
437 382
15 628
188 392
517 847
13 40
198 920
278 879
71 837
72 74
588 838
91 10
603 579
7 11
79 133
54 26
233 138
45 149
416 401
255 439
44 4
3 75
23 463
873 160
6 34
3 181
123 340
156 294
13 29
422 88
343 538
13 447
864 878
332 171
610 52
117 111
870 69
626 679
468 876
479 715
738 266
939 862
728 447
792 789
502 393
258 824
229 831
342 191
82 1
630 248
273 267
326 175
155 293
340 656
895 907
306 165
35 17
520 184
1 10
134 116
223 175
562 409
408 648
544 933
688 620
802 143
456 534
8 23
77 211
108 171
717 685 473
250 112
114 95
29 85
3 8
303 600
467 485
522 194
119 102
164 19
13 42
171 226
457 230
637 128
70 697
290 675
639 277
103 126
254 124
141 42
646 70
6 1
376 363
82 197
162 574
409 400
2 4
546 669
15 332
492 391
21 23
29 190
87 7
33 534
415 700
683 201
135 545
237 200
210 78
138 39
184 580
644 318
236 712
102 174
40 58
500 464
386 316
54 20
283 12
495 651
173 655
53 208
230 307
202 4
472 17
175 326
8 162
35 1
194 411
224 13
64 166
28 27
300 27
233 256
461 35
235 206
571 43
399 323
606 587
470 35
601 136
71 20
229 241
98 184
381 120
119 266
222 91
582 407
26 56
476 346
548 224
246 560
459 424
50 338
82 478
292 249
632 277
243 265
548 602
370 220
55 358
149 438
9 475
20 349
696 441
538 26
16 158
281 452
3 2
108 280
132 59
216 164
325 69
662 269
478 493
156 255
303 82
156 218
619 48
168 487
37 357
297 83
177 634
699 225
51 469
55 70
480 453
95 314
65 123
150 633
180 488
339 257
102 31
125 118
98 243
85 334
72 97
9 3
104 46
622 188
519 272
365 229
698 674
76 68
132 163
423 7
183 7
140 556
56 328
287 421
12 10
8 105
81 71
234 96
21 4
104 623
227 101
498 219
175 232
422 387
545 621
398 260
158 260
410 316
613 394
293 38
599 516
106 549
201 298
408 551
117 209
301 171
108 287
230 394
4 13
294 449
437 430
691 408
206 151
48 335
211 25
291 362
288 626
653 294
11 446
5 83
64 55
577 274
504 520
591 342
12 521
242 12
26 2
318 72
13 39
156 26
279 29
377 272
489 546
468 319
119 152
614 345
483 516
58 346
236 206
44 68
269 139
34 17
687 393
351 495
329 5
451 24
151 155
585 284
16 8
113 95
234 264
110 228
543 567
671 178
6 5
381 666
155 439
79 711
112 185
11 66
209 441
434 537
420 398
259 557
75 392
118 665
212 590
190 497
379 300
510 11
11 271
37 29
250 514
246 407
131 173
84 393
194 134
575 690
107 25
82 134
2 49
11 4
18 9
555 508
451 576
344 253
292 395
372 70
2 101
113 117
61 151
14 375
261 337
502 682
552 229
20 12
447 446
442 415
330 307
72 95
223 10
148 97
72 511
69 64
285 289
13 33
304 673
259 154
148 188
670 452
124 67
67 507
352 102
52 4
161 120
140 108
550 10
364 357
183 253
433 114
415 242
517 235
277 72
112 122
135 382
692 366
2 15
513 659
525 39
440 78
631 642
162 284
637 647
78 82
171 29
120 274
715 295
172 203
55 63
11 47
26 486
141 512
629 53
339 345
311 236
471 9
94 385
594 703
253 581
298 436
172 219
167 157
502 67
289 594
407 641
228 359
189 196
19 340
348 122
248 126
314 424
8 383
33 116
273 267
100 165
530 509
320 430
684 323
291 592
24 14
479 307
64 111
286 72
4 175
648 111
701 623
158 353
584 137
343 347
503 211
535 447
198 559
478 561
196 238
29 109
60 607
694 3
1 30
22 2
654 403
264 570
191 310
166 612
568 280
28 60
79 230
72 205
310 401
562 30
308 243
112 21
368 354
26 98
537 610
38 30
444 638
330 432
714 195
411 526
142 137
285 125
86 229
18 50
33 539
448 330
161 640
267 218
356 419
170 148
596 49
196 214
51 120
80 25
189 257
249 1
254 450
324 213
636 157
89 418
191 192
413 327
194 506
566 331
406 45
227 360
56 118
23 53
7 5
332 384
74 137
19 77
97 327
231 87
685 357
425 314
169 51
533 414
374 668
9 17
265 645
222 483
20 106
85 135
56 309
363 10
693 374
427 205
508 387
677 61
79 24
649 448
676 209
650 528
391 209
82 240
14 540
262 47
528 186
304 504
244 75
484 269
708 649
294 203
350 45
172 119
458 197
19 145
100 50
497 547
544 529
262 408
472 672
44 477
435 324
30 59
138 710
663 68
652 130
140 149
445 325
35 94
27 16
322 226
390 405
198 65
86 21
163 505
624 259
70 78
352 501
559 625
643 348
541 435
217 56
67 84
276 167
119 465
713 89
16 181
656 275
201 404
67 65
341 110
113 154
91 215
706 350
212 73
41 38
351 283
615 631
588 211
380 172
144 71
44 26
627 31
658 232
378 309
704 444
179 1
38 233
201 73
81 99
366 89
94 136
168 302
156 204
268 158
71 616
285 443
62 7
65 7
8 1
382 660
61 38
359 603
416 248
44 463
123 333
150 52
88 86
252 188
139 45
599 716
246 536
489 239
402 263
6 40
586 264
167 453
414 303
216 354
43 31
189 85
14 3
467 397
62 89
274 278
513 331
342 531
482 28
304 117
579 251
96 186
124 611
132 168
19 1
111 176
12 263
140 674
127 20
628 221
635 32
434 583
51 43
226 320
605 322
121 403
131 609
290 387
157 42
181 532
195 180
288 369
428 193
20 25
127 331
620 401
46 295
604 385
490 367
63 213
364 572
68 191
618 613
271 598
72 71
306 165
15 115
688 619
81 147
27 686
200 63
290 194
330 527
74 58
247 18
48 45
75 319
312 73
71 554
295 474
75 68
321 169
356 116
70 374
291 32
412 106
351 464
224 400
336 216
707 422
41 355
131 23
43 103
563 121
593 356
342 297
82 608
130 37
475 524
128 153
595 359
197 221
124 299
278 313
29 28
117 121
597 279
62 454
12 396
630 154
679 376
369 373
155 281
573 514
73 20
7 199
309 587
155 367
288 106
188 305
34 110
110 239
180 143
29 32
2 10
657 229
12 45
689 182
134 664
499 498
36 18
553 11
131 569
252 456
462 202
343 94
571 589
162 282
146 17
498 667
529 495
18 57
175 270
108 34
509 443
272 196
406 578
207 53
417 397
481 300
93 56
681 62
678 56
361 135
128 70
630 661
50 317
523 278
251 63
46 40
444 327
216 220
531 695
92 39
178 172
236 494
187 140
182 91
76 258
2 473
102 193
388 250
160 134
55 90
455 115
124 323
55 143
702 527
96 90
466 268
122 709
450 705
91 39
92 177
4 7
419 558
717 427
43 225
680 32
617 149
90 575
85 159
316 257
448 518
315 277
66 371
1 31
543 456
247 389
307 431
246 234
565 532
104 275
261 180
236 491
515 477
397 292
288 542
245 137
434 138
429 377
184 296
55 21
60 133
301 426
329 460
17 129
615 398
275 496
150 390
458 564
958 821 386
131 30
456 645
47 167
30 143
526 443
728 849
163 499
576 449
8 21
570 564
160 830
82 60
936 626
41 791
902 240
294 259
497 553
230 787
371 381
40 388
700 450
231 279
300 79
14 2
11 15
64 136
8 101
461 943
610 560
166 823
138 871
307 738
445 399
711 60
10 203
514 224
351 924
96 268
41 59
420 858
439 56
150 164
195 49
226 790
625 498
736 107
95 588
558 321
258 692
77 179
475 72
226 565
25 8
257 139
223 435
306 449
173 832
99 39
410 733
80 197
24 19
217 928
436 13
149 219
477 487
89 251
951 344
731 714
648 922
581 299
147 46
100 281
492 525
921 927
266 328
946 237
304 180
188 391
652 561
433 20
81 96
586 802
206 450
65 145
246 368
270 174
957 183
494 641
396 346
166 443
130 176
614 574
180 226
127 252
877 831
43 62
753 137
599 727
667 68
98 243
763 808
162 143
120 434
541 308
243 357
578 172
766 355
468 182
294 407
480 760
317 633
53 637
365 937
205 472
730 187
751 279
258 249
397 203
422 380
357 531
28 1
868 651
138 10
446 137
539 819
235 106
48 81
464 397
78 5
183 132
215 245
549 880
640 299
793 909
532 431
31 196
845 105
415 399
347 76
124 765
8 1
774 595
639 154
1 10
26 208
12 108
758 208
192 129
83 152
337 935
426 905
321 769
785 358
95 298
25 232
480 921
55 14
77 173
621 744
541 592
45 824
895 801
949 685
80 73
1 866
126 288
174 44
97 217
728 70
383 474
714 193
471 607
221 72
189 584
435 634
568 770
436 566
270 423
515 603
556 800
807 723
795 643
798 923
408 42
693 519
343 250
794 748
56 64
718 126
16 26
241 117
503 1
40 649
303 105
23 7
809 807
19 41
786 826
11 37
107 180
306 119
529 487
782 303
162 280
202 674
346 137
142 151
648 387
161 365
886 340
213 198
204 666
369 759
7 2
227 179
112 64
453 587
590 34
887 680
440 66
6 3
289 471
378 168
594 544
33 46
334 135
194 266
76 60
751 864
336 861
262 505
315 431
178 349
311 28
702 221
161 452
317 369
31 16
56 71
424 725
331 26
117 296
28 56
503 669
756 93
102 111
869 59
462 133
884 315
6 128
82 158
533 323
332 101
541 773
93 364
834 459
57 12
243 432
40 780
761 4
36 953
749 632
169 44
458 636
480 420
653 42
148 32
256 837
220 560
466 701
142 26
68 250
339 335
90 88
83 139
546 562
102 13
149 762
132 46
848 151
86 21
54 7
205 706
473 234
932 340
507 384
788 703
274 9
324 198
626 552
418 644
254 25
54 72
100 16
150 188
507 889
840 542
30 330
605 556
795 862
236 195
5 9
23 193
537 680
771 568
21 916
481 354
248 612
683 579
619 607
204 3
933 714
321 191
199 121
106 25
87 657
271 185
297 212
73 317
424 729
333 956
815 451
735 282
127 211
577 303
542 755
670 440
430 332
188 643
49 801
204 383
305 394
504 423
476 472
210 9
374 55
543 520
393 675
595 375
376 676
367 695
27 65
190 353
251 620
591 777
204 497
222 101
133 709
418 839
111 873
20 47
229 573
94 26
739 130
9 6
23 392
103 92
357 632
939 461
311 930
85 12
306 515
287 309
79 521
11 20
829 276
459 161
606 571
218 45
291 363
938 638
530 741
579 660
420 469
194 629
148 404
832 925
179 341
333 29
83 8
508 617
427 14
287 62
19 413
444 343
18 17
11 40
194 717
410 103
67 272
171 386
35 110
67 116
915 513
283 316
926 794
867 782
288 478
44 191
186 28
91 45
659 310
11 12
836 355
894 770
336 523
158 159
101 411
15 63
531 551
331 851
44 75
430 597
910 940
343 630
38 133
36 5
713 244
171 144
768 152
696 565
585 83
263 5
527 425
458 457
361 491
70 66
113 650
920 310
193 906
81 715
314 879
247 145
417 133
406 41
697 338
82 160
49 7
93 234
77 35
13 903
677 193
470 401
549 324
145 646
168 112
2 30
10 810
13 7
212 186
665 184
508 354
190 165
261 575
197 379
721 16
44 4
477 183
544 351
546 485
91 888
618 155
6 376
421 213
42 447
223 337
783 521
223 156
530 955
651 430
200 43
545 427
75 177
3 611
419 214
144 132
105 65
132 231
767 102
437 900
443 647
349 724
267 9
174 501
480 600
52 3
266 494
133 342
618 784
125 92
409 799
540 46
68 154
944 525
367 203
83 708
409 227
266 377
329 52
12 140
135 71
110 238
165 158
856 554
577 582
390 229
374 401
117 74
62 942
540 954
366 270
550 26
146 207
203 325
635 793
98 30
555 865
662 196
405 896
388 492
360 465
912 858
292 235
109 34
343 817
661 497
323 97
289 222
467 621
278 86
106 198
12 293
430 489
320 102
855 246
2 42
350 20
37 53
361 876
40 107
320 387
486 318
354 60
373 319
299 80
425 90
239 216
43 60
241 402
187 25
690 597
13 838
21 781
46 616
135 283
17 130
206 76
182 574
789 167
235 671
87 121
635 149
381 704
260 178
60 313
9 362
437 390
779 277
9 224
403 720
30 664
4 5
92 163
123 370
442 859
314 295
797 672
750 635
122 571
124 678
106 156
455 198
54 120
786 104
878 129
638 606
403 106
253 745
679 677
178 356
654 220
256 252
48 30
183 290
49 58
291 572
596 25
7 129
175 67
70 814
881 45
113 38
749 820
262 97
22 13
336 100
230 2
14 50
454 825
87 44
685 357
375 124
422 442
345 171
127 29
152 414
81 371
816 692
81 228
428 483
275 663
918 15
19 15
806 898
787 796
309 945
445 710
754 307
356 359
151 776
893 326
38 35
528 88
265 237
536 419
437 516
126 50
218 513
752 500
69 216
21 416
628 205
840 841
57 89
75 463
601 202
95 485
130 220
806 398
453 249
812 367
10 372
615 366
292 340
395 538
113 119
237 315
253 76
92 79
47 255
684 514
805 84
688 387
885 891
265 424
122 118
35 69
844 26
538 734
524 72
818 244
827 38
194 148
351 142
225 82
705 510
160 385
385 947
96 189
125 248
589 175
400 94
655 76
48 301
275 257
264 681
535 392
384 184
863 89
624 897
248 310
121 723
3 1
185 159
47 240
910 388
284 172
146 68
47 520
322 105
118 78
161 146
103 153
426 180
822 108
209 111
2 8
203 847
269 34
883 716
344 101
461 81
763 22
21 950
510 554
243 259
391 457
352 311
454 59
502 332
32 29
94 919
740 385
2 17
335 182
338 196
134 74
124 57
51 38
167 687
27 1
535 689
56 242
97 38
93 764
662 934
495 416
882 448
264 3
561 337
520 914
174 948
22 484
673 301
28 95
351 743
759 931
101 137
161 854
582 811
714 892
10 67
25 34
232 719
141 97
73 382
622 80
52 631
731 746
38 178
114 99
801 857
433 874
673 833
161 286
451 350
20 35
569 326
214 952
334 742
204 850
542 514
772 159
598 192
246 599
885 408
562 712
12 318
78 580
726 387
716 698
206 418
365 429
94 229
167 488
870 297
43 4
178 438
691 594
11 8
707 47
534 105
261 200
913 764
10 564
75 522
172 305
705 813
71 237
613 386
149 59
828 395
748 335
798 369
79 57
111 302
334 792
609 242
308 116
482 404
908 750
327 399
291 181
4 7
529 567
191 319
192 214
752 775
70 563
262 672
493 113
88 84
496 410
467 12
96 360
246 312
216 604
344 460
233 196
694 316
66 52
904 717
355 298
23 184
405 8
911 317
872 236
941 827
556 438
268 552
785 831
115 57
213 899
417 586
263 307
482 500
466 150
150 64
852 52
215 166
295 166
875 641
420 399
120 682
568 231
593 562
482 917
254 537
530 293
57 519
518 686
511 184
165 358
277 227
391 398
246 177
155 115
804 544
45 27
721 860
15 579
201 81
842 186
547 84
164 703
172 16
448 435
583 370
50 389
327 231
515 668
698 38
757 542
382 846
324 428
667 722
24 29
285 252
380 129
289 506
76 441
555 516
509 358
456 26
822 901
958 560
282 184
624 286
412 42
100 326
74 15
656 503
395 176
759 778
557 234
11 16
249 87
300 361
276 193
82 393
205 140
622 642
76 559
121 181
150 166
104 18
61 28
907 888
31 33
17 821
627 296
476 518
374 747
348 89
447 602
512 103
39 13
146 202
498 189
430 510
182 81
623 257
73 37
591 190
472 732
273 58
479 441
608 605
93 53
20 170
853 98
68 61
490 429
333 929
517 145
658 161
548 308
682 737
123 12
84 31
153 843
183 539
244 65
93 157
564 890
25 803
699 646
835 36
566 378 36
458 379
45 181
452 439
393 341
29 25
71 154
195 6
282 95
131 176
47 60
230 298
525 414
337 444
208 16
65 217
165 536
56 310
214 59
547 388
36 18
132 7
468 373
10 105
73 21
71 40
284 204
88 85
249 443
401 106
231 12
108 39
144 260
129 475
361 352
340 229
145 130
289 160
139 99
379 181
331 11
342 199
8 40
21 209
59 423
210 163
13 86
25 10
80 78
39 16
546 242
48 471
1 57
449 183
236 17
98 160
2 3
321 560
357 427
23 48
498 412
83 42
171 74
45 56
38 237
313 180
411 161
262 235
194 77
162 334
67 265
56 193
88 110
263 359
152 93
15 65
504 210
50 394
351 562
503 566
489 388
2 256
15 13
46 456
235 439
85 100
77 346
404 84
189 134
111 135
51 95
97 345
77 73
224 80
419 226
78 44
54 136
180 499
104 223
214 377
93 61
13 451
387 532
138 339
226 146
116 100
384 367
251 155
40 53
422 187
77 190
159 50
134 15
9 2
309 38
448 259
225 533
289 501
204 27
355 148
412 298
176 216
135 196
198 128
538 400
330 201
349 237
410 527
294 18
55 40
111 279
8 19
3 222
204 353
430 557
554 352
185 300
35 296
462 267
519 425
155 418
51 158
321 21
180 358
356 151
30 381
255 132
188 117
44 6
36 66
331 399
250 82
379 476
60 94
303 301
1 510
406 107
61 37
441 87
137 202
181 473
386 249
555 365
149 351
143 16
1 6
240 147
58 319
565 127
161 86
241 65
443 520
530 143
524 59
259 387
429 242
96 172
12 120
343 319
374 434
264 446
161 213
366 256
75 420
376 361
4 3
21 10
486 212
125 137
352 388
17 14
455 393
270 108
280 238
7 1
360 460
464 183
205 166
103 186
95 124
149 105
101 13
58 283
8 16
50 4
17 24
264 529
544 230
344 295
185 8
329 259
44 200
378 218
68 76
187 116
14 59
100 264
117 123
407 267
191 28
47 184
104 21
40 203
23 81
51 119
328 426
100 490
239 129
213 253
375 262
478 403
522 455
433 409
347 297
247 189
30 35
396 228
548 83
2 91
101 153
526 273
21 67
436 230
56 127
44 341
11 320
90 65
414 29
6 179
9 234
417 379
288 107
286 266
130 77
552 293
72 3
444 535
220 195
10 13
428 78
9 46
188 307
521 190
192 472
299 14
166 57
278 116
327 374
218 95
348 360
263 15
234 463
274 225
424 365
373 216
186 292
459 4
111 98
44 277
27 2
201 77
125 301
164 146
229 124
5 2
503 487
500 337
228 19
466 311
173 94
58 52
373 508
18 6
305 220
148 80
370 62
12 8
123 257
182 6
34 114
77 82
157 180
49 327
314 109
139 509
383 155
107 77
49 295
517 182
342 556
74 113
15 38
276 274
157 454
15 62
12 20
443 474
442 196
350 284
81 207
153 312
248 564
23 1
212 115
283 558
484 491
326 271
267 49
315 24
405 204
338 398
142 528
358 395
107 493
386 440
335 107
16 246
168 84
35 192
249 268
84 485
172 409
480 475
101 432
397 99
58 357
61 435
550 144
243 201
77 103
12 14
391 306
92 258
456 543
13 79
437 248
516 9
87 4
40 174
165 43
73 133
483 170
506 253
183 44
151 18
69 438
129 92
102 306
22 8
270 291
147 254
220 316
97 337
75 27
338 291
61 96
453 91
272 114
111 117
5 26
40 84
369 257
518 187
32 17
86 368
204 457
221 67
531 40
261 221
484 1
245 138
416 277
141 126
173 495
362 308
58 215
7 430
35 45
70 22
488 507
109 106
365 51
408 551
284 487
191 479
513 49
52 32
482 49
271 515
167 84
138 80
22 30
392 228
112 73
135 287
177 275
12 147
63 26
193 496
7 5
15 470
537 211
540 220
64 35
53 99
148 290
9 43
12 33
35 269
197 32
103 408
170 561
465 284
25 41
102 68
169 130
363 151
317 143
83 175
164 177
331 348
2 323
49 25
155 142
523 280
500 539
403 343
402 12
126 150
304 298
140 51
511 559
259 336
104 400
549 377
285 172
132 297
142 86
512 401
19 85
271 249
67 68
4 8
235 9
488 312
194 227
244 372
325 129
9 54
41 311
199 333
3 514
150 511
7 11
20 322
113 156
328 469
494 334
128 91
5 31
64 122
354 244
497 267
2 249
308 52
245 390
8 6
23 34
114 121
421 171
186 230
45 146
262 492
563 200
51 6
545 456
233 105
481 40
10 4
229 293
238 197
118 26
103 225
398 542
534 422
250 371
445 209
380 128
80 477
447 105
35 69
502 282
45 206
266 186
294 367
364 82
99 125
385 246
126 5
242 124
244 109
157 79
553 11
433 541
15 74
218 328
450 358
161 252
98 40
87 259
13 37
78 461
177 281
40 47
410 357
302 151
413 255
2 232
219 134
46 162
101 131
415 126
123 199
296 352
467 445
431 359
144 20
92 34
161 389
178 11
170 135
62 163
104 332
42 35
324 55
273 133
74 106
48 89
425 73
17 211
116 248
207 382
505 18
36 97
318 248
115 13
28 24
895 214 2
474 509
65 168
456 177
751 686
356 826
780 415
228 361
824 620
223 79
102 136
283 480
6 82
322 166
159 74
857 143
118 160
126 869
19 474
526 649
287 628
683 862
313 285
82 143
28 41
327 311
116 699
68 648
790 318
253 464
17 51
459 346
364 498
245 32
495 41
177 800
50 112
25 643
866 12
26 19
592 459
290 147
68 85
685 504
319 103
279 107
665 372
108 310
374 415
267 110
433 469
818 807
731 764
213 166
608 650
457 680
119 28
288 70
375 322
144 190
370 266
111 180
96 646
516 189
846 620
286 165
246 582
102 403
294 66
893 369
531 47
35 50
389 265
41 90
294 367
693 593
344 222
524 553
174 438
641 331
281 420
130 91
130 139
8 289
22 9
486 491
182 176
889 131
479 834
57 658
416 314
234 83
531 831
323 119
225 34
87 439
711 338
272 97
839 531
880 820
472 564
636 20
545 209
115 347
552 274
247 241
151 31
678 376
442 565
113 154
738 659
360 819
794 252
179 404
6 208
149 513
373 304
476 725
143 746
479 504
90 488
20 138
653 31
119 298
238 44
42 27
3 6
621 89
238 430
524 520
31 149
259 355
453 78
136 175
147 221
635 203
157 141
315 172
66 72
428 618
867 668
527 495
284 140
855 109
863 810
515 864
774 521
424 94
587 385
220 108
490 429
536 533
246 339
550 323
676 378
363 114
408 219
752 371
586 162
12 14
476 119
157 179
787 532
100 215
119 185
44 56
365 25
895 766
697 821
29 164
142 113
878 652
169 56
489 310
296 795
140 283
775 777
385 236
664 603
690 686
481 585
12 47
217 222
94 717
659 187
656 827
80 132
88 68
22 147
632 167
750 662
160 181
118 70
78 166
276 78
31 801
435 886
127 21
841 553
102 211
71 197
554 715
749 746
540 816
573 473
19 393
87 700
537 309
95 113
661 34
20 63
200 116
36 477
134 54
879 58
242 445
215 837
314 639
517 193
368 210
397 838
538 386
722 80
166 779
33 10
3 888
372 111
316 640
32 39
345 254
271 269
94 93
626 117
9 65
57 608
8 441
301 211
246 411
452 94
784 298
280 197
815 258
310 804
324 338
92 43
702 223
294 560
122 820
642 496
574 68
421 233
578 452
622 363
3 8
785 263
127 392
36 1
577 325
55 535
256 108
244 103
279 383
121 148
264 329
35 5
38 23
339 357
215 226
811 3
484 861
197 206
728 659
277 172
675 212
126 77
188 160
657 384
397 541
390 842
607 480
45 59
226 859
58 3
40 129
681 588
460 75
196 86
555 502
581 309
275 71
358 556
822 582
214 204
317 219
793 736
303 234
477 802
88 131
309 207
131 376
159 520
473 214
194 190
77 135
233 380
739 69
505 191
91 36
652 439
178 282
503 39
432 619
481 425
184 166
120 124
257 185
68 29
69 162
184 352
77 170
187 36
683 823
199 91
166 514
30 671
87 79
1 530
205 176
264 741
506 389
543 190
737 560
718 630
110 50
24 19
5 2
29 387
101 4
580 825
152 26
694 433
60 18
41 69
723 344
353 97
211 219
16 850
204 217
633 202
444 333
21 20
25 5
139 625
249 128
307 30
285 237
326 637
501 583
705 100
47 49
791 529
4 228
76 209
400 228
769 321
196 523
832 101
177 95
630 8
171 170
393 494
345 698
220 734
252 194
244 475
482 287
4 5
726 5
368 499
515 157
743 171
227 253
763 475
435 395
64 39
496 721
104 546
117 654
114 80
625 735
122 471
295 120
95 191
854 430
890 809
304 82
179 198
88 96
440 73
290 333
354 53
236 221
250 150
142 409
58 106
532 198
87 201
10 776
11 27
86 97
667 189
137 95
67 261
391 689
858 822
31 61
70 218
669 26
410 162
223 296
638 316
163 189
628 686
107 59
116 107
673 881
66 11
327 742
262 598
612 267
348 2
604 710
160 437
330 23
72 123
666 200
299 101
312 419
595 310
874 667
58 714
391 263
247 412
86 358
733 724
79 268
431 426
225 559
402 71
561 817
634 148
768 703
108 49
545 611
47 894
604 782
473 836
357 845
668 73
165 122
153 316
851 585
11 605
137 566
812 238
109 86
533 473
101 865
41 246
51 835
509 754
800 892
260 590
161 2
579 202
92 580
105 19
462 224
45 350
582 849
713 443
461 110
6 13
192 10
99 885
214 600
567 541
624 485
35 687
241 225
155 116
3 150
141 371
37 10
366 756
397 258
47 71
23 13
86 359
239 130
80 83
69 318
152 627
384 191
860 117
148 260
172 331
311 116
47 84
46 830
644 692
575 405
306 572
534 24
172 248
809 548
8 93
270 241
757 40
525 165
340 45
181 346
533 767
78 292
231 176
374 716
11 216
250 379
77 684
305 275
792 175
16 434
221 502
312 57
493 196
239 613
90 544
196 458
71 158
20 30
310 602
79 57
349 570
219 656
195 853
519 1
99 100
442 173
443 172
114 153
135 202
458 719
483 134
364 145
417 199
232 18
388 124
306 77
104 86
691 530
210 747
207 144
755 434
467 271
466 190
644 391
183 712
321 449
788 575
242 727
47 52
510 123
81 17
333 446
335 561
120 349
461 571
101 133
369 55
174 59
112 230
120 450
144 19
214 291
807 355
209 251
55 765
447 262
237 11
147 500
238 320
171 479
117 484
152 163
695 442
829 78
172 2
32 7
18 14
593 484
486 358
9 6
521 266
213 448
121 113
78 29
81 651
178 58
753 631
10 19
599 117
28 140
145 74
96 451
542 252
341 14
260 629
781 875
463 153
288 399
186 129
377 277
235 17
868 56
37 74
44 3
165 418
1 3
223 262
164 810
177 326
23 287
31 16
396 125
259 394
115 374
290 584
35 227
73 390
413 775
324 122
235 745
709 313
125 269
343 216
17 3
631 292
259 218
828 445
532 783
766 35
291 610
427 220
258 761
281 271
86 366
840 656
758 499
554 369
512 189
73 15
873 891
156 6
424 501
457 334
62 28
70 45
744 870
378 144
273 222
511 249
72 75
310 547
871 86
36 167
808 702
194 258
38 485
55 80
125 472
201 660
243 222
528 291
285 325
160 772
17 314
7 43
115 52
313 588
526 198
131 293
518 481
40 413
199 576
55 57
799 500
682 336
529 40
102 97
770 541
670 27
319 778
76 39
165 696
2 609
568 46
706 472
462 813
350 454
352 569
11 6
59 120
16 328
601 209
64 86
229 68
2 1
46 342
11 48
616 542
876 651
673 66
63 594
223 405
238 704
416 497
424 596
128 28
151 703
844 281
773 442
111 81
360 202
796 701
22 46
72 274
210 701
12 34
50 54
11 522
882 469
679 626
674 363
771 387
327 786
15 7
740 266
677 596
663 102
169 278
143 254
33 224
125 17
883 824
748 737
39 40
322 803
105 557
688 530
332 7
605 732
180 351
603 241
381 277
606 16
219 433
99 26
615 67
110 193
549 272
781 176
20 13
496 166
386 2
415 487
428 12
789 318
797 24
674 744
597 392
253 620
80 426
223 720
297 724
95 56
210 56
847 196
176 153
395 187
468 287
465 143
55 173
617 461
61 551
262 398
61 103
730 36
428 736
4 3
470 614
621 662
98 44
45 38
265 75
12 425
242 41
492 359
432 248
12 6
562 154
204 32
1 7
672 210
415 589
592 762
407 279
84 540
87 89
356 281
178 195
117 28
15 335
181 334
665 697
563 22
833 689
77 64
92 805
182 183
423 49
166 233
814 565
508 84
300 216
63 146
17 28
29 362
429 233
4 455
53 14
40 264
759 212
55 52
67 64
871 872
255 163
548 471
327 422
478 327
884 348
141 106
729 146
336 165
414 280
69 507
89 212
203 176
131 240
10 1
322 558
273 337
339 591
456 731
302 124
634 645
557 623
683 205
12 16
401 325
321 3
756 806
20 122
513 647
877 699
798 180
41 297
382 131
406 48
470 11
591 873
235 843
887 520
573 852
604 592
308 161
18 29
856 463
436 196
266 95
271 655
225 263
707 534
760 226
95 539
848 558
708 49
933 932 532
118 111
78 662
621 167
282 576
23 13
454 300
12 67
821 25
54 28
497 232
260 314
860 174
668 911
693 618
90 235
762 578
633 175
134 452
77 334
17 2
556 593
451 506
172 205
168 183
22 75
333 305
838 785
351 658
1 876
397 24
323 296
175 111
18 219
8 117
805 873
394 917
539 425
163 668
563 854
839 631
299 231
172 295
919 786
247 151
725 825
116 236
502 218
589 427
675 661
749 728
522 699
322 671
395 428
856 299
41 114
609 154
263 630
649 186
344 328
250 104
329 279
379 323
135 342
899 354
91 11
166 31
353 489
571 139
260 528
447 891
416 547
4 3
231 92
759 459
258 18
254 327
653 546
203 478
10 39
315 337
99 51
61 718
220 335
738 323
327 413
404 328
543 80
47 255
119 1
195 766
255 434
80 727
657 385
32 640
53 164
305 617
797 777
886 142
130 70
792 744
72 407
695 460
534 148
430 663
251 68
334 932
484 370
87 287
94 194
78 40
6 12
475 318
36 82
58 27
767 623
750 811
386 40
155 119
469 66
28 55
256 127
460 819
929 488
588 407
438 77
124 176
9 211
396 294
58 113
83 61
86 201
319 570
13 89
96 10
614 272
308 293
367 746
694 33
523 482
294 459
68 7
359 339
629 599
656 136
41 51
103 165
277 537
151 780
601 672
56 20
140 65
592 637
360 60
50 670
275 3
234 375
557 34
165 177
209 779
836 57
421 420
492 307
499 282
6 7
156 269
660 203
883 553
46 16
38 24
726 646
18 920
385 196
758 78
118 204
11 50
553 33
282 921
180 148
228 31
922 909
369 324
336 751
128 46
129 32
490 113
220 170
464 480
413 522
243 283
426 855
743 27
728 765
556 655
667 589
677 117
478 724
453 476
399 132
418 380
64 16
481 777
631 469
207 162
35 28
498 894
280 274
191 400
560 840
478 634
111 1
583 290
294 182
676 22
162 126
756 178
831 363
362 136
21 74
94 286
527 122
270 52
319 927
239 127
187 445
95 296
321 326
491 456
222 324
870 199
477 532
436 156
371 471
133 422
810 224
555 704
700 327
62 331
29 112
298 563
509 320
771 837
269 600
192 191
616 91
30 73
51 88
118 395
715 790
889 753
2 45
387 784
501 533
29 261
592 100
107 305
399 713
133 152
159 188
112 135
7 26
435 564
41 809
177 567
241 257
138 246
520 140
800 280
905 729
343 265
550 681
134 715
187 58
217 181
303 848
612 747
621 651
348 565
14 48
111 156
39 290
115 575
381 32
320 646
84 3
244 168
602 892
128 524
145 13
613 685
332 568
507 607
386 403
441 558
21 365
125 483
8 14
88 126
12 869
153 285
552 261
315 366
425 503
234 388
495 401
586 180
22 276
284 254
697 664
510 47
31 30
464 271
419 530
188 237
26 53
562 148
168 102
820 653
152 184
553 734
170 846
611 455
712 335
903 474
291 647
92 60
102 66
364 610
460 151
888 641
12 47
24 263
896 143
8 3
264 215
327 590
106 417
898 175
57 29
69 53
733 818
125 122
605 350
769 470
615 45
138 292
242 212
111 141
390 26
280 415
515 484
280 373
194 315
22 463
791 823
209 118
371 425
410 16
602 240
849 668
531 274
700 830
50 61
17 291
319 538
498 109
59 486
318 352
205 401
11 249
431 421
394 249
99 107
550 474
719 2
6 5
286 367
197 22
391 77
111 274
705 730
865 102
505 57
76 38
10 546
776 808
27 44
210 172
136 802
346 648
850 721
55 72
108 157
732 346
130 377
108 372
181 94
99 213
322 330
56 100
184 208
387 353
914 438
470 834
297 135
185 93
173 370
69 97
3 172
347 519
525 322
844 109
842 498
669 220
42 22
554 169
17 21
486 904
430 584
293 203
625 82
516 707
518 169
198 408
273 309
365 925
862 345
67 368
436 872
742 215
37 86
443 292
33 109
118 151
879 328
142 48
9 15
262 740
906 910
512 682
283 316
170 18
202 340
574 877
213 683
706 798
18 40
414 30
184 723
143 66
467 414
517 286
755 193
754 686
217 245
53 174
501 315
191 645
473 75
818 851
229 566
635 587
230 100
32 34
650 407
556 735
485 500
353 763
28 65
595 62
284 423
102 591
234 80
108 98
321 536
100 768
799 111
624 20
489 791
771 308
371 254
757 489
69 110
31 163
41 33
442 353
365 440
20 7
733 196
457 263
48 828
405 100
355 353
215 84
603 536
411 102
233 67
474 267
513 199
35 545
465 226
711 523
107 148
425 824
147 44
826 504
18 665
822 115
843 98
878 923
454 542
66 13
913 423
298 271
51 160
108 736
918 84
587 203
575 606
140 301
13 105
241 153
116 78
72 514
170 901
477 352
549 71
658 829
310 383
424 369
827 22
178 679
386 772
857 845
233 690
19 24
551 346
256 345
18 195
12 13
409 816
322 604
134 12
1 79
2 227
51 136
232 49
544 686
105 737
319 148
221 14
767 775
33 138
722 134
250 529
770 909
54 450
28 17
639 352
240 97
179 761
673 801
526 244
578 474
122 364
363 198
548 14
720 225
95 59
196 112
100 171
845 707
540 594
73 702
618 276
54 104
710 832
156 512
86 785
336 234
384 267
680 92
516 161
744 714
447 369
470 706
705 185
5 481
455 423
628 400
11 60
163 725
27 8
222 37
868 9
16 77
931 492
326 521
902 770
123 729
347 485
29 313
392 122
365 803
632 417
728 221
482 241
18 173
61 356
897 876
907 34
120 30
5 858
433 431
796 44
304 208
158 88
753 103
60 248
273 581
748 66
688 41
933 530
252 213
301 449
22 11
23 272
612 149
18 16
361 441
835 335
708 214
271 664
773 413
311 107
853 730
144 138
181 288
544 556
182 161
458 622
561 74
206 508
794 671
461 228
157 778
46 87
204 673
2 8
793 439
107 544
815 336
225 29
5 81
244 346
523 535
383 774
518 644
406 129
206 151
200 393
900 777
915 895
613 197
928 116
636 187
83 103
85 56
36 861
224 608
44 427
303 60
133 42
273 580
136 202
139 167
22 159
139 203
194 437
11 80
783 882
881 119
522 572
643 642
271 191
536 786
692 635
630 781
38 169
402 76
1 7
190 412
12 19
717 107
68 458
293 577
380 133
555 361
175 833
874 215
701 591
507 277
283 409
265 494
83 254
71 179
53 582
228 890
10 4
72 878
265 201
770 3
573 20
190 135
382 92
214 279
425 924
351 254
19 278
32 559
220 585
321 27
496 300
789 447
93 41
764 621
320 8
841 804
437 859
318 218
462 261
805 282
129 659
504 319
196 226
118 782
106 41
77 186
49 322
153 43
135 448
105 132
33 154
32 33
253 104
430 285
5 4
186 339
130 795
191 112
137 57
638 565
165 488
52 27
316 893
895 343
81 101
601 316
158 620
350 337
247 310
908 573
38 139
338 131
681 691
152 817
281 218
273 132
108 189
267 453
424 487
357 20
223 195
326 426
861 885
21 37
123 37
18 49
358 286
354 93
122 19
198 776
285 468
154 267
912 258
199 107
63 10
18 880
569 279
587 642
59 115
660 884
432 101
282 18
33 332
28 36
493 382
2 1
631 674
70 64
184 300
101 804
21 62
339 472
470 465
852 738
312 160
98 93
32 4
614 783
866 231
218 212
212 6
750 12
119 806
322 560
11 94
760 441
863 728
249 307
116 277
398 89
511 147
377 716
814 544
598 431
685 687
151 243
836 871
115 266
906 164
444 12
253 867
376 342
347 265
349 313
12 25
255 627
599 390
847 9
89 456
451 422
170 302
876 930
204 289
699 887
287 429
150 54
787 129
149 94
7 9
41 378
692 696
238 186
916 314
173 389
10 131
466 287
3 29
74 353
654 159
30 178
361 7
71 8
319 479
72 745
341 133
67 652
596 236
749 807
666 268
151 416
43 18
317 274
517 689
540 193
90 65
143 678
714 229
342 541
160 435
127 9
311 864
437 439
121 63
154 619
641 517
6 16
145 597
206 574
138 623
111 124
626 478
237 741
216 139
417 661
762 812
442 709
703 548
237 260
245 259
101 875
268 234
149 446
101 926
227 306
348 115
328 188
59 28
684 268
200 12
420 89
752 716
488 579
499 739
239 325
214 102
193 51
731 264
431 721
95 146
601 788
7 11
25 262
30 25
127 198
84 698
813 614
374 200
419 23
148 710
224 156
229 224
161 13
964 944 180
322 15
291 511
33 15
437 899
105 583
55 53
270 107
71 75
721 658
140 923
28 77
243 717
427 92
372 644
501 842
72 92
472 519
71 612
110 218
912 492
275 140
470 426
141 223
78 449
724 956
126 89
236 174
43 204
416 587
295 688
34 172
399 455
281 633
528 45
531 503
67 479
502 169
720 499
219 483
530 355
178 302
807 217
741 413
791 764
146 803
542 332
94 68
557 268
391 11
315 425
704 619
11 51
281 40
107 55
5 17
931 55
288 54
235 836
90 387
8 827
210 475
369 588
605 964
520 760
879 454
19 98
636 179
538 372
6 3
265 198
585 287
947 257
209 113
749 446
152 95
49 43
66 9
607 276
304 407
443 374
48 15
532 702
136 261
243 371
357 428
650 144
822 47
187 85
416 132
769 713
12 16
3 200
775 504
250 69
659 425
921 242
263 36
829 701
7 22
780 945
35 83
834 518
128 43
752 66
582 507
694 732
694 265
147 212
608 946
861 201
291 726
672 561
920 153
653 384
460 119
147 79
725 627
802 22
389 202
413 691
67 54
560 138
546 164
469 78
329 146
101 349
40 5
148 161
12 406
43 771
1 257
961 916
696 90
317 283
452 202
272 45
411 338
149 283
107 173
33 260
67 188
26 184
398 350
766 160
225 21
7 20
783 370
761 45
554 625
934 277
17 339
133 27
655 959
8 930
106 435
551 197
396 86
94 207
829 881
898 465
856 871
294 750
78 496
21 88
133 335
295 321
707 435
173 457
776 358
143 770
296 568
34 15
8 401
132 742
19 157
575 460
79 373
125 169
205 108
156 142
77 115
103 662
86 69
180 206
683 560
245 73
6 486
456 298
262 131
821 226
841 405
76 698
627 674
784 669
398 410
298 506
126 814
390 35
23 42
847 704
839 907
282 478
555 402
353 883
89 266
877 431
643 301
188 743
608 523
645 393
787 701
87 183
746 682
30 255
149 49
360 6
99 9
394 147
418 599
277 660
100 67
594 509
23 22
534 129
652 536
343 426
17 118
127 23
276 570
372 191
869 514
682 686
917 151
114 80
374 321
240 37
477 60
109 733
857 233
363 292
852 909
63 26
140 56
567 32
556 11
826 170
111 124
621 328
178 422
492 495
246 957
15 5
190 437
418 153
142 86
389 878
779 530
788 942
580 225
368 193
446 27
468 682
835 406
796 746
358 120
151 423
874 369
319 629
85 70
91 20
876 702
4 11
110 64
339 902
102 93
173 235
424 1
216 341
253 408
562 316
697 626
269 386
98 239
174 303
272 403
36 20
366 504
363 860
265 873
38 39
284 24
530 927
407 571
762 554
714 918
385 949
297 32
426 522
489 376
86 112
592 503
30 314
276 92
178 774
118 198
689 321
498 340
910 839
343 453
265 306
120 146
467 622
772 15
275 337
179 267
474 955
548 922
134 420
328 431
204 222
63 332
795 257
555 823
171 840
713 510
46 649
737 421
25 32
752 806
110 875
370 227
398 958
5 7
159 158
160 378
57 247
368 381
18 17
777 114
150 812
728 560
69 18
344 790
110 356
553 833
856 685
416 809
501 331
509 219
171 135
80 79
463 615
35 62
286 355
120 117
50 962
605 117
647 521
477 703
119 143
450 248
22 237
620 281
614 744
663 554
461 576
124 219
810 159
258 74
10 794
500 455
274 188
78 23
18 210
230 369
38 19
601 422
316 336
474 132
789 522
908 47
315 788
64 57
17 213
299 205
33 503
946 954
109 34
87 86
609 127
589 419
699 314
188 919
94 153
175 296
933 196
244 532
392 865
90 46
83 228
846 348
32 59
354 135
119 2
870 872
868 641
656 199
394 444
340 80
229 63
311 91
121 421
818 523
130 104
29 327
33 357
711 530
929 289
730 238
845 451
716 773
124 160
344 324
279 430
747 473
54 105
280 173
578 456
282 169
639 457
203 844
99 170
242 103
4 9
194 586
906 716
26 8
667 925
300 513
71 29
634 782
220 330
328 118
480 1
161 273
662 932
521 17
640 885
312 338
2 579
240 535
296 745
853 518
492 60
388 33
271 324
22 74
307 31
97 252
176 5
569 347
386 497
42 375
4 1
274 862
260 353
471 234
294 566
593 158
323 241
1 45
180 544
276 706
184 309
909 928
79 82
242 264
313 25
50 32
481 830
824 283
232 133
124 177
41 18
14 53
828 57
46 294
740 867
467 330
291 241
378 937
329 679
650 801
309 392
93 23
727 300
191 61
3 8
259 461
195 158
43 491
290 198
527 595
175 60
31 155
303 448
342 225
154 768
35 690
415 305
108 345
82 447
96 11
366 855
481 454
82 564
331 758
166 676
402 614
234 44
539 103
359 102
146 178
182 122
73 59
152 300
563 200
149 439
561 764
648 333
654 100
482 642
152 619
488 655
648 870
333 143
523 577
129 238
22 46
25 13
353 901
19 162
731 239
130 350
799 890
295 436
520 324
377 254
77 367
193 79
193 334
914 910
211 70
939 621
21 181
527 753
11 37
164 18
259 825
574 147
453 591
6 12
502 543
132 361
279 837
35 673
141 7
39 405
549 553
28 27
538 882
227 174
953 322
675 441
399 44
398 473
54 325
616 515
330 346
251 708
145 49
150 866
39 231
66 97
562 940
440 60
287 43
895 55
449 597
216 292
47 911
43 604
49 718
798 608
256 124
29 35
21 756
60 714
926 239
6 76
343 459
307 419
724 532
11 508
485 249
505 173
414 681
781 259
163 736
960 166
800 65
705 83
944 349
561 18
380 208
618 598
813 522
117 115
220 778
342 537
641 657
889 398
351 759
26 451
29 137
335 943
135 42
112 226
848 330
192 214
755 205
430 468
121 85
383 357
620 858
757 572
729 631
60 2
838 351
109 138
613 471
692 343
283 318
21 17
179 46
129 20
208 180
91 808
393 832
8 598
29 58
180 151
8 30
484 328
685 518
308 167
549 468
107 445
414 164
464 156
331 184
326 150
903 47
48 246
70 559
203 26
843 116
322 793
366 8
8 2
228 524
26 230
637 410
734 343
285 125
192 98
202 21
189 465
88 687
454 227
851 486
1 897
198 887
305 79
235 315
174 104
634 126
113 515
722 318
627 276
95 36
640 664
61 50
839 177
301 75
295 924
98 125
244 395
158 514
417 584
115 136
15 108
258 600
676 948
98 196
536 677
482 638
241 109
938 672
550 508
15 185
54 79
754 673
417 211
833 896
812 941
65 54
194 224
27 518
631 221
545 282
709 579
36 154
83 849
246 529
258 432
166 189
740 3
115 376
3 13
524 695
343 242
358 792
963 843
610 143
269 120
11 168
892 212
516 207
336 904
21 820
66 68
487 383
517 350
197 18
105 351
194 72
46 536
684 188
404 635
442 149
413 168
767 742
462 641
52 17
271 107
581 207
75 101
331 665
164 558
217 785
217 404
628 585
144 4
129 134
10 8
952 575
670 53
43 805
210 523
27 382
84 244
45 47
243 48
483 488
43 113
412 590
678 675
144 748
54 4
277 293
591 905
308 434
448 525
116 35
669 180
390 606
166 221
59 217
630 587
547 530
384 267
646 540
24 1
123 201
63 248
295 138
226 572
9 6
819 203
735 149
289 93
441 59
482 811
84 82
21 298
59 122
462 354
347 203
217 831
54 476
194 233
361 765
3 81
204 693
493 376
24 320
482 799
166 90
535 611
286 29
29 43
710 52
103 21
107 429
915 551
864 78
81 278
677 936
250 251
289 661
207 279
763 891
854 725
220 143
513 632
458 371
504 603
253 94
72 1
57 393
2 151
194 268
261 671
520 540
951 768
626 241
552 16
700 382
596 18
147 541
44 26
668 481
255 651
8 216
125 804
739 617
96 158
850 836
319 84
324 438
139 130
222 433
26 132
312 56
507 129
10 27
89 64
202 723
163 147
20 111
581 712
266 316
780 582
249 29
738 164
870 880
187 402
163 623
458 472
430 527
93 150
175 640
680 119
108 385
602 160
31 30
4 14
57 190
11 409
348 67
450 888
80 123
167 33
658 356
482 152
884 637
165 935
104 7
751 193
815 440
2 7
526 341
165 106
131 100
14 70
56 11
283 617
533 207
770 886
199 130
666 171
293 716
490 61
215 50
159 913
310 111
359 365
715 382
99 573
863 201
494 105
629 667
46 352
624 129
213 817
125 565
427 816
950 556
57 34
304 280
261 463
701 227
397 389
148 142
1 19
411 510
859 194
254 80
201 259
719 434
379 125
499 455
894 55
637 852
900 885
5 1
412 374
99 277
916 613
554 245
797 49
150 362
364 33
62 106
179 400
7 29
691 786
466 365
512 497
763 533
893 428
72 548
186 140
991 958 294
236 939
886 254
110 46
480 650
296 682
262 433
145 182
483 784
613 93
409 908
431 288
217 38
215 756
862 859
232 406
855 756
627 527
323 922
196 105
70 570
583 188
74 763
405 986
603 399
418 155
847 566
963 822
507 139
281 291
168 437
504 777
627 785
305 147
77 123
468 793
11 69
540 966
129 251
150 564
206 182
67 14
390 18
256 241
435 592
86 96
439 541
48 563
74 350
164 258
20 816
70 24
648 888
102 114
6 231
262 124
92 134
248 184
591 894
139 8
287 77
57 833
690 613
156 152
374 479
79 148
5 92
632 913
143 304
446 646
216 125
49 758
63 60
844 539
713 357
580 648
620 178
421 80
278 122
208 286
199 179
600 843
174 654
491 266
814 368
731 185
42 265
379 373
27 124
529 832
1 3
537 414
20 49
343 857
40 79
143 676
17 486
280 235
46 970
176 169
24 16
286 668
144 892
261 260
298 669
899 530
859 618
289 338
48 35
166 65
769 653
530 412
501 352
351 506
180 662
989 686
79 136
803 576
742 813
228 856
131 100
557 283
123 257
399 561
321 211
402 651
76 163
426 93
626 163
797 585
194 165
687 680
29 6
276 861
427 333
396 715
559 385
94 143
44 1
239 347
766 439
985 143
629 169
446 77
74 102
3 634
20 120
47 64
617 821
988 292
322 101
14 799
55 98
371 323
133 550
278 948
295 526
550 677
599 915
956 892
80 122
927 420
607 129
562 211
39 863
630 575
87 66
158 125
310 20
337 733
777 871
11 17
349 132
52 34
23 236
489 170
602 743
762 172
937 380
414 207
736 135
175 69
5 97
873 972
670 841
623 670
818 85
745 208
409 496
618 488
33 708
325 27
307 976
74 211
469 131
31 722
113 45
3 311
16 30
521 971
34 879
458 42
47 76
46 42
195 360
270 332
357 664
536 135
142 155
916 17
186 483
14 3
208 694
21 271
315 290
594 541
193 767
465 417
325 632
165 450
221 235
511 775
485 639
737 357
164 732
190 169
28 121
475 905
836 236
723 660
69 521
341 95
897 341
605 161
96 118
55 917
349 959
616 264
741 486
245 97
27 115
458 734
851 771
59 740
895 894
390 817
750 350
130 106
281 33
3 545
239 928
448 279
346 672
434 600
145 181
201 102
139 225
68 273
191 229
147 157
102 183
136 983
109 298
710 16
523 254
269 71
880 389
615 248
522 852
896 544
95 108
173 891
911 97
890 689
931 283
581 20
621 125
105 169
420 127
688 606
636 542
884 12
65 58
614 495
5 16
10 247
246 72
449 874
747 848
314 308
152 123
686 638
466 276
284 131
398 215
532 285
918 946
272 71
893 25
403 118
497 987
292 289
3 218
170 98
510 359
586 484
402 395
75 711
321 720
153 133
103 154
9 868
827 382
361 81
53 346
845 19
57 367
326 173
37 432
222 773
569 471
44 330
807 47
82 303
181 374
237 173
313 146
280 495
174 47
449 184
484 953
2 167
31 161
973 683
51 103
71 58
412 387
826 281
410 716
336 168
439 657
400 702
27 33
178 71
15 28
80 30
166 606
451 237
695 401
544 14
204 312
57 382
233 133
349 812
301 168
269 565
492 60
14 188
628 282
842 635
498 739
417 962
433 436
70 104
83 393
343 320
259 400
864 225
359 264
26 173
203 200
206 977
830 722
417 1
105 288
145 63
153 316
3 208
144 56
476 59
293 171
110 200
484 86
218 268
62 44
238 380
589 292
375 356
587 218
1 234
90 241
316 633
105 137
952 581
268 802
419 107
575 284
49 151
919 755
478 475
454 811
277 3
250 647
255 135
380 535
408 400
438 405
631 697
144 595
823 877
92 213
597 202
584 924
414 579
198 712
32 215
50 302
875 28
516 245
889 249
878 11
198 142
705 742
37 58
508 429
609 3
765 731
819 342
430 423
764 555
659 340
477 145
10 34
787 720
707 120
846 504
160 2
348 263
170 180
671 332
16 74
462 9
131 822
136 368
17 95
93 179
494 208
571 122
601 728
696 639
940 217
146 130
96 138
309 159
12 383
757 531
44 440
36 1
404 189
925 704
124 226
12 51
174 808
923 629
428 379
212 751
125 59
89 13
772 264
589 912
825 786
413 517
425 522
898 717
113 578
19 50
240 725
15 162
577 683
551 601
320 40
103 882
339 101
359 500
829 395
11 295
585 567
608 43
356 41
265 744
1 577
48 504
95 480
304 511
329 87
109 52
9 35
509 56
214 794
335 51
92 116
239 327
352 372
32 42
154 282
13 23
170 456
4 453
623 543
142 661
785 790
268 542
357 234
754 161
12 5
59 2
232 854
548 375
490 795
321 410
978 232
78 47
630 644
117 319
297 159
519 102
73 111
237 318
447 172
307 474
353 316
11 5
252 187
73 54
531 75
75 83
79 197
67 434
806 750
191 239
823 364
126 219
528 358
103 907
41 60
231 493
227 254
285 148
594 941
556 246
36 189
318 397
333 77
219 540
666 510
590 80
441 5
425 85
21 43
401 849
444 591
489 881
66 43
472 122
236 518
288 471
685 679
215 352
693 98
785 945
82 7
709 83
354 130
598 308
773 824
191 156
548 809
725 990
275 71
75 860
611 497
296 228
727 5
250 853
876 704
540 781
190 443
58 950
800 343
106 249
212 539
10 129
128 250
355 275
238 60
770 304
83 416
467 933
581 870
236 317
748 53
943 384
285 714
834 676
3 90
528 612
395 599
254 394
290 36
944 435
276 141
68 62
529 412
346 499
12 45
186 134
267 200
474 926
504 786
755 16
717 435
12 39
207 41
274 189
43 117
35 38
324 107
242 665
652 214
961 33
333 395
494 674
938 481
98 210
336 783
867 365
779 690
554 980
903 91
12 40
142 31
399 196
488 679
184 182
320 460
70 345
352 473
360 865
900 356
222 91
257 753
75 159
157 334
660 248
276 279
866 753
522 656
106 259
373 220
920 847
169 929
148 452
150 11
585 692
12 75
435 549
307 167
361 482
306 233
850 273
62 91
643 513
815 295
949 668
299 464
19 289
240 25
312 706
54 386
81 340
458 942
407 216
91 378
313 457
735 473
759 652
552 22
56 22
37 34
427 497
520 259
4 1
133 18
212 29
421 703
776 610
72 6
48 792
840 758
305 761
649 239
68 107
583 902
104 228
604 162
485 689
610 512
61 185
26 55
507 968
580 92
90 470
69 887
47 23
370 123
389 153
467 405
35 534
1 8
221 155
263 171
147 29
12 53
1 13
376 178
385 239
576 196
264 243
314 490
93 39
625 270
242 760
593 295
415 210
981 867
8 15
2 4
31 25
377 246
528 934
1 20
211 726
398 502
909 699
96 442
385 982
435 415
680 227
67 86
156 730
42 568
417 640
642 339
20 667
450 617
572 536
930 486
684 115
230 144
266 839
276 381
810 237
177 202
494 828
61 308
270 801
613 947
94 36
774 112
391 141
166 705
458 935
455 135
99 101
637 403
602 251
906 188
771 430
746 591
439 364
464 729
40 266
883 509
538 200
635 274
141 49
619 719
242 132
133 232
365 527
230 582
18 2
2 7
698 606
596 49
603 872
74 85
175 904
638 285
563 958
568 975
243 15
220 88
27 17
984 170
246 429
625 718
358 673
900 951
441 444
127 123
358 724
369 622
286 328
554 313
423 179
130 227
187 16
562 619
366 122
280 459
936 440
2 5
268 283
400 778
401 322
974 346
290 838
18 100
743 885
364 344
9 32
3 6
782 145
106 525
126 388
13 331
789 770
384 301
57 19
165 72
445 426
79 498
288 969
513 120
678 656
914 471
174 323
192 100
979 543
515 510
58 543
93 106
768 136
114 738
634 837
9 5
918 550
747 744
16 193
13 25
22 15
136 177
5 3
205 131
574 142
11 168
119 8
162 209
685 858
749 456
725 780
4 805
788 385
524 9
645 134
82 791
369 160
716 957
25 26
56 99
81 77
384 558
553 524
760 820
836 967
551 90
41 7
60 405
796 286
359 409
485 372
105 30
54 19
336 468
663 131
396 188
291 362
370 721
204 158
270 910
873 700
424 287
560 501
378 454
387 349
351 126
121 631
584 386
461 273
270 141
61 48
19 17
488 2
26 344
5 533
101 365
9 10
88 26
553 573
411 394
653 94
798 166
624 6
681 388
954 619
675 419
224 78
19 21
835 66
704 582
66 195
64 112
310 413
405 547
797 901
658 161
410 503
342 158
505 416
4 964
159 701
17 655
113 132
363 201
112 514
566 267
244 49
299 205
364 991
358 55
482 487
17 164
93 149
515 955
481 177
448 588
440 555
172 167
109 135
554 700
218 567
4 140
313 463
9 475
260 199
56 752
77 19
68 300
960 395
82 84
546 533
804 719
403 691
294 170
128 114
220 422
818 921
216 699
629 641
171 149
126 16
214 80
831 171
6 223
171 869
392 231
76 512
253 232
185 337
932 496
965 599
587 52 470
54 29
352 425
529 244
4 160
172 551
310 305
269 255
273 363
14 208
360 327
274 21
6 20
366 422
29 56
84 98
120 42
443 372
455 408
584 85
414 558
43 61
94 100
485 123
475 352
94 525
445 189
454 96
35 111
146 234
68 113
164 276
501 514
298 345
12 22
20 93
291 137
80 196
287 72
259 262
177 25
136 69
211 17
17 103
148 9
61 272
7 37
255 63
258 146
330 270
446 430
349 23
152 153
357 96
204 47
481 72
233 1
433 244
332 225
68 86
107 574
136 358
237 161
27 1
322 410
383 147
317 278
33 74
408 315
404 265
211 288
59 22
132 193
227 246
210 472
101 515
105 34
194 300
157 48
493 361
183 134
92 502
34 10
53 2
12 552
86 176
341 536
567 156
5 115
165 232
550 167
306 117
75 67
132 108
37 247
333 142
47 328
470 26
547 125
244 188
172 517
221 26
19 84
513 113
401 461
436 576
80 48
156 236
280 223
9 479
290 263
161 201
279 7
393 18
15 205
277 4
122 587
123 49
12 17
60 85
478 92
352 483
308 229
571 310
42 15
231 505
101 195
275 7
403 261
181 299
162 110
557 525
65 71
429 156
20 185
525 555
331 371
388 484
253 25
50 17
241 184
10 8
29 32
102 124
252 530
32 427
370 280
88 44
132 202
400 72
106 56
133 170
60 19
87 60
141 102
17 41
532 498
102 336
136 213
46 543
205 285
112 79
72 570
372 560
85 450
91 359
243 147
174 59
94 380
125 38
386 317
369 144
521 237
161 124
66 476
578 414
572 434
220 444
342 272
101 3
140 216
443 452
266 390
495 295
109 78
163 122
411 315
277 540
43 36
263 134
582 399
377 37
30 121
391 111
311 100
222 92
130 414
132 142
19 466
42 520
222 295
100 229
586 318
371 506
210 240
338 190
140 26
459 318
385 9
373 118
192 108
154 36
29 35
455 501
203 15
10 63
57 65
142 150
176 199
323 319
364 279
66 489
68 580
239 105
224 42
99 331
235 353
585 281
198 19
412 549
28 24
130 13
18 31
107 376
12 6
314 541
221 226
248 352
293 247
57 361
437 310
178 112
91 152
260 137
25 335
11 468
46 131
326 105
183 539
309 378
35 207
25 491
327 243
318 164
38 45
257 172
316 490
524 320
125 561
375 66
43 49
577 294
510 482
303 43
186 87
11 14
214 182
379 58
58 44
33 14
47 89
5 119
163 344
355 252
516 15
191 180
146 337
110 187
8 283
234 424
34 314
305 109
264 347
448 306
128 519
575 54
98 526
402 503
47 465
423 283
156 533
8 67
235 143
273 129
34 396
330 480
3 460
329 226
135 6
395 196
59 104
8 4
225 197
221 307
562 526
167 281
1 223
49 397
270 286
7 10
297 133
226 354
405 258
228 52
26 217
114 392
419 254
266 382
439 41
212 388
118 218
9 18
23 36
9 38
73 38
191 256
301 384
11 181
166 38
528 378
316 186
31 64
81 77
136 544
189 511
150 366
291 399
434 216
77 334
296 322
457 415
462 370
252 166
11 19
133 40
290 409
374 105
5 2
21 406
373 546
46 474
464 293
90 50
28 94
271 509
219 51
7 149
227 50
194 44
196 456
22 169
55 309
556 418
108 537
349 430
467 11
548 186
563 99
329 542
65 92
82 210
438 32
59 321
284 10
289 260
69 60
255 325
12 271
516 573
10 348
7 5
14 401
473 527
139 173
242 153
182 66
13 11
482 32
91 137
267 523
564 166
292 259
97 143
568 523
451 272
4 11
32 184
91 147
3 6
251 381
80 139
267 496
126 138
40 37
71 442
48 301
38 48
40 102
124 389
59 110
39 27
245 137
82 39
91 1
211 421
249 190
341 3
101 362
91 402
351 294
1 4
163 180
251 174
135 145
230 201
143 265
161 200
79 67
18 55
127 39
284 499
426 412
282 163
216 566
52 39
3 553
19 259
18 23
46 62
275 412
418 534
30 72
487 437
15 9
167 5
16 9
220 148
494 367
18 46
346 432
51 231
57 449
62 365
302 13
183 212
1 6
324 180
254 30
372 171
473 89
179 119
6 504
122 298
82 339
24 44
488 324
343 182
99 57
315 154
108 238
501 535
471 13
123 264
51 158
382 441
294 61
3 9
129 42
126 74
447 319
19 29
320 368
236 418
105 189
559 124
117 20
250 149
47 151
51 6
116 67
215 65
2 26
105 146
565 233
21 1
129 197
335 436
206 186
579 401
508 233
440 24
93 134
19 24
63 278
537 554
128 94
156 99
347 497
420 111
133 155
105 118
108 3
398 365
165 88
261 188
5 57
407 334
367 93
236 346
195 538
269 492
219 304
38 431
387 249
173 531
115 159
531 581
3 70
29 522
25 5
270 197
101 188
569 413
78 266
67 416
21 47
319 112
21 68
164 55
251 507
76 96
97 24
38 190
267 94
72 83
60 144
340 185
329 435
142 583
265 458
222 356
228 428
268 188
41 500
84 107
183 312
167 168
184 469
78 15
9 2
320 114
477 431
486 177
38 175
30 2
248 240
413 207
24 415
394 274
77 16
310 512
224 545
518 469
53 114
172 15
95 83
66 19
103 296
76 68
313 303
206 463
42 171
350 198
204 453
38 417
498 28
209 207
93 122
515 450 218
135 199
149 81
132 232
390 95
367 360
126 196
437 108
235 433
182 37
114 505
110 150
39 19
42 19
58 76
145 257
124 146
117 192
237 334
111 276
11 111
120 107
425 265
4 2
283 410
409 354
14 66
326 230
396 72
1 4
325 354
56 39
112 27
369 443
95 482
38 229
3 114
159 220
236 387
63 119
243 48
219 137
55 133
184 130
57 152
221 49
122 43
178 145
128 313
137 52
470 301
104 37
78 7
363 392
2 108
22 267
22 60
106 291
29 284
142 113
158 84
237 362
293 167
41 15
234 46
480 90
156 66
325 238
332 214
222 140
442 337
145 14
223 157
341 393
168 181
264 176
438 329
200 18
97 179
59 86
395 199
280 56
166 148
141 131
113 153
35 3
85 29
238 508
167 150
84 173
331 318
53 250
54 83
354 377
91 175
174 265
405 295
85 121
105 99
78 168
507 368
72 195
117 109
347 160
279 121
77 428
133 187
106 68
35 170
207 48
490 366
85 188
100 33
25 151
73 101
4 5
308 386
51 34
162 156
8 414
241 119
12 327
459 17
136 511
47 329
457 349
465 49
510 42
502 179
8 26
13 15
439 12
115 285
504 471
12 28
24 49
318 75
304 232
7 59
72 344
400 130
199 251
16 9
299 426
259 453
487 239
62 24
143 455
5 6
166 235
245 241
176 353
351 267
22 2
371 295
472 8
109 365
403 386
6 118
65 47
132 294
22 74
30 52
149 263
111 224
144 226
1 3
391 19
110 177
93 271
394 183
301 1
193 248
117 489
139 125
41 44
209 369
218 61
493 364
185 488
513 368
17 3
3 25
295 357
2 319
309 323
440 306
351 449
132 103
5 8
153 295
296 169
5 37
317 59
244 129
46 3
333 322
299 297
373 242
302 444
308 496
515 90
127 58
408 501
259 126
24 1
282 33
37 209
140 206
203 61
217 108
479 461
1 32
159 165
260 302
183 79
256 207
6 420
179 269
27 143
77 44
270 80
39 186
64 87
147 10
143 316
75 69
174 67
135 118
423 451
401 333
126 246
182 372
123 36
315 302
142 211
231 349
92 15
141 476
9 204
54 215
95 155
509 150
3 2
464 31
376 506
37 82
72 32
212 152
19 73
113 116
258 3
43 17
12 5
358 94
148 57
288 460
223 484
229 411
116 311
20 54
240 130
170 456
156 303
126 88
164 90
95 185
352 150
424 450
389 215
288 105
233 53
60 98
260 248
5 312
91 24
98 381
142 266
81 14
44 61
90 236
6 478
110 361
257 298
61 404
253 124
237 147
268 126
190 67
42 379
201 272
278 28
18 125
16 157
12 494
341 326
321 200
94 418
376 242
346 244
281 190
11 213
43 466
76 80
214 172
345 366
226 436
286 382
1 45
124 73
297 92
375 432
76 129
252 125
184 191
35 47
142 434
62 67
89 24
205 20
330 283
58 29
275 196
140 189
289 177
144 119
380 216
355 352
312 364
2 38
328 148
265 445
69 97
131 1
78 309
416 396
58 227
388 11
32 176
381 399
201 71
64 34
163 79
133 172
471 61
171 130
363 331
402 164
7 5
48 30
25 138
99 452
23 88
18 27
290 169
211 337
36 21
322 492
398 139
499 437
9 57
197 216
18 3
219 310
62 429
469 481
221 348
201 419
368 284
208 98
161 1
203 477
431 180
63 102
283 421
287 139
160 122
255 27
78 93
70 18
329 422
296 370
512 229
101 407
136 89
191 242
458 270
95 397
217 300
314 259
435 340
198 324
190 461
385 154
87 130
308 49
251 412
329 448
67 339
169 16
54 140
195 413
11 99
228 49
103 56
180 29
430 217
383 140
9 343
322 170
384 55
30 31
225 129
164 514
198 19
335 66
491 201
142 342
117 274
338 246
272 286
208 469
285 307
128 29
446 243
5 10
194 38
447 322
109 65
485 373
336 199
176 356
68 13
33 159
69 13
113 5
13 134
126 475
1 14
21 10
115 32
13 7
22 71
249 374
497 313
280 378
415 59
33 21
320 172
230 112
53 39
449 454
3 9
417 73
63 31
4 20
67 238
90 57
340 71
249 204
495 347
34 25
463 153
53 96
361 500
59 254
6 11
110 93
247 116
29 2
71 95
55 34
306 232
60 359
324 473
467 205
84 6
441 103
261 78
406 358
290 498
271 423
22 292
197 142
360 69
50 32
73 231
184 503
366 468
2 30
273 107
25 94
350 164
184 424
6 23
483 149
375 278
408 156
202 143
427 3
15 79
154 132
11 210
16 19
262 164
107 17
130 305
278 486
148 345
283 36
204 462
10 40
239 211
199 277
193 49
474 116
846 128 718
481 472
52 157
79 206
486 660
48 301
352 394
40 35
455 16
151 112
506 191
549 759
120 28
142 152
140 97
629 152
215 150
385 373
121 182
192 97
76 275
845 391
454 174
609 626
6 9
770 340
118 561
387 127
97 283
112 774
641 610
246 412
100 149
2 5
588 125
361 3
18 129
264 147
91 210
517 501
113 29
473 556
97 4
631 444
571 337
341 3
205 72
438 406
396 645
524 179
211 29
42 15
574 526
172 343
780 71
537 733
481 555
378 202
490 118
21 90
12 148
807 407
583 352
131 586
740 566
407 388
315 103
23 5
82 63
37 370
797 469
510 760
294 564
174 175
17 3
786 295
143 74
316 104
279 196
24 596
15 328
34 93
102 220
525 305
137 284
129 745
25 161
821 441
153 562
390 70
582 332
397 195
808 408
121 237
532 226
144 226
108 327
125 37
38 420
501 280
835 275
244 8
486 533
260 729
147 58
182 201
621 193
254 212
716 275
23 763
25 62
656 785
246 557
98 76
41 600
687 73
723 792
326 599
100 21
305 451
398 404
9 33
25 54
196 257
289 690
165 248
825 88
534 466
789 172
203 470
299 162
649 122
708 239
284 680
587 468
70 360
791 325
118 138
13 19
287 48
54 348
447 432
692 377
194 59
114 50
496 832
831 364
205 256
28 263
721 288
747 249
292 207
535 150
2 319
227 47
429 473
243 212
58 579
88 480
606 487
727 362
743 441
94 486
492 108
652 347
6 3
230 410
67 101
575 838
389 581
222 548
95 65
435 656
35 79
45 75
3 10
119 139
758 217
8 174
819 440
813 525
214 32
277 124
216 386
126 121
402 610
255 307
137 35
484 87
335 159
453 431
53 52
593 175
254 311
823 262
168 493
71 56
197 125
165 706
374 722
14 51
628 203
3 4
139 159
349 458
111 82
3 92
318 502
353 169
14 6
648 520
43 110
119 219
217 155
96 88
592 87
771 540
319 528
344 723
102 624
181 42
18 332
577 352
257 523
736 839
400 99
5 4
472 73
2 11
828 368
715 794
84 106
778 77
197 269
22 14
55 69
180 100
23 49
26 710
129 324
37 18
325 100
665 833
176 106
487 79
46 94
246 13
164 242
197 207
131 633
145 384
216 554
336 543
775 766
182 437
495 425
60 422
168 117
305 256
129 184
386 413
169 449
373 440
177 195
487 677
86 204
538 666
522 182
251 540
777 652
654 550
391 471
164 95
748 715
213 345
634 310
816 249
686 384
53 824
170 330
121 124
337 419
579 657
689 704
163 31
279 436
542 94
21 30
423 281
14 41
87 35
72 199
351 244
154 406
282 113
479 167
91 48
187 147
375 549
474 572
255 504
419 806
465 428
127 258
115 829
87 545
74 737
842 346
697 69
393 158
333 537
68 37
584 11
70 77
116 416
587 598
119 347
753 506
289 256
232 202
115 119
590 668
399 414
639 415
536 216
559 154
196 92
29 6
658 447
146 144
482 346
470 496
187 505
284 364
14 46
163 772
459 193
296 85
544 153
5 8
216 73
779 800
707 490
31 240
313 312
788 718
630 329
433 174
94 817
605 280
179 8
154 308
550 258
356 196
305 317
636 242
712 210
22 44
133 25
129 464
4 326
321 12
1 253
114 793
659 362
830 470
345 452
123 664
683 344
196 762
750 67
416 820
212 565
218 182
411 198
99 81
766 810
153 234
629 703
174 526
531 345
382 485
165 653
338 247
566 513
185 156
266 33
381 469
349 214
61 30
79 239
691 387
18 7
714 496
2 21
241 50
462 689
25 13
249 84
507 56
231 274
134 170
173 701
367 154
63 619
782 251
4 52
32 3
391 352
640 451
78 567
89 62
151 320
483 401
388 97
314 297
650 609
111 625
444 40
193 75
53 172
612 103
251 139
143 608
589 208
29 373
478 474
1 2
128 121
100 236
188 685
217 222
11 12
185 229
525 655
801 506
26 261
846 786
98 514
33 822
546 65
85 66
18 78
724 518
76 769
27 48
265 768
260 827
58 377
534 826
234 294
60 102
496 713
408 181
104 41
513 709
401 732
742 696
38 39
575 372
32 153
13 158
161 665
247 81
597 32
5 462
276 718
360 401
532 728
396 186
616 564
24 23
38 651
396 682
318 116
326 672
357 267
3 1
295 28
611 357
346 705
426 49
101 230
346 205
52 58
613 440
430 68
203 238
161 617
796 558
71 76
28 191
405 595
669 195
13 4
213 262
642 371
441 424
212 117
178 429
146 166
265 48
450 369
50 173
580 696
286 405
834 581
815 772
302 627
233 101
127 93
27 83
26 4
145 389
465 754
20 2
515 422
241 570
190 163
228 107
231 278
466 843
24 74
242 500
520 145
61 818
91 374
674 474
33 67
69 221
465 497
804 493
699 276
250 110
409 811
491 161
301 334
9 36
744 153
492 602
218 303
399 91
13 678
840 238
27 123
16 8
368 268
586 746
643 546
427 287
603 310
365 85
49 171
210 591
703 730
181 761
149 271
113 270
201 362
293 132
509 228
304 538
74 560
573 158
286 28
814 413
72 717
372 226
105 109
802 308
235 64
530 497
148 213
154 6
122 105
306 39
25 145
494 282
80 259
381 379
263 268
116 88
489 40
382 255
594 173
34 457
35 13
635 626
55 13
576 514
812 604
468 498
693 363
198 77
51 223
316 503
9 50
85 130
116 177
163 773
40 72
681 254
312 69
505 784
784 841
446 211
776 444
698 190
673 381
155 93
684 72
47 39
27 9
352 174
541 315
55 70
156 120
187 209
448 185
112 108
711 311
136 92
836 84
129 392
366 190
37 510
414 558
432 620
607 567
19 28
424 325
61 291
190 359
132 552
332 336
80 51
142 122
57 45
288 175
273 226
65 376
603 779
757 29
735 224
675 509
645 805
57 63
466 286
272 736
76 578
337 339
45 38
375 333
261 323
115 100
844 200
45 439
117 764
343 765
33 59
180 547
217 529
53 695
175 726
274 798
13 65
580 564
363 77
76 766
398 281
742 790
741 344
132 260
622 608
188 28
104 165
162 115
15 10
177 245
83 310
252 102
646 189
90 344
662 516
39 409
160 114
434 319
258 519
38 6
383 19
32 340
488 263
513 182
46 781
297 298
114 623
499 358
186 428
418 134
281 250
445 4
105 86
267 122
350 230
507 601
322 342
186 553
468 194
203 132
688 118
590 28
4 107
503 767
809 244
178 12
369 13
435 638
132 77
239 432
64 150
56 2
99 609
121 116
694 483
64 42
45 224
518 738
731 727
274 700
795 442
18 86
395 386
618 39
354 253
460 179
331 101
397 415
632 303
82 402
200 461
379 297
615 318
715 282
434 739
141 44
787 68
93 521
255 174
585 367
103 67
84 45
799 448
421 234
456 7
249 290
211 720
395 644
516 386
444 527
647 578
569 382
322 663
661 115
78 208
435 130
66 20
380 133
103 355
337 311
702 331
637 235
333 180
49 169
68 518
539 26
7 6
783 23
667 24
134 144
670 656
214 297
403 377
229 276
135 134
215 425
88 9
285 174
30 34
255 614
151 475
506 719
6 756
381 749
86 322
43 13
511 390
373 803
9 73
442 56
43 676
508 499
755 395
563 267
47 183
124 202
689 734
477 206
752 734
172 189
370 476
304 132
399 431
616 725
152 186
371 91
192 302
193 329
74 231
162 167
90 225
751 515
443 229
120 463
367 417
309 124
81 27
568 91
467 230
108 98
9 31
118 108
131 81
837 351
320 604
205 272
150 474
358 105
551 183
194 679
24 671
30 134
512 402
300 43
59 117
200 26
60 55
99 280
939 188 411
29 31
173 211
65 102
56 63
299 10
890 865
184 113
235 25
756 329
578 715
289 204
446 35
344 931
320 266
371 733
28 873
787 726
217 399
304 925
136 18
150 117
659 185
670 113
29 790
99 74
358 579
710 677
459 842
48 932
442 583
108 388
4 3
372 843
184 539
516 408
120 698
268 17
533 31
438 497
539 683
92 207
318 633
502 129
376 789
122 35
385 3
579 590
456 184
688 807
222 69
416 439
228 301
360 39
16 663
861 189
150 172
30 412
142 38
578 432
748 794
18 6
602 321
206 349
71 585
219 215
257 49
112 250
129 486
594 408
111 293
384 674
54 465
470 876
657 615
75 378
369 366
75 123
801 177
7 6
384 586
231 212
773 219
914 347
76 145
682 786
470 643
471 798
16 44
396 656
51 119
15 540
407 402
42 35
679 25
110 89
123 303
538 344
141 824
129 233
168 420
52 811
1 9
212 201
119 193
250 913
345 249
20 168
734 420
515 35
702 810
216 65
563 591
92 104
600 81
900 917
484 654
574 371
440 90
374 221
71 849
770 681
669 229
308 390
701 63
11 772
264 209
833 846
215 291
329 550
662 266
154 148
54 141
900 325
32 18
188 313
1 2
514 150
584 194
28 2
685 318
128 552
522 197
380 424
178 645
132 114
271 222
491 34
450 195
908 898
608 163
274 40
32 51
352 176
416 904
7 262
110 331
297 67
588 79
71 559
548 174
43 454
567 407
784 136
90 158
259 778
2 77
425 865
900 933
411 891
29 304
47 382
28 174
115 21
372 208
665 906
894 789
921 637
130 249
82 8
76 90
387 136
149 244
195 169
907 685
93 541
660 451
132 151
211 337
761 151
20 36
130 116
238 185
146 461
488 480
137 923
117 441
272 82
200 845
723 852
99 124
25 273
223 322
501 711
112 177
892 295
277 129
1 4
342 680
549 545
503 316
61 779
27 23
14 21
43 792
213 722
171 221
254 246
400 404
478 624
547 337
26 97
498 521
22 37
649 470
183 678
130 743
502 650
316 589
149 267
306 328
227 71
572 536
557 167
504 740
468 767
421 826
10 12
690 804
237 160
91 690
173 117
46 45
436 135
636 182
9 160
338 480
105 435
830 469
752 692
460 13
580 38
844 200
305 482
371 328
44 766
834 551
918 74
70 66
25 16
276 79
43 88
524 555
653 207
52 87
149 832
7 126
686 587
470 641
460 526
399 495
383 349
18 164
371 471
816 24
872 203
529 781
230 802
259 525
376 189
25 477
915 260
373 142
430 77
206 200
11 41
543 232
283 499
260 694
163 492
631 270
564 259
644 211
508 535
237 339
173 469
332 54
570 65
368 41
416 169
776 700
496 92
284 88
648 411
453 84
256 899
280 837
300 2
88 442
898 373
16 38
328 519
185 49
601 572
155 323
562 114
577 94
592 867
527 414
464 158
230 795
35 101
762 641
101 725
467 125
35 630
162 121
349 903
69 33
296 140
909 874
400 200
280 261
838 901
877 303
610 934
154 563
322 621
455 255
502 700
364 328
407 749
754 285
330 506
547 576
347 186
487 419
348 186
41 45
466 90
451 14
315 162
732 446
444 156
259 517
180 167
860 841
619 466
196 39
61 76
66 750
67 10
748 823
675 74
774 62
910 559
308 304
268 553
32 56
91 137
213 132
3 6
59 120
218 4
68 2
170 418
457 92
320 581
239 176
87 622
116 705
858 685
36 312
485 44
352 677
65 204
8 2
140 862
341 228
167 40
885 788
796 414
389 911
831 863
714 193
168 209
3 20
36 605
362 443
542 171
187 864
69 366
620 336
741 382
117 7
884 615
27 107
105 783
880 512
259 613
706 692
609 174
232 615
839 338
72 512
291 509
55 64
763 337
156 623
475 68
360 768
922 208
116 363
793 350
216 692
48 6
648 713
194 6
233 269
56 859
150 707
217 189
445 247
13 30
86 661
836 621
415 575
484 13
354 243
800 426
58 42
91 635
938 823
22 819
113 513
189 18
87 357
103 197
10 26
535 639
348 841
124 205
489 799
252 248
144 142
108 188
26 616
83 71
226 230
419 376
695 785
393 337
612 232
74 14
13 241
747 2
693 157
94 57
161 735
87 871
544 543
373 528
912 223
342 222
413 22
361 66
53 62
39 745
582 371
98 183
43 93
290 569
46 275
282 182
338 11
694 742
325 5
3 15
10 16
128 757
58 170
833 637
84 398
553 759
432 154
634 29
110 546
638 150
878 850
902 850
684 712
267 825
200 288
149 122
39 17
672 100
606 14
380 2
356 214
637 218
851 507
198 220
919 313
86 106
434 342
136 386
870 553
17 60
264 428
428 829
45 55
65 611
358 80
225 246
9 192
626 530
216 587
160 255
56 307
929 449
131 504
223 51
556 185
689 803
327 102
25 314
224 108
827 113
436 854
788 694
69 155
765 752
551 881
633 721
145 632
118 494
179 24
80 68
242 134
215 298
822 336
652 490
24 190
205 265
5 2
490 471
314 681
42 279
171 29
129 139
739 107
563 821
233 598
295 112
114 198
684 554
71 429
744 516
489 717
316 236
9 13
838 425
256 113
17 78
311 292
199 46
573 522
161 103
505 504
702 151
394 255
592 220
835 249
26 405
423 362
812 615
91 936
60 121
290 234
318 791
228 66
129 215
604 723
162 355
169 58
281 780
415 334
238 248
321 426
335 192
495 687
500 333
283 287
26 879
513 716
513 895
753 111
395 59
888 538
565 937
307 709
603 182
158 916
103 36
465 728
149 667
785 939
294 417
153 116
79 266
764 241
6 730
887 675
406 351
23 7
510 343
350 86
704 625
208 69
259 52
897 26
159 150
530 332
38 84
221 359
35 18
63 75
39 729
138 69
150 599
537 718
431 682
187 511
680 731
33 79
173 377
21 285
756 760
178 401
59 156
818 640
23 49
96 98
831 407
850 605
19 18
95 2
620 924
855 798
519 646
536 114
381 88
286 35
58 147
59 8
257 847
33 26
74 558
607 116
869 95
263 92
47 746
116 44
367 150
501 80
353 287
472 258
374 691
191 26
287 389
610 490
651 124
484 664
202 168
54 108
118 140
152 317
321 708
462 640
518 92
433 137
80 365
306 396
85 38
225 219
11 329
520 101
86 240
343 247
84 726
326 226
648 719
425 140
369 809
292 319
481 117
478 259
151 452
29 411
73 109
258 189
560 353
676 513
896 825
123 493
72 70
459 30
262 427
476 100
332 391
928 267
673 402
370 157
442 926
90 210
81 46
11 53
294 275
391 507
758 295
832 875
90 375
302 281
43 25
322 699
24 4
629 25
537 387
540 554
157 39
408 532
195 438
79 414
9 11
565 225
527 866
135 4
69 421
229 38
88 143
448 245
319 647
927 105
272 437
15 96
558 597
538 627
8 17
585 688
18 40
737 323
5 6
596 107
100 70
102 392
254 769
480 489
329 523
111 81
565 625
451 483
29 21
67 738
856 203
166 158
30 181
34 658
247 53
379 288
561 409
59 86
281 57
15 73
13 409
148 449
113 67
92 727
567 568
470 74
511 551
98 462
346 304
120 397
438 666
309 233
2 410
771 193
305 362
89 68
66 5
46 253
554 777
853 812
379 566
57 857
5 10
88 703
214 41
479 314
748 453
179 318
806 445
6 805
237 697
68 422
259 292
321 290
54 27
192 236
324 221
328 468
645 813
617 243
222 330
628 351
338 935
195 305
340 226
815 453
498 123
146 144
529 77
473 363
328 905
131 130
152 66
695 213
441 782
200 16
133 47
573 920
92 17
29 148
814 782
642 159
868 186
1 52
94 127
889 554
408 151
655 121
118 30
333 99
71 201
384 121
154 186
232 50
671 380
334 74
124 828
34 23
155 306
243 242
318 474
8 128
665 218
668 42
184 351
775 4
255 344
363 755
152 458
207 245
524 273
219 618
447 289
8 65
431 255
70 112
57 43
23 260
383 593
531 205
203 820
625 797
278 233
283 120
114 46
10 125
327 751
460 848
42 163
18 534
402 83
736 524
536 930
100 178
840 153
204 336
203 45
129 68
223 817
595 235
91 50
808 435
641 882
219 545
17 61
499 508
165 3
883 381
604 203
286 310
724 575
71 60
63 234
148 175
182 180
105 20
202 251
6 22
292 571
14 7
226 206
230 720
261 38
117 134
146 176
394 403
696 299
47 44
461 893
44 50
689 133
886 2
765 874
279 614
270 89
187 86
463 260
