20
135 7 4
45 1
1 123
1 72
79 1
1 95
108 1
1 131
1 28
1 32
64 1
77 1
1 35
22 1
1 29
1 126
1 117
18 1
1 134
1 84
44 1
1 20
1 76
21 1
19 1
1 37
5 4
1 124
83 1
57 1
1 69
17 1
50 1
52 1
1 65
98 1
33 1
1 115
101 1
56 1
1 27
1 103
4 3
119 1
1 85
1 51
1 43
1 24
1 114
10 1
12 1
70 1
60 1
90 1
1 130
1 97
31 1
1 93
67 1
1 7
1 80
34 1
1 8
1 11
3 2
127 1
6 1
1 121
102 1
1 100
1 58
1 75
96 1
61 1
1 110
42 1
1 30
5 6
94 1
1 118
1 109
122 1
46 1
38 1
13 1
49 1
55 1
62 1
1 111
1 81
1 135
68 1
26 1
1 63
16 1
1 41
82 1
47 1
14 1
40 1
112 1
73 1
15 1
1 74
129 1
23 1
92 1
99 1
1 89
1 39
1 88
9 1
91 1
120 1
1 113
104 1
36 1
1 54
106 1
1 78
86 1
1 66
1 132
53 1
1 105
2 1
1 116
1 133
128 1
59 1
48 1
71 1
125 1
87 1
1 107
25 1
118 76 4
36 1
1 39
1 20
1 19
1 69
1 72
1 43
54 1
3 4
44 1
12 1
1 91
6 5
1 16
1 110
1 34
1 97
1 89
15 1
1 114
10 1
1 23
118 1
84 1
87 1
68 1
1 75
1 47
70 1
6 1
113 1
1 111
1 33
1 8
3 2
35 1
1 108
61 1
1 26
13 1
86 1
1 98
46 1
4 5
1 65
42 1
1 67
2 1
1 81
112 1
1 48
55 1
90 1
22 1
1 104
71 1
85 1
1 14
18 1
1 53
1 106
1 7
24 1
79 1
1 103
1 117
1 115
1 41
31 1
1 58
29 1
99 1
1 94
1 45
76 1
25 1
1 92
107 1
9 1
1 59
1 74
1 100
102 1
105 1
1 27
96 1
37 1
1 66
38 1
1 57
49 1
80 1
88 1
52 1
116 1
30 1
77 1
1 50
51 1
1 62
40 1
1 82
1 83
1 32
1 63
1 95
28 1
21 1
56 1
101 1
1 17
1 109
78 1
1 73
60 1
93 1
1 11
64 1
83 14 4
1 36
41 1
1 37
1 65
77 1
1 79
1 70
5 6
30 1
78 1
7 1
1 12
28 1
58 1
1 48
1 59
29 1
1 73
74 1
1 24
1 26
1 61
1 54
40 1
1 63
3 4
15 1
1 83
1 32
1 33
27 1
19 1
46 1
82 1
1 68
1 67
23 1
1 17
1 35
1 21
1 66
8 1
57 1
1 64
1 13
75 1
4 5
1 20
1 49
2 1
14 1
1 72
6 1
1 44
42 1
11 1
1 51
1 10
38 1
1 16
31 1
1 50
1 43
1 69
25 1
2 3
1 56
1 39
53 1
47 1
1 9
1 52
1 22
60 1
1 34
18 1
1 55
1 76
1 71
45 1
1 62
80 1
1 81
99 89 4
26 1
1 60
1 31
5 6
99 1
1 77
1 41
79 1
1 86
40 1
57 1
82 1
14 1
1 25
1 2
1 15
1 81
1 34
64 1
1 67
8 1
55 1
54 1
1 85
1 58
96 1
1 23
1 12
80 1
52 1
1 11
1 32
1 63
1 7
1 48
46 1
1 38
1 18
1 35
65 1
1 93
56 1
1 10
1 53
17 1
74 1
33 1
1 92
50 1
1 71
62 1
3 2
43 1
1 36
1 78
1 68
98 1
37 1
29 1
45 1
1 21
1 73
1 70
42 1
91 1
47 1
95 1
3 4
1 88
1 90
22 1
89 1
1 51
97 1
1 13
72 1
1 76
24 1
1 6
94 1
5 4
1 19
1 44
20 1
61 1
1 9
1 27
84 1
1 30
1 87
1 75
1 83
1 69
1 66
28 1
1 59
1 39
16 1
1 49
133 120 3
3 2
105 1
41 1
116 1
89 1
69 1
1 2
1 53
1 90
1 59
9 1
1 81
104 1
62 1
73 1
1 54
1 40
8 1
7 1
27 1
1 29
1 15
1 120
31 1
1 44
1 43
6 1
86 1
5 1
23 1
1 88
122 1
52 1
106 1
1 87
39 1
1 26
97 1
1 129
1 14
102 1
47 1
124 1
99 1
1 45
93 1
114 1
1 58
38 1
1 132
46 1
1 107
42 1
85 1
1 111
1 22
24 1
1 50
65 1
1 36
32 1
1 34
1 33
1 4
98 1
121 1
82 1
1 101
1 18
130 1
13 1
1 74
96 1
1 19
1 84
78 1
91 1
1 123
1 127
92 1
115 1
128 1
1 108
1 17
100 1
12 1
1 83
1 37
56 1
1 48
68 1
1 35
60 1
28 1
1 66
1 25
1 95
1 70
20 1
16 1
57 1
30 1
21 1
1 133
71 1
51 1
10 1
77 1
1 79
1 63
3 4
1 72
109 1
75 1
1 67
1 113
94 1
1 103
1 119
1 112
1 49
1 55
1 76
1 110
1 11
117 1
61 1
126 1
118 1
1 80
64 1
1 131
1 125
94 59 3
1 10
1 58
20 1
50 1
37 1
1 32
64 1
1 71
1 62
1 6
45 1
1 30
94 1
1 75
1 39
1 67
88 1
1 65
78 1
1 36
1 21
70 1
1 26
1 86
1 69
1 51
34 1
47 1
79 1
1 54
1 9
1 56
33 1
1 24
1 8
1 2
12 1
87 1
1 93
4 3
1 81
1 14
1 76
1 15
23 1
1 61
1 66
1 90
59 1
1 22
29 1
2 3
1 43
1 84
72 1
1 35
92 1
1 74
85 1
41 1
1 48
16 1
11 1
1 46
1 17
1 80
1 52
1 44
1 38
1 53
1 25
1 89
19 1
1 77
91 1
1 40
63 1
1 82
4 1
5 1
1 13
1 68
28 1
60 1
1 27
55 1
1 7
73 1
1 83
57 1
1 49
31 1
1 42
18 1
131 13 4
1 83
1 34
116 1
62 1
1 45
115 1
1 117
20 1
1 108
1 92
1 56
1 69
1 71
41 1
5 4
1 46
1 113
1 57
98 1
1 25
73 1
1 97
85 1
26 1
1 32
65 1
1 21
1 86
122 1
1 130
60 1
121 1
1 36
58 1
1 48
102 1
1 43
1 61
1 39
1 90
1 63
29 1
1 125
126 1
2 1
95 1
87 1
1 27
67 1
1 14
1 99
1 84
1 12
79 1
81 1
1 17
1 101
1 54
88 1
47 1
124 1
1 91
1 74
1 112
42 1
123 1
1 50
1 127
110 1
72 1
1 28
1 82
78 1
6 7
8 1
68 1
1 70
1 111
1 119
1 114
10 1
129 1
2 3
1 77
16 1
44 1
1 64
1 33
7 1
1 35
75 1
100 1
1 76
93 1
15 1
19 1
120 1
1 109
1 107
1 96
13 1
1 18
1 103
11 1
1 9
1 131
52 1
1 118
1 89
128 1
1 55
80 1
1 31
1 38
1 53
1 49
37 1
106 1
3 4
24 1
105 1
59 1
1 66
6 5
1 22
104 1
1 51
94 1
1 23
1 40
1 30
91 66 3
1 82
1 79
73 1
29 1
57 1
86 1
1 32
1 19
1 8
1 61
38 1
1 30
2 1
4 5
60 1
62 1
1 44
50 1
71 1
1 53
1 37
17 1
28 1
77 1
18 1
74 1
70 1
1 24
48 1
1 25
1 5
66 1
41 1
78 1
58 1
10 1
21 1
51 1
1 20
1 27
26 1
42 1
1 59
22 1
1 69
46 1
3 2
63 1
13 1
23 1
90 1
31 1
7 1
34 1
1 16
72 1
4 3
65 1
81 1
1 36
1 6
1 15
1 14
52 1
75 1
89 1
1 80
39 1
1 35
1 88
1 84
1 56
67 1
91 1
83 1
1 85
76 1
1 68
54 1
55 1
1 49
1 87
45 1
47 1
64 1
33 1
1 9
1 40
11 1
1 12
1 43
137 110 3
64 1
1 29
1 42
1 107
1 58
1 108
113 1
1 128
70 1
1 49
1 76
119 1
1 39
1 90
1 135
94 1
98 1
1 43
1 102
1 28
84 1
1 136
1 137
44 1
73 1
1 34
1 133
54 1
57 1
1 51
106 1
1 89
1 80
1 61
35 1
2 1
1 41
11 1
4 3
37 1
23 1
99 1
26 1
110 1
1 62
103 1
66 1
75 1
68 1
12 1
1 55
1 15
1 115
47 1
126 1
52 1
46 1
95 1
1 5
56 1
1 86
1 48
129 1
1 19
36 1
24 1
1 117
10 1
1 17
63 1
85 1
50 1
120 1
22 1
1 125
1 130
1 20
1 13
38 1
1 96
21 1
1 32
87 1
1 118
1 77
1 60
27 1
1 100
132 1
1 69
1 72
31 1
1 109
71 1
3 2
16 1
6 1
1 131
116 1
1 114
1 14
1 33
7 1
111 1
8 1
1 53
1 30
123 1
1 121
1 59
25 1
81 1
92 1
127 1
1 124
67 1
1 101
45 1
1 65
105 1
104 1
40 1
1 78
82 1
93 1
79 1
74 1
1 18
1 88
1 9
4 5
1 122
1 97
1 83
134 1
112 1
1 91
109 2 4
1 33
76 1
87 1
1 84
18 1
43 1
104 1
9 1
93 1
5 1
89 1
1 51
77 1
1 27
1 75
1 61
1 78
1 34
68 1
1 50
88 1
72 1
15 1
24 1
45 1
101 1
1 44
1 30
54 1
1 62
28 1
1 100
1 36
1 53
59 1
105 1
57 1
49 1
1 95
48 1
64 1
1 74
1 82
1 96
3 2
12 1
1 4
81 1
1 19
1 25
1 55
35 1
1 6
67 1
1 10
40 1
109 1
14 1
1 56
1 58
107 1
1 21
1 16
52 1
4 3
1 98
106 1
23 1
1 7
42 1
1 63
37 1
1 85
46 1
1 13
38 1
1 90
1 47
80 1
1 66
1 92
103 1
1 86
1 17
69 1
1 83
1 65
79 1
1 32
1 2
29 1
26 1
20 1
8 1
1 41
60 1
1 97
1 108
1 102
71 1
1 39
1 11
70 1
1 31
94 1
1 73
22 1
1 91
1 99
135 29 4
1 25
106 1
12 1
1 86
128 1
28 1
1 35
79 1
64 1
94 1
5 6
87 1
1 74
72 1
1 23
73 1
24 1
1 26
1 83
1 68
1 22
42 1
117 1
1 41
18 1
1 126
1 67
112 1
15 1
107 1
92 1
121 1
1 93
8 1
53 1
119 1
33 1
1 57
1 13
96 1
1 76
99 1
1 116
1 88
124 1
40 1
1 84
100 1
3 4
36 1
114 1
30 1
95 1
70 1
61 1
11 1
9 1
1 78
1 135
1 120
110 1
1 85
115 1
10 1
1 62
63 1
31 1
59 1
20 1
1 75
2 1
1 129
1 19
131 1
66 1
49 1
1 46
118 1
108 1
1 54
1 52
56 1
1 51
1 122
7 1
1 47
1 39
1 81
89 1
14 1
102 1
55 1
101 1
2 3
65 1
58 1
1 130
16 1
1 38
1 6
29 1
1 43
1 21
50 1
1 113
104 1
5 4
1 109
1 44
98 1
1 48
134 1
123 1
82 1
1 90
127 1
1 97
77 1
1 132
71 1
27 1
1 111
1 133
17 1
1 34
1 60
1 45
32 1
103 1
69 1
1 80
1 105
91 1
1 37
1 125
104 32 4
88 1
55 1
1 39
1 29
35 1
80 1
98 1
59 1
79 1
1 21
1 22
36 1
1 95
51 1
77 1
62 1
1 7
1 103
1 101
1 75
61 1
1 24
40 1
1 82
1 37
3 4
42 1
1 26
31 1
30 1
5 6
41 1
1 85
1 18
12 1
28 1
10 1
2 3
93 1
1 91
1 32
9 1
1 65
99 1
23 1
1 78
60 1
73 1
1 83
94 1
1 97
4 5
44 1
1 76
54 1
1 92
1 86
8 1
1 47
1 17
1 11
72 1
1 89
1 58
1 33
14 1
56 1
16 1
53 1
25 1
69 1
13 1
66 1
67 1
100 1
104 1
1 64
46 1
96 1
43 1
1 87
1 102
1 52
1 50
68 1
1 15
1 38
2 1
45 1
1 70
1 20
19 1
1 34
1 71
74 1
6 7
81 1
1 27
1 49
48 1
90 1
1 63
1 57
1 84
101 36 2
4 1
37 1
2 1
1 18
1 59
1 65
84 1
1 49
9 1
1 93
1 72
1 77
1 90
86 1
1 44
1 47
1 91
55 1
22 1
42 1
61 1
1 95
20 1
73 1
1 11
1 57
1 97
12 1
83 1
1 99
1 89
15 1
71 1
1 19
1 79
32 1
7 1
1 98
50 1
1 85
1 75
1 56
1 30
17 1
92 1
1 34
60 1
38 1
1 26
1 25
1 39
1 48
1 63
1 36
1 82
1 94
1 24
46 1
70 1
88 1
64 1
1 68
1 51
1 101
58 1
21 1
1 76
78 1
1 96
74 1
1 28
10 1
1 66
13 1
1 81
1 80
5 1
1 87
31 1
1 52
62 1
14 1
6 1
3 2
1 69
8 1
45 1
1 29
1 3
1 16
41 1
67 1
100 1
1 43
54 1
53 1
1 23
1 27
1 40
1 33
35 1
99 15 4
21 1
62 1
1 61
36 1
2 3
76 1
13 1
1 49
24 1
5 4
25 1
39 1
98 1
1 44
46 1
1 57
28 1
63 1
67 1
1 73
92 1
97 1
1 54
71 1
19 1
70 1
93 1
1 43
5 6
1 68
64 1
1 58
1 85
1 37
3 4
27 1
17 1
99 1
1 11
1 96
20 1
1 30
82 1
1 69
1 79
40 1
94 1
1 77
51 1
1 80
95 1
90 1
1 91
9 1
2 1
55 1
66 1
52 1
88 1
1 72
84 1
60 1
89 1
1 65
1 22
1 26
18 1
33 1
1 12
1 31
41 1
1 7
1 32
81 1
83 1
34 1
6 1
50 1
14 1
16 1
1 35
1 78
1 47
1 10
29 1
1 75
1 86
59 1
74 1
38 1
1 8
1 53
48 1
56 1
42 1
45 1
1 15
1 23
87 1
133 73 3
1 86
1 127
33 1
99 1
28 1
42 1
1 8
98 1
68 1
109 1
1 124
1 93
1 16
129 1
63 1
91 1
57 1
52 1
70 1
1 81
43 1
96 1
9 1
1 88
120 1
1 5
118 1
1 102
1 78
1 20
1 121
24 1
84 1
1 101
132 1
32 1
110 1
1 64
31 1
54 1
1 76
1 14
1 106
1 71
1 17
1 48
1 53
1 44
1 22
119 1
80 1
49 1
62 1
1 115
1 12
1 123
1 114
116 1
128 1
1 27
89 1
1 2
111 1
117 1
1 103
1 34
55 1
82 1
92 1
112 1
1 47
66 1
1 26
1 75
90 1
1 77
56 1
6 1
59 1
1 87
51 1
83 1
60 1
4 3
104 1
1 125
36 1
69 1
1 130
1 113
1 10
131 1
1 19
29 1
23 1
7 1
1 108
100 1
41 1
11 1
1 72
1 15
1 13
107 1
61 1
1 97
1 4
95 1
40 1
74 1
38 1
1 25
65 1
1 30
35 1
45 1
1 18
1 50
37 1
1 94
1 58
1 67
126 1
3 2
105 1
79 1
73 1
46 1
133 1
122 1
21 1
1 39
85 1
127 4 8
1 103
127 1
27 1
26 1
1 52
1 55
1 30
33 1
18 1
6 5
1 20
92 1
1 104
1 82
1 126
1 123
88 1
1 25
69 1
1 11
63 1
1 47
1 100
2 3
1 72
12 1
75 1
51 1
1 119
28 1
16 1
1 37
1 68
4 3
1 120
122 1
32 1
114 1
102 1
1 87
1 44
7 1
1 56
1 91
115 1
118 1
83 1
1 79
1 76
9 1
59 1
49 1
106 1
15 1
80 1
34 1
1 97
1 125
1 54
13 1
1 70
1 81
17 1
21 1
29 1
1 121
1 90
1 95
43 1
7 6
112 1
78 1
110 1
1 109
85 1
1 64
23 1
1 24
10 1
67 1
1 35
113 1
1 73
1 14
46 1
1 50
8 1
117 1
1 98
1 48
1 40
53 1
1 93
1 94
4 5
1 111
1 36
31 1
1 101
1 74
39 1
2 1
84 1
89 1
1 65
57 1
1 42
1 45
1 96
1 105
1 124
38 1
1 107
22 1
99 1
41 1
71 1
1 108
116 1
1 86
1 77
1 66
61 1
1 58
60 1
62 1
19 1
120 100 2
1 93
37 1
1 40
7 1
105 1
101 1
26 1
87 1
1 11
38 1
1 73
1 88
58 1
71 1
113 1
107 1
1 21
1 17
1 48
51 1
1 54
1 29
6 1
1 62
1 100
60 1
1 66
1 13
96 1
1 70
1 69
1 72
47 1
79 1
1 57
1 30
31 1
1 61
2 3
111 1
1 50
1 43
1 77
1 46
1 2
1 95
1 65
94 1
56 1
1 16
1 97
1 106
82 1
99 1
118 1
109 1
75 1
1 34
1 32
1 5
1 64
53 1
108 1
1 52
1 19
1 27
1 85
115 1
4 1
1 20
1 41
35 1
1 36
1 74
104 1
1 28
9 1
15 1
1 25
44 1
1 92
1 83
1 8
1 45
33 1
1 18
1 49
1 110
1 117
1 23
14 1
12 1
119 1
98 1
1 91
114 1
68 1
81 1
80 1
1 67
59 1
39 1
22 1
84 1
1 63
55 1
1 10
1 116
1 103
76 1
42 1
1 90
89 1
1 24
3 1
1 78
86 1
112 1
1 120
102 1
134 42 3
1 84
120 1
105 1
1 50
123 1
1 59
1 21
1 41
1 55
1 28
4 5
1 15
1 71
1 66
1 54
1 132
39 1
1 82
86 1
1 56
1 125
7 1
45 1
97 1
1 46
75 1
1 36
94 1
122 1
109 1
1 16
17 1
35 1
1 118
1 133
30 1
1 112
95 1
1 81
1 34
40 1
80 1
42 1
73 1
1 108
1 130
76 1
1 115
99 1
8 1
1 110
1 2
23 1
1 74
1 83
1 49
1 117
48 1
1 129
1 9
101 1
1 6
53 1
1 128
77 1
134 1
1 72
1 65
103 1
38 1
102 1
1 104
51 1
89 1
121 1
1 27
4 3
1 93
1 25
1 12
1 60
1 64
1 62
92 1
1 14
107 1
1 116
1 100
126 1
1 37
1 32
1 47
1 18
98 1
78 1
1 127
1 31
87 1
1 111
131 1
63 1
22 1
1 44
1 90
1 88
2 3
1 106
1 24
61 1
1 13
33 1
1 113
70 1
5 1
1 124
1 19
26 1
114 1
1 67
1 68
1 20
1 79
91 1
96 1
58 1
11 1
1 85
1 10
1 52
1 57
1 69
43 1
1 119
29 1
81 3 6
23 1
1 7
1 64
1 15
4 5
1 37
54 1
1 25
1 35
1 52
1 6
1 71
68 1
1 8
55 1
1 13
62 1
78 1
1 67
44 1
73 1
26 1
1 57
24 1
1 75
1 77
51 1
10 1
1 2
79 1
43 1
1 40
42 1
1 61
1 66
58 1
53 1
27 1
18 1
76 1
3 4
1 19
47 1
1 48
20 1
1 80
1 14
50 1
21 1
1 74
1 65
72 1
1 49
3 2
1 17
1 70
16 1
1 36
1 56
11 1
1 45
59 1
1 33
1 46
12 1
63 1
69 1
1 41
1 30
1 5
29 1
1 31
1 81
1 32
60 1
22 1
28 1
38 1
1 39
1 9
34 1
131 34 2
1 37
96 1
69 1
1 7
9 1
28 1
47 1
1 127
42 1
71 1
22 1
1 13
1 46
1 44
1 61
1 80
103 1
40 1
1 26
1 21
36 1
79 1
39 1
1 20
1 29
84 1
89 1
1 54
70 1
112 1
108 1
1 90
113 1
1 25
1 2
115 1
1 78
1 100
1 72
1 27
1 3
101 1
34 1
102 1
1 43
109 1
1 18
120 1
131 1
118 1
1 10
87 1
63 1
30 1
57 1
110 1
104 1
119 1
1 16
129 1
1 130
1 85
50 1
1 114
1 64
81 1
77 1
125 1
1 12
1 122
124 1
24 1
126 1
1 82
92 1
8 1
1 6
56 1
65 1
51 1
1 98
1 67
1 75
1 59
94 1
15 1
111 1
1 14
1 106
1 123
76 1
1 62
88 1
1 33
66 1
1 55
1 74
1 32
48 1
105 1
1 99
1 35
1 107
52 1
1 31
1 60
1 95
1 49
1 73
1 45
17 1
11 1
38 1
1 121
1 41
5 1
97 1
68 1
1 53
1 117
1 128
2 3
58 1
1 23
1 93
86 1
1 4
1 116
19 1
83 1
91 1
