25
520 1 2
518 126
63 377
464 452
62 63
59 192
275 166
44 14
394 468
222 409
52 46
212 162
133 12
144 358
101 104
228 41
491 315
80 103
148 202
33 20
42 125
339 111
40 276
328 137
11 6
58 227
100 325
68 215
140 238
141 31
473 117
314 48
413 387
92 69
184 259
307 260
36 18
135 4
438 180
26 121
251 365
45 50
118 378
439 133
422 404
113 483
1 17
77 64
96 207
120 210
54 73
242 320
96 261
249 427
402 436
181 203
152 127
350 3
7 3
461 433
40 57
263 12
105 347
52 442
2 146
158 98
33 150
140 431
181 226
34 13
211 179
395 58
46 138
168 63
27 155
21 432
215 441
54 26
45 139
119 63
377 412
190 308
291 337
282 240
365 502
273 140
225 252
18 25
476 293
220 410
163 390
162 417
71 131
459 377
367 205
65 51
57 127
108 122
242 379
382 11
101 249
177 433
18 41
90 72
254 153
113 172
357 97
97 174
380 392
206 351
299 324
19 13
173 305
33 51
366 455
245 215
49 289
123 26
5 6
72 315
66 167
447 343
46 407
349 269
93 380
267 249
402 298
3 20
398 218
277 54
127 353
254 429
116 435
53 419
162 403
118 235
102 221
314 486
101 201
343 65
52 195
222 108
51 95
26 15
108 142
217 327
454 199
20 46
366 465
13 3
352 50
144 180
42 37
73 164
1 2
21 231
344 144
2 8
401 142
13 21
5 1
234 499
485 168
111 8
97 334
8 29
322 247
321 15
43 85
118 22
131 163
505 404
12 47
106 107
339 469
224 250
67 268
503 468
388 229
145 284
55 93
66 182
471 200
26 84
406 272
85 437
478 365
266 46
123 375
62 13
1 225
344 364
98 18
174 295
55 30
4 2
12 24
16 12
148 415
361 150
226 462
75 443
13 35
485 489
80 214
278 81
11 299
345 221
310 283
387 27
293 67
38 467
190 175
23 74
16 32
244 484
42 88
329 6
198 33
156 338
106 130
144 301
511 464
292 12
145 103
123 342
26 306
27 30
224 172
490 48
5 110
314 363
209 67
15 10
155 223
15 232
283 66
72 97
191 142
200 28
59 80
22 244
26 76
4 183
384 66
449 179
147 376
253 285
366 71
457 158
87 134
20 143
165 248
39 341
501 376
355 284
3 2
241 211
509 502
194 58
426 300
8 520
41 157
1 3
246 22
58 91
32 70
151 60
59 400
45 265
477 73
282 374
27 147
516 156
7 298
101 98
78 120
113 165
41 188
171 303
452 169
233 135
246 453
309 249
18 2
460 1
43 184
113 23
212 251
75 27
15 81
445 42
145 208
34 89
2 156
16 68
430 337
154 103
19 418
368 399
360 84
166 136
519 44
440 79
133 136
105 205
238 434
368 488
71 65
52 99
311 37
284 336
332 161
262 150
21 106
394 254
116 45
35 161
191 264
112 62
319 72
229 68
242 202
472 442
53 19
94 199
27 11
64 428
206 186
64 12
323 288
297 256
204 65
504 480
83 12
474 50
96 186
62 102
444 257
56 11
132 369
148 41
70 294
175 83
414 396
243 137
178 108
257 127
240 54
507 471
296 269
279 97
451 492
124 102
381 157
216 190
59 21
19 66
138 230
53 271
77 114
317 81
22 2
304 244
338 510
67 31
44 144
54 508
96 290
392 416
494 79
475 337
193 64
101 396
213 173
224 269
362 354
173 167
199 497
365 450
96 48
318 282
383 153
404 31
62 253
57 217
126 85
2 31
187 354
20 40
132 181
83 108
189 2
30 43
132 260
56 506
139 185
6 10
86 61
11 162
291 166
122 456
27 45
234 96
57 187
277 316
13 129
69 16
196 159
16 87
388 480
54 179
373 316
121 446
98 197
479 284
326 293
243 255
205 482
458 20
517 376
237 372
470 44
203 331
10 12
256 493
115 109
237 94
110 169
109 62
9 8
448 251
451 187
137 2
117 108
333 144
43 49
405 227
356 19
274 263
72 63
287 87
161 420
178 280
121 286
220 108
312 146
330 185
37 20
38 37
368 15
79 49
145 515
309 500
82 29
333 389
61 16
391 389
248 397
514 396
95 160
159 51
219 12
132 88
218 12
408 287
32 512
408 495
388 481
227 385
281 272
328 463
487 429
90 288
23 9
36 270
287 425
151 313
14 11
395 423
302 24
38 140
182 424
300 34
98 256
100 10
60 32
411 163
346 242
2 272
258 105
31 48
77 171
65 177
496 227
421 208
176 83
104 371
183 348
359 221
111 335
111 247
370 13
128 56
39 31
58 23
78 105
153 104
44 94
28 3
50 78
236 45
393 241
466 341
424 498
149 35
513 126
386 23
340 262
15 170
66 239
520 1 3
23 22
289 340
44 38
519 319
475 146
502 171
194 159
459 162
14 19
54 51
180 87
85 84
105 192
18 87
227 308
89 34
465 296
415 439
198 487
484 81
145 187
6 74
75 31
287 31
114 72
95 129
447 372
15 8
25 7
141 143
18 113
209 276
60 358
329 260
22 116
112 322
147 142
258 193
350 128
76 284
67 104
490 287
39 34
374 263
427 41
121 270
373 404
295 6
40 23
173 112
334 269
60 83
8 313
375 273
237 118
491 474
393 58
85 260
315 221
429 96
301 133
71 381
211 230
20 410
100 58
140 76
330 269
324 289
28 1
293 164
45 79
88 9
457 448
82 63
250 505
210 131
141 383
353 83
124 218
65 112
15 43
58 220
422 139
310 60
165 234
163 23
123 45
471 266
31 128
479 357
204 185
52 135
147 176
29 507
162 174
172 363
27 50
142 162
34 35
177 212
29 23
255 20
161 36
499 462
76 127
75 97
74 80
39 91
190 134
338 45
78 444
146 89
24 476
256 152
392 323
17 115
131 285
63 2
355 214
452 307
428 41
159 426
273 245
9 20
28 32
144 80
40 362
175 62
515 208
407 200
128 292
253 242
213 39
378 119
238 133
262 112
286 305
333 140
170 21
128 272
391 397
281 433
473 391
206 343
480 405
81 36
149 45
10 182
179 18
431 18
47 33
221 278
122 269
7 13
424 319
327 55
414 481
443 369
274 18
495 6
34 10
477 171
14 136
243 228
198 232
148 26
361 157
82 166
31 57
396 104
120 189
112 266
12 102
139 136
120 5
342 105
264 98
65 32
73 53
265 38
510 448
202 77
28 30
501 86
318 145
39 158
60 18
81 385
157 96
52 35
101 80
236 373
161 185
137 309
349 37
231 100
341 60
42 49
119 83
137 441
65 117
260 290
60 328
69 34
238 280
482 448
20 133
172 87
423 509
28 486
76 142
220 432
483 194
106 25
246 100
241 247
321 320
261 139
16 434
145 150
379 310
34 37
183 161
249 204
108 19
368 298
64 78
312 386
350 398
254 351
103 205
420 86
460 41
203 172
213 474
63 372
138 86
248 239
472 99
51 20
416 287
155 36
425 359
111 281
62 217
78 95
399 44
54 348
14 21
454 103
250 44
411 17
452 461
3 1
68 124
61 50
339 324
423 15
67 38
377 168
148 245
384 3
4 453
132 48
167 492
76 31
354 184
26 307
188 19
38 96
22 109
319 127
236 409
402 55
10 7
169 211
287 364
89 233
469 7
31 103
1 48
193 344
59 92
4 193
242 171
55 268
94 105
59 30
130 27
413 309
55 39
121 445
125 92
297 419
8 36
105 468
64 446
259 303
320 255
68 77
167 22
45 13
3 2
14 3
76 294
153 66
4 16
116 201
34 223
225 96
204 311
86 73
209 11
347 121
160 8
401 315
436 188
32 70
154 84
142 415
345 241
195 9
191 58
137 3
417 264
6 12
236 108
253 418
332 403
297 47
72 50
134 28
229 216
179 252
218 360
281 365
259 109
51 214
41 122
178 169
154 356
15 42
513 83
169 359
95 400
357 165
438 485
289 406
429 500
224 72
488 134
16 380
9 62
302 43
328 463
135 197
312 107
162 352
70 394
39 98
10 68
55 64
113 257
40 168
169 67
336 214
30 181
16 22
6 11
33 23
24 17
395 25
506 152
199 144
293 326
156 215
311 516
134 200
440 260
110 10
99 512
167 388
287 456
135 151
387 189
53 12
2 366
61 126
421 289
95 152
120 449
478 38
39 56
227 9
298 20
57 216
520 437
499 503
36 165
171 323
98 171
271 170
1 6
244 282
212 254
171 514
42 207
504 397
251 215
508 210
38 12
337 382
90 81
518 273
186 66
306 17
147 464
370 146
442 395
222 196
467 23
204 235
27 21
12 18
418 458
70 118
316 146
7 5
258 496
430 262
246 489
56 331
43 497
511 88
17 1
304 325
131 56
62 141
374 376
31 13
7 291
111 1
221 174
39 41
107 88
33 66
269 367
1 5
12 263
37 405
39 121
99 304
80 156
252 299
125 208
19 317
335 308
47 283
369 202
88 279
266 435
391 4
4 3
390 316
334 451
332 151
19 99
219 115
412 79
455 237
123 300
493 120
71 32
244 517
160 337
2 1
24 177
346 296
42 448
132 462
498 136
164 56
240 190
206 149
57 198
6 9
196 16
164 314
275 196
277 158
249 288
198 241
244 14
2 8
377 408
55 93
140 184
296 34
115 470
379 450
159 122
111 289
145 117
121 466
239 98
58 24
30 46
250 494
389 232
26 24
438 274
28 84
94 39
414 40
286 52
54 371
267 29
130 228
169 437
103 226
570 3 2
188 462
471 383
263 37
362 325
93 53
43 493
269 140
150 352
63 66
54 40
46 322
300 281
266 151
272 413
90 258
385 423
329 421
310 472
517 359
280 18
275 97
249 415
9 36
326 341
90 137
168 199
447 354
99 36
45 231
169 76
68 20
208 244
112 323
331 8
110 9
127 240
213 25
399 258
531 258
45 380
162 485
271 219
440 553
86 49
223 134
506 306
17 163
21 41
8 136
346 267
6 185
430 568
105 7
89 36
312 515
26 42
172 221
480 309
134 15
277 216
410 252
356 178
557 388
32 18
157 178
78 158
2 12
109 299
130 261
354 306
455 23
196 522
79 76
8 46
224 315
498 338
328 441
94 65
128 530
249 267
11 186
239 129
15 155
23 43
17 217
211 281
466 399
102 22
105 170
319 137
213 534
47 6
448 14
487 526
2 373
152 202
1 83
47 120
135 1
245 87
28 173
349 390
72 74
564 159
10 23
400 5
497 104
247 140
124 96
444 220
181 437
3 142
222 409
49 41
96 287
41 80
279 545
88 215
104 149
375 342
461 395
224 367
112 198
376 79
26 28
284 76
563 501
7 5
1 176
292 428
159 527
183 103
438 491
203 172
379 134
315 430
103 313
559 181
532 136
268 432
94 449
505 294
64 259
41 139
253 217
254 220
81 28
250 158
492 90
29 21
321 55
140 187
218 10
454 195
316 48
195 72
279 167
54 72
255 50
328 487
56 243
37 29
156 62
127 7
567 231
195 460
228 78
4 1
442 204
91 104
404 362
168 357
17 21
85 11
484 283
397 35
3 236
444 457
408 24
479 59
325 315
187 537
78 114
64 286
64 95
427 337
233 163
569 377
165 290
570 527
119 46
312 360
8 14
11 4
540 438
67 180
127 252
280 483
80 262
78 21
14 539
14 38
8 148
25 227
107 160
108 56
133 31
274 258
227 310
206 139
33 305
76 56
313 382
225 197
336 227
201 12
202 270
339 78
148 411
228 260
550 435
87 210
22 30
65 69
11 55
73 2
389 138
135 463
289 112
111 80
90 78
227 511
42 154
22 8
320 52
181 141
329 302
251 429
382 402
106 48
36 87
294 2
10 45
158 204
66 219
431 145
417 30
386 424
34 40
452 38
257 19
101 241
14 57
305 306
123 2
333 254
77 131
238 19
372 171
59 422
412 227
24 242
13 34
45 88
548 448
128 35
141 107
65 205
174 113
398 37
44 113
15 62
165 122
396 96
558 141
188 377
340 80
407 130
383 37
297 503
56 276
150 112
290 533
70 37
34 97
307 179
50 58
304 232
146 388
541 340
216 33
474 444
433 328
414 88
5 518
420 549
169 528
504 320
45 489
134 301
509 415
366 95
67 420
124 153
132 314
57 109
425 60
186 211
144 73
10 7
5 15
334 436
419 4
234 57
192 153
3 2
184 29
19 26
157 29
176 273
34 77
81 101
433 544
282 97
209 204
14 464
330 68
137 268
198 295
249 193
500 130
434 297
168 164
39 98
516 12
103 59
44 332
302 291
426 210
64 220
188 196
91 147
384 61
1 8
387 3
288 184
227 368
401 110
406 402
524 566
249 456
11 13
20 6
106 308
327 288
52 473
49 59
39 1
94 112
468 95
481 502
155 235
560 391
200 246
508 151
224 18
139 392
164 10
469 401
151 328
125 90
293 179
494 32
141 226
170 378
243 459
74 82
179 536
348 91
197 54
31 26
446 217
467 120
64 16
403 231
130 17
5 75
41 91
87 162
35 22
334 289
224 229
555 493
525 319
10 18
55 355
200 148
117 69
25 21
6 4
488 307
562 258
29 50
163 405
34 60
22 129
126 34
51 15
475 481
296 226
137 317
351 21
37 132
61 37
121 222
85 394
118 438
277 303
358 101
350 92
24 18
1 347
33 1
285 41
8 370
18 44
207 101
547 491
159 416
556 565
499 521
305 326
295 364
82 140
6 298
538 463
16 12
396 496
135 552
324 305
556 207
338 229
172 171
529 182
23 115
143 39
119 374
535 461
283 98
108 208
83 151
490 396
235 435
1 3
163 167
551 439
470 108
62 194
418 31
543 186
165 381
145 256
5 116
38 52
227 297
462 478
451 520
227 451
412 482
476 322
92 335
264 10
439 182
5 19
45 519
43 182
159 123
67 3
2 1
75 546
395 339
220 513
475 15
187 514
142 230
227 312
48 29
458 427
291 105
152 40
92 10
237 359
121 86
201 371
443 83
166 120
311 343
155 342
6 190
152 369
50 56
26 161
278 184
191 106
523 456
35 391
9 2
191 212
214 115
77 353
344 330
251 207
309 38
119 175
96 88
100 59
177 495
450 151
388 554
198 499
345 103
54 84
106 107
232 179
173 265
445 156
145 34
12 17
366 501
2 5
81 171
210 311
106 385
542 30
99 118
61 365
120 122
45 177
507 446
188 81
189 66
248 92
247 465
393 325
117 146
186 193
65 61
227 349
33 63
361 126
179 140
486 469
20 337
496 512
250 292
477 101
80 440
386 129
188 272
453 321
71 37
53 37
524 59
46 138
3 27
37 237
15 510
561 27
188 318
363 308
546 3 1
124 204
322 118
180 107
32 5
475 472
95 332
201 51
14 310
373 30
474 321
84 374
116 48
166 124
213 481
280 108
15 240
28 237
331 362
228 214
309 290
254 204
491 346
87 471
312 87
144 123
215 248
314 91
326 242
537 49
190 81
190 460
172 163
438 296
242 421
120 37
161 353
155 128
117 20
218 101
69 118
236 82
378 176
247 83
203 211
231 181
202 79
9 110
30 1
80 24
516 395
24 63
495 92
295 417
127 352
249 115
100 33
435 93
29 8
529 226
463 196
405 71
85 4
1 19
10 36
42 44
32 269
97 94
7 2
227 149
147 177
111 256
285 518
13 21
98 129
369 218
445 201
105 35
339 375
169 222
272 479
163 133
179 186
20 23
224 367
53 141
15 13
445 533
480 269
351 100
40 384
436 349
102 486
329 280
524 107
103 15
188 430
314 482
89 132
3 16
42 243
44 51
145 173
98 162
427 10
317 220
45 215
292 354
442 214
239 130
205 39
108 181
21 192
107 133
69 20
33 82
321 461
112 11
203 336
70 57
57 62
394 76
395 246
95 396
101 508
263 69
66 483
67 131
205 349
532 147
101 238
264 55
188 206
111 212
148 62
198 59
26 25
208 403
200 262
546 117
69 282
54 58
253 159
448 102
92 149
279 24
45 33
274 158
287 143
360 55
359 352
388 159
47 87
245 311
392 52
214 303
178 50
1 88
204 344
351 410
3 4
171 250
340 147
21 503
414 145
331 63
170 26
140 158
242 411
45 200
379 419
137 32
48 94
435 494
452 224
108 347
51 77
139 241
245 365
118 123
76 34
5 73
6 5
153 146
382 198
4 22
422 52
248 510
235 52
44 193
138 120
18 127
188 155
456 71
34 53
332 509
47 346
487 419
83 23
404 205
307 236
145 85
28 24
88 489
179 308
375 538
525 334
108 389
66 259
129 385
315 376
383 370
4 9
33 59
294 173
122 3
286 14
330 233
125 539
328 151
97 514
473 85
527 487
423 457
118 121
304 152
109 70
137 290
376 519
341 490
350 21
268 43
3 12
39 130
265 267
251 459
23 96
541 442
545 42
391 369
191 500
29 104
160 450
47 50
402 54
302 521
306 20
178 339
535 530
445 511
175 15
165 125
116 400
413 64
119 513
5 4
324 531
194 291
295 202
455 236
93 56
164 187
40 35
285 10
316 79
29 298
121 530
75 57
99 67
318 109
174 140
82 159
230 232
181 440
151 42
167 62
265 432
333 294
488 378
43 157
226 116
465 484
106 76
80 161
428 197
37 152
70 136
197 62
528 323
90 191
186 476
119 8
95 20
12 363
9 168
66 169
113 520
17 61
233 277
69 270
199 164
65 41
472 356
129 246
276 137
335 293
2 64
125 17
336 502
59 66
366 4
289 45
255 146
497 543
122 467
344 372
138 302
2 3
101 50
6 113
200 380
90 275
43 6
439 309
94 114
507 496
179 156
84 73
102 9
199 266
91 498
28 39
111 6
126 234
231 399
12 273
205 313
139 26
121 429
496 194
207 19
526 256
466 449
21 478
145 189
441 178
176 123
464 227
148 221
223 126
412 229
11 38
254 437
10 8
37 14
213 341
30 203
86 82
365 415
409 512
341 358
19 54
25 35
56 90
265 67
522 130
177 431
54 196
272 199
120 381
544 70
42 36
54 534
219 53
493 432
9 92
183 25
337 250
71 69
433 222
319 235
7 8
232 468
49 33
31 57
96 446
397 98
281 239
409 144
289 387
149 338
34 244
124 184
156 220
18 425
34 55
25 31
154 7
1 2
6 11
204 447
142 217
158 364
345 129
45 379
284 323
70 299
13 74
34 68
34 28
67 29
317 377
423 309
453 191
128 120
154 386
1 3
23 444
392 408
54 320
195 523
46 33
505 280
398 349
127 368
261 90
462 15
35 48
393 226
236 406
22 140
477 461
404 424
20 2
499 178
301 348
2 79
370 3
14 7
124 506
283 105
204 449
52 504
67 343
9 56
56 301
77 216
91 327
146 18
301 469
24 21
52 185
41 17
492 332
324 145
94 98
321 102
115 71
232 451
104 224
13 10
542 392
116 214
245 168
300 334
251 43
227 284
49 407
454 259
264 288
108 69
124 100
142 325
470 266
72 17
58 171
130 142
390 78
4 33
47 15
293 281
36 126
458 214
515 258
361 150
151 213
206 210
220 252
143 29
134 102
59 91
52 20
7 27
225 12
357 12
275 292
208 12
164 33
2 25
32 60
78 49
81 74
114 229
418 48
233 218
109 342
159 160
71 182
156 151
333 356
517 241
31 147
296 24
278 136
215 260
204 485
401 381
247 258
352 497
99 242
300 298
397 416
75 271
135 63
409 540
536 12
11 230
420 13
89 31
46 107
426 275
402 443
72 209
78 150
11 501
19 315
371 16
9 18
434 2
298 465
257 39
32 194
305 125
72 195
319 355
12 17
297 94
464 1 2
46 222
450 162
37 136
257 437
324 386
240 277
249 228
48 91
389 91
12 125
102 71
3 23
11 28
54 4
86 135
14 32
53 137
263 452
400 231
33 10
82 255
356 125
341 23
121 10
328 459
118 83
166 461
152 268
35 103
53 8
133 7
96 39
108 424
68 29
6 320
4 73
288 423
58 87
318 135
225 79
211 290
334 317
4 173
289 234
46 169
2 165
20 107
70 80
221 342
115 69
217 343
220 83
152 29
29 64
212 245
11 183
59 55
326 230
266 66
22 31
101 19
166 131
215 328
169 463
130 97
50 460
228 429
224 51
162 73
99 77
236 282
271 35
30 191
385 79
47 263
167 75
112 1
124 269
405 130
257 39
329 219
199 131
321 446
34 6
55 53
420 279
330 351
13 7
449 242
223 336
53 83
6 95
360 106
49 46
193 244
195 152
31 36
28 233
421 340
3 5
417 122
40 50
126 8
128 148
45 411
4 58
98 163
163 264
143 352
238 27
141 82
67 22
107 230
96 157
357 351
155 58
406 349
359 194
272 332
142 441
172 345
132 144
3 12
108 193
78 56
249 374
287 260
252 227
15 38
313 353
17 37
440 139
253 193
41 40
74 291
182 20
61 12
364 240
366 152
5 228
105 250
132 82
161 181
240 195
21 243
51 70
338 408
361 172
393 350
88 18
204 74
87 161
310 324
29 129
16 93
60 221
108 149
335 337
286 239
66 254
12 29
47 2
151 88
102 189
90 116
91 313
355 340
136 314
40 33
80 114
458 456
242 46
4 79
202 4
69 1
63 13
60 5
242 453
3 160
428 362
201 108
236 132
379 443
24 22
51 16
123 85
21 35
26 340
53 368
179 153
272 81
23 372
66 55
319 335
188 270
10 11
14 119
54 192
177 105
6 5
276 51
124 210
231 103
15 280
10 7
377 64
355 409
29 30
384 153
129 427
284 256
234 46
291 379
2 1
142 127
21 84
147 265
302 105
92 49
21 349
323 263
291 330
159 309
321 179
50 76
185 22
262 146
259 59
177 358
54 110
415 4
203 107
93 432
297 21
177 412
5 18
299 164
80 397
218 96
179 433
370 314
1 4
9 16
6 303
75 61
218 403
13 43
1 3
139 86
196 413
212 126
46 16
147 69
146 188
401 46
311 93
326 398
251 77
235 137
147 256
422 408
186 178
62 48
25 20
48 100
171 114
200 24
154 80
307 121
332 367
376 139
31 292
430 428
2 3
81 172
56 7
109 55
187 246
17 113
170 31
20 14
207 2
51 164
338 117
112 138
122 64
37 48
434 321
117 61
399 294
296 315
3 8
275 419
66 150
332 464
281 12
293 63
3 82
296 231
227 219
59 146
278 462
1 19
388 383
322 155
17 267
220 382
74 211
147 239
375 344
134 34
77 365
18 94
166 363
422 454
180 85
418 196
331 176
395 238
86 60
404 210
274 231
215 72
216 87
127 26
11 316
457 384
219 59
298 246
414 102
9 14
223 112
214 301
245 294
90 20
54 72
157 378
300 402
279 5
2 52
333 308
63 74
426 29
252 261
53 295
44 41
348 98
71 57
108 79
288 219
354 88
125 369
131 153
209 154
319 141
260 98
9 26
187 371
155 275
2 306
184 138
17 14
346 275
67 77
211 317
85 46
124 416
273 125
121 205
372 448
143 442
164 190
125 159
425 303
176 10
198 45
15 1
39 31
390 315
391 3
445 331
2 7
232 102
312 37
392 116
8 57
115 196
274 407
339 115
347 153
165 362
158 44
110 143
206 325
310 69
97 43
174 68
128 3
28 145
175 157
410 40
22 258
269 439
383 451
90 208
56 283
304 98
241 194
22 45
53 89
132 214
295 300
9 435
431 9
383 287
447 79
251 455
137 438
22 27
218 247
195 213
22 6
122 178
387 249
268 344
187 136
42 21
36 140
1 21
192 380
35 237
26 106
65 48
350 349
128 206
156 6
98 19
67 327
92 194
105 62
373 268
456 210
193 436
9 2
167 381
120 7
197 100
118 124
81 52
226 186
229 179
396 165
394 24
111 278
124 131
217 9
194 248
160 308
149 305
168 153
104 22
444 316
158 285
111 104
435 3 2
205 212
1 14
8 25
379 394
202 76
97 54
314 109
111 85
92 371
401 341
18 12
9 57
170 330
223 121
26 42
269 55
66 142
101 17
189 91
102 1
153 389
255 191
272 158
170 68
176 358
18 29
154 318
157 288
15 20
125 68
49 27
15 56
23 33
147 168
148 66
31 27
36 383
96 127
118 221
12 74
190 122
317 327
110 44
11 81
187 99
181 147
35 184
333 274
209 63
41 52
9 90
182 140
54 21
185 19
130 117
191 238
122 138
67 123
53 354
390 134
309 215
113 96
111 376
296 344
72 32
162 253
21 114
356 362
410 116
1 4
76 8
39 41
62 141
54 121
24 274
109 177
345 13
377 266
144 208
3 1
100 435
33 153
87 116
36 370
294 351
69 67
310 106
171 37
7 10
82 77
51 95
296 171
35 7
418 312
70 103
390 425
40 132
45 385
84 249
96 32
62 154
293 429
119 319
228 168
229 106
234 230
72 323
265 210
228 317
155 20
234 419
191 103
339 349
11 13
263 262
290 58
408 270
58 25
61 5
250 335
308 26
122 117
24 9
232 251
71 369
9 6
296 313
47 231
402 379
423 383
286 198
356 14
6 250
368 343
29 45
245 384
112 230
256 207
33 55
66 83
51 226
294 42
218 124
50 24
367 348
70 203
360 289
5 106
144 237
91 46
43 124
43 7
35 268
105 246
93 46
160 235
131 421
12 5
110 343
205 157
334 50
73 48
6 47
166 261
74 88
108 162
23 12
136 47
80 225
26 8
302 8
6 316
120 118
409 231
215 324
422 218
180 53
366 143
295 134
16 293
243 197
151 245
245 341
36 145
242 382
64 65
60 92
163 178
136 220
95 232
55 193
388 255
62 99
6 60
13 44
322 414
104 233
131 71
94 160
186 213
40 109
161 304
165 18
322 47
135 62
47 119
71 195
42 134
62 305
294 299
194 224
411 143
17 404
54 241
133 391
14 22
397 330
31 80
109 117
123 137
212 300
240 217
337 59
157 42
412 416
64 8
380 93
107 275
66 18
57 164
27 40
172 143
281 128
217 147
38 303
227 171
214 118
145 266
3 115
254 33
39 53
431 363
194 355
361 330
207 206
2 8
150 393
8 201
430 70
432 70
10 79
21 199
21 400
104 38
326 232
78 65
415 184
78 166
77 51
122 147
381 219
428 125
55 407
221 284
396 214
315 364
76 267
260 190
257 223
139 41
426 7
17 14
269 379
34 8
344 387
27 277
100 69
141 331
433 344
127 292
192 175
434 236
126 152
5 158
399 103
159 336
59 56
378 186
363 15
38 173
188 134
15 264
242 35
40 144
170 244
51 285
271 117
86 41
82 179
32 98
146 222
276 67
215 278
237 262
11 1
267 413
113 150
247 246
2 5
143 89
328 324
76 200
57 70
36 128
225 346
2 1
46 39
208 375
325 201
340 193
16 10
175 86
6 1
133 76
126 43
167 162
320 268
211 25
300 357
51 50
298 284
267 342
68 63
2 338
108 81
176 153
25 28
184 258
219 178
20 21
171 215
87 71
75 412
36 35
12 15
101 129
175 395
75 41
285 332
2 3
146 141
194 353
162 183
53 210
85 23
39 37
405 92
153 204
136 406
377 398
19 1
186 86
193 321
83 206
48 46
259 140
392 53
42 163
67 30
177 374
62 236
151 161
112 37
306 298
195 270
140 62
115 273
30 291
72 329
38 252
373 26
65 118
156 87
240 347
209 348
12 27
149 283
295 312
110 339
8 32
18 37
123 194
386 133
30 26
88 289
169 32
16 282
107 20
239 195
427 20
7 4
350 200
352 42
104 197
301 83
4 71
125 216
297 228
89 1
417 203
372 187
149 41
420 303
151 54
64 159
365 248
62 13
63 54
132 287
112 307
22 280
3 248
196 163
38 24
151 424
262 359
200 403
174 57
29 84
15 311
175 279
198 43
42 105
94 53
315 233
402 2 3
14 7
318 265
274 278
359 268
66 145
129 107
193 215
80 173
25 144
282 173
375 216
89 82
113 39
94 174
230 187
248 264
143 21
275 192
5 7
73 9
202 211
140 274
1 27
159 36
377 194
352 250
105 276
323 212
342 147
195 80
266 121
11 263
47 95
21 272
34 22
33 52
87 162
64 59
150 244
70 10
155 82
85 326
33 198
69 4
344 179
42 60
92 76
130 100
328 294
61 41
5 28
205 330
238 208
23 16
203 384
106 77
4 284
46 192
291 263
130 214
281 283
31 99
154 111
2 3
130 194
178 155
136 139
304 262
298 57
83 62
1 3
358 224
39 48
369 177
165 387
279 93
201 158
98 334
33 193
44 14
142 59
148 166
227 52
301 38
53 223
1 2
42 125
261 221
49 280
105 65
166 175
302 57
217 71
390 238
223 337
191 313
247 159
121 116
372 9
4 124
382 266
110 118
237 154
81 135
240 164
351 208
4 22
54 268
152 153
80 388
108 70
265 33
303 153
213 116
51 100
294 340
40 180
191 135
267 19
135 219
7 11
85 55
329 220
132 8
346 189
57 42
354 344
220 172
136 112
218 203
225 15
316 119
10 12
7 18
309 397
1 312
101 156
191 362
186 127
100 299
39 72
47 6
44 45
47 110
290 240
97 109
104 336
98 254
256 225
16 4
37 5
259 170
49 2
68 310
76 111
258 75
343 279
400 118
47 210
66 38
166 391
7 262
100 202
200 286
50 168
11 107
45 79
96 402
60 77
66 199
90 96
149 281
374 128
40 43
30 19
18 29
70 273
366 339
303 327
8 10
365 234
16 50
36 38
16 181
16 81
37 160
1 19
88 120
85 137
288 285
123 92
165 73
187 78
56 308
229 127
158 305
13 36
22 33
33 197
21 24
25 2
56 231
22 87
293 177
105 167
18 21
149 36
40 233
65 93
205 111
86 76
176 15
88 81
172 235
389 51
32 31
386 351
309 26
82 67
367 262
332 83
322 305
368 42
148 161
102 52
6 1
256 347
97 253
146 3
295 39
98 9
353 1
188 161
320 53
65 163
385 316
35 31
240 317
184 129
17 5
271 19
212 180
360 39
349 246
190 401
357 274
55 133
11 185
175 252
11 147
59 38
120 292
296 140
166 270
67 170
33 39
9 6
398 354
260 140
206 154
255 63
15 5
42 22
127 189
102 119
116 82
43 248
74 61
72 112
306 33
305 392
335 293
207 91
151 363
14 26
78 59
370 76
226 211
219 251
312 355
300 273
74 321
101 96
76 10
8 7
149 315
208 99
203 1
21 169
115 37
273 361
66 131
63 61
381 293
362 383
333 55
138 83
232 245
228 249
84 140
206 395
348 247
164 30
104 93
36 228
239 153
3 5
380 196
46 1
63 396
169 269
46 126
9 158
196 151
179 338
53 91
75 216
350 117
15 41
371 138
13 10
144 148
190 393
4 75
79 97
24 221
314 189
258 324
172 153
31 9
6 134
90 81
277 252
51 152
126 222
82 127
173 204
297 1
80 14
250 1
177 109
56 24
234 31
241 331
68 9
311 376
90 241
379 26
373 89
109 190
88 341
246 21
114 11
236 176
20 232
86 243
33 40
55 242
24 54
45 71
334 394
57 103
155 294
345 220
319 318
4 3
30 151
28 287
19 179
26 65
5 58
59 289
176 399
307 207
31 67
51 182
285 89
200 181
95 117
96 183
88 257
150 45
339 309
46 128
56 171
224 58
81 84
55 50
122 33
39 94
209 123
6 53
41 378
132 157
6 62
110 141
20 11
364 128
325 32
217 311
8 51
82 356
302 3 1
198 71
11 70
2 245
82 28
287 138
39 168
3 12
195 55
7 184
123 105
248 191
49 224
99 49
145 20
87 61
116 258
186 52
106 217
275 51
274 34
93 75
302 156
24 98
34 130
160 54
3 27
93 118
230 69
114 209
270 170
29 100
213 167
60 279
124 187
216 68
170 269
126 62
23 94
111 124
280 97
10 41
220 180
31 79
253 141
188 202
241 30
178 281
165 149
65 53
9 164
77 289
63 2
163 146
58 225
44 76
43 104
42 39
205 267
34 56
186 190
120 41
92 148
193 61
133 73
170 85
32 61
145 210
148 176
150 161
18 189
128 77
108 178
2 1
4 2
285 102
227 76
273 142
299 78
179 132
156 26
158 162
86 54
146 180
30 53
60 26
20 37
254 238
13 101
146 3
49 25
51 12
212 188
92 15
172 242
96 33
208 109
36 222
11 66
46 35
173 23
55 251
105 300
21 114
18 69
104 113
83 260
111 101
29 28
71 259
250 184
50 19
129 32
176 263
183 17
59 46
174 44
22 45
272 163
26 103
4 5
19 138
34 298
31 205
15 6
85 58
256 241
3 1
58 10
48 233
221 119
25 8
5 9
38 14
177 11
21 23
96 149
67 55
156 171
122 143
191 32
28 296
92 223
99 294
16 3
74 80
186 228
172 277
60 132
218 154
59 215
154 27
152 196
26 244
292 269
22 12
276 270
238 193
24 20
192 148
100 201
216 301
240 73
10 74
235 24
20 2
121 55
2 286
34 141
3 136
30 34
170 234
140 282
31 24
32 7
157 68
247 173
6 4
30 21
137 226
155 26
144 167
68 62
15 26
194 169
182 152
265 92
40 62
10 3
88 91
93 109
114 150
21 6
213 295
122 111
112 246
278 44
88 23
14 52
175 85
11 135
59 81
229 176
138 188
14 1
117 85
7 1
15 90
18 7
84 142
50 57
152 159
169 11
252 266
33 15
243 186
44 14
153 15
199 132
172 80
43 15
236 222
23 140
31 40
131 76
64 55
166 124
97 72
252 153
207 168
65 84
78 288
185 41
14 19
82 107
125 10
181 79
83 14
180 211
151 76
158 130
203 29
33 105
134 7
96 261
47 116
268 135
42 48
146 197
257 284
107 214
17 78
139 26
4 144
8 7
239 167
206 50
106 43
108 47
127 115
297 265
9 28
290 123
5 249
28 54
25 72
115 32
37 75
73 41
55 34
264 130
204 83
36 6
262 59
231 118
17 16
47 34
291 50
83 102
147 10
71 46
17 137
18 119
110 10
255 82
20 89
132 237
2 3
15 39
200 132
13 1
283 165
9 293
219 3
208 271
35 3
48 95
82 232
112 73
11 5
257 56
152 75
13 77
440 2 3
28 165
359 89
35 65
139 54
318 228
14 54
272 60
254 280
241 137
333 20
214 78
71 25
259 67
285 89
43 126
103 2
290 249
21 307
210 325
64 128
316 214
391 352
213 117
104 148
274 155
330 271
337 53
323 252
138 236
296 292
130 363
411 124
205 432
22 46
224 435
75 188
49 11
292 336
300 52
108 41
204 163
53 160
129 114
380 426
167 301
80 370
230 315
276 255
6 21
59 172
41 24
292 271
216 258
191 101
176 396
76 179
29 72
61 80
30 15
197 12
333 412
269 356
339 33
98 433
44 8
234 184
161 207
249 416
172 430
26 67
189 297
54 58
19 10
78 114
30 39
407 108
158 29
8 111
267 384
145 186
14 100
155 127
93 62
49 288
193 242
45 12
82 170
405 170
176 145
104 253
170 379
33 201
106 92
31 51
81 406
64 55
29 33
120 103
346 211
78 74
9 5
257 57
427 25
6 8
29 15
112 193
25 12
401 328
284 146
129 371
436 150
83 53
123 8
182 83
261 321
129 324
386 295
39 74
109 264
414 243
23 48
255 207
382 159
409 285
116 91
119 54
109 295
282 90
194 177
357 199
348 219
14 3
117 88
145 22
262 147
333 345
4 1
327 97
35 142
1 3
215 52
294 233
306 439
364 240
89 107
114 225
42 334
115 46
428 322
279 167
98 250
241 269
67 85
11 27
216 161
286 24
2 1
312 31
4 238
64 81
33 190
24 12
43 11
299 262
2 177
130 120
210 138
368 440
347 2
237 133
88 53
252 80
277 258
353 231
111 178
362 263
232 26
13 6
91 58
328 169
28 13
387 385
33 56
110 175
251 392
109 124
41 92
239 203
331 194
98 33
249 36
28 174
138 49
157 128
202 425
275 178
408 283
53 422
7 162
141 91
13 319
289 344
421 236
219 196
329 49
126 342
187 137
199 335
265 70
291 178
54 60
77 200
423 45
23 12
78 376
20 247
349 298
378 374
153 68
418 299
57 31
357 372
119 229
231 102
29 163
314 49
4 59
385 157
303 247
217 63
166 118
122 104
147 87
320 60
375 100
109 184
187 271
268 37
96 261
2 3
11 135
185 119
50 87
140 100
209 36
79 104
415 14
283 24
76 95
128 355
37 8
211 62
80 228
2 240
168 108
267 93
113 343
75 60
16 12
10 11
31 11
83 235
324 404
33 173
99 78
210 245
243 210
183 119
121 167
434 108
16 206
25 127
137 102
365 23
10 18
169 25
191 332
17 38
123 133
15 4
35 9
255 410
53 14
132 44
361 357
52 39
19 389
352 200
15 156
220 27
394 258
178 326
126 192
260 56
13 55
159 65
161 50
110 105
112 293
32 136
230 393
4 17
218 183
233 160
208 179
45 223
151 181
397 197
344 395
15 32
66 41
168 230
79 102
109 203
402 86
345 403
313 399
110 112
113 12
189 91
125 39
226 74
149 131
350 270
270 39
302 34
181 227
8 152
278 70
419 390
96 424
236 366
438 299
68 35
183 196
56 246
289 153
354 45
207 367
21 34
77 61
23 150
154 107
202 74
27 429
308 149
63 12
82 13
126 417
381 148
115 309
46 131
53 61
380 133
96 13
195 107
306 162
198 374
61 105
103 109
89 71
237 373
5 1
188 377
202 398
123 437
305 263
390 291
205 86
263 148
195 420
144 71
339 341
212 28
137 369
183 358
383 4
244 222
207 313
368 358
273 188
94 83
84 6
65 180
6 3
2 10
1 86
25 171
10 12
215 281
118 83
97 40
121 92
110 224
69 266
304 73
6 287
3 7
20 19
73 69
101 78
254 129
49 134
42 69
79 221
22 12
311 73
12 251
42 146
151 248
47 20
79 64
26 40
388 233
413 79
119 164
285 338
400 161
199 74
271 340
351 227
222 42
198 89
151 70
317 36
36 76
247 310
42 10
62 61
50 46
40 70
35 90
298 250
2 36
63 143
322 290
201 431
35 360
8 26
72 256
599 3 1
507 296
543 420
114 121
49 110
85 243
170 301
464 419
126 304
208 587
99 18
346 170
111 104
157 78
103 115
17 18
428 461
9 13
273 170
335 411
424 552
174 138
175 74
23 16
590 199
346 349
205 14
528 162
64 397
84 568
135 51
6 24
209 191
148 78
458 533
463 283
153 102
33 7
71 97
449 530
588 78
104 58
343 254
22 116
83 519
259 90
351 424
342 347
527 9
406 72
454 171
62 167
44 106
112 2
265 225
93 73
197 355
549 275
279 111
150 198
174 211
142 86
247 516
276 575
486 342
40 389
371 107
385 388
150 76
28 54
544 516
61 494
138 526
46 56
6 78
555 571
577 145
376 157
21 342
263 541
221 156
417 41
42 332
373 48
111 185
522 472
83 87
474 177
126 357
61 281
230 295
367 408
368 375
227 74
495 483
498 14
201 80
16 89
540 330
66 125
325 499
138 336
264 76
310 275
349 377
163 267
300 362
45 26
42 337
231 134
421 510
551 291
314 63
230 319
257 77
384 268
166 50
261 585
162 179
64 46
322 24
419 161
240 230
167 331
427 166
8 39
355 358
520 179
84 48
43 194
88 340
158 32
506 553
70 141
31 481
193 154
440 273
119 38
68 493
134 249
382 173
228 207
232 441
30 58
99 268
245 32
523 181
449 4
2 43
128 269
226 213
66 60
285 115
595 376
323 307
97 594
297 232
31 1
92 27
34 306
539 98
361 160
61 396
41 69
531 394
576 414
311 195
297 429
199 172
57 23
173 398
85 53
98 6
118 416
292 490
508 307
457 247
197 75
31 308
23 47
237 536
429 580
4 2
29 127
206 57
10 16
484 1
17 1
34 414
187 46
407 238
13 25
166 504
41 71
599 425
271 156
144 370
107 558
112 476
67 224
455 7
278 554
290 469
181 448
143 262
73 60
178 131
29 37
339 232
20 168
267 569
420 135
432 388
443 407
263 103
36 28
96 320
36 138
538 153
591 238
202 18
473 70
161 296
76 133
40 467
379 155
165 324
396 462
125 545
185 593
583 131
559 482
117 394
280 48
58 107
368 324
224 290
105 17
41 81
261 412
356 355
495 572
457 480
108 29
415 386
173 89
4 15
104 147
102 27
11 6
62 27
32 30
197 374
103 6
422 149
425 436
375 452
188 204
393 468
241 201
282 537
13 155
159 129
72 55
300 405
31 52
44 25
344 299
152 48
450 437
428 338
216 598
201 363
161 114
447 289
69 210
174 251
111 186
26 41
434 137
82 39
8 61
81 136
171 61
234 338
270 231
88 13
132 139
26 28
135 293
287 257
166 191
61 143
459 578
254 542
101 20
145 9
93 479
130 359
7 48
214 26
370 421
487 453
265 350
275 22
518 59
500 312
146 64
180 54
471 151
515 108
276 248
41 118
128 102
303 3
213 99
308 341
282 385
91 184
203 111
21 34
162 445
345 197
352 166
87 113
22 53
100 524
41 236
4 117
138 177
153 582
101 466
59 80
353 91
224 260
277 433
286 58
54 266
18 253
170 183
557 419
229 9
64 250
333 55
200 121
213 235
387 369
366 301
277 138
289 203
430 1
222 258
546 58
126 67
403 10
208 163
1 2
232 67
418 331
95 360
339 472
72 91
124 36
235 465
60 283
334 280
51 220
164 126
49 234
176 164
444 178
384 489
299 141
211 325
17 100
51 47
49 163
273 532
274 171
131 47
230 137
144 182
147 151
393 570
202 219
525 152
381 144
78 326
492 423
98 246
298 172
151 316
325 597
402 223
451 60
348 19
3 6
318 151
380 89
50 21
333 404
79 29
366 497
313 69
496 58
247 56
144 46
75 71
132 40
354 259
123 115
11 26
214 244
95 12
442 408
145 307
529 181
392 336
324 409
84 242
22 20
117 386
129 77
301 488
209 491
181 31
195 130
196 139
255 19
561 432
178 560
96 278
18 521
180 207
562 209
475 596
378 32
36 40
514 17
4 7
70 172
11 29
94 93
223 183
149 70
36 76
63 33
283 458
188 179
243 483
150 555
72 309
65 52
261 154
438 350
4 42
456 49
280 459
160 96
342 563
122 30
84 351
33 327
470 17
13 35
482 287
56 364
63 248
11 27
10 5
65 367
410 191
30 114
212 315
488 503
32 225
535 247
139 256
478 145
190 46
170 57
390 285
21 216
328 83
154 151
365 359
233 475
371 477
21 17
77 329
423 248
217 81
70 22
192 179
24 55
581 584
5 4
180 369
48 77
9 12
90 67
128 517
169 586
56 534
251 302
120 113
370 391
6 137
179 589
96 53
566 214
60 40
502 148
512 506
513 29
505 440
453 315
288 158
165 131
162 46
38 49
109 413
2 67
100 312
148 291
102 140
102 109
311 567
35 446
564 330
218 98
439 298
556 383
252 232
19 13
511 268
146 156
244 282
222 509
574 314
579 425
254 165
14 2
321 40
423 431
364 506
212 65
22 68
7 8
485 195
100 437
501 257
238 91
29 30
284 101
435 121
123 237
46 9
292 125
460 310
147 548
189 22
159 581
305 222
565 313
417 592
272 91
3 9
573 559
256 400
74 26
39 169
399 331
215 119
335 198
3 2
330 241
134 75
83 55
49 426
425 184
20 10
383 361
3 1
26 59
130 15
401 547
300 29
294 135
222 61
372 126
86 70
195 317
176 233
38 3
274 393
72 401
550 269
4 239
328 395
337 2 1
78 104
21 212
74 3
37 19
222 113
223 165
19 335
208 250
281 198
169 158
18 12
70 160
249 121
16 67
27 21
181 129
221 68
11 166
14 64
237 93
15 238
92 70
14 26
79 36
6 11
43 193
1 4
108 192
138 288
183 127
220 59
157 224
86 12
14 1
170 244
49 73
32 61
87 52
205 85
275 128
70 278
323 218
147 96
50 197
75 74
124 241
70 32
14 91
81 178
164 176
111 75
174 37
306 194
93 99
1 29
150 20
2 19
50 54
86 93
30 51
254 37
138 81
17 105
197 313
10 329
240 283
9 4
112 156
13 196
176 194
22 34
126 172
26 203
269 50
85 3
277 316
229 7
8 195
246 209
257 268
287 75
27 32
131 52
2 1
88 102
12 2
21 167
273 40
82 30
13 48
120 72
136 171
145 105
104 230
165 97
140 162
75 296
47 144
69 267
114 158
289 142
140 129
64 276
127 108
77 30
59 5
183 232
42 57
292 309
318 250
216 37
119 15
302 143
291 304
175 141
66 40
13 265
286 242
217 2
76 22
36 23
183 259
20 25
180 165
294 21
148 121
333 279
269 305
133 89
332 66
182 213
314 127
84 12
16 23
1 30
46 2
31 264
55 334
211 312
124 255
6 4
282 277
32 47
24 14
58 3
193 284
106 83
163 37
219 86
15 139
330 203
33 8
319 32
126 39
81 186
161 152
324 68
61 65
114 258
109 17
108 61
78 46
44 23
104 210
271 216
242 23
23 53
177 300
191 131
166 295
201 54
137 117
216 274
22 2
142 151
95 277
88 12
87 185
138 177
85 257
182 92
301 121
100 72
44 130
17 49
290 56
26 95
43 19
32 204
10 6
209 74
88 129
2 3
336 265
57 251
153 218
22 56
262 106
326 297
223 272
9 13
248 16
198 191
13 114
275 310
29 62
150 170
153 226
71 40
261 106
118 58
81 6
142 292
132 107
252 106
10 15
42 31
137 153
20 7
82 253
90 59
17 15
311 48
6 55
327 311
266 261
168 99
92 113
108 124
1 21
307 150
164 150
206 143
69 23
93 190
94 123
242 256
8 16
207 158
135 9
1 83
53 60
298 38
45 30
40 50
142 72
143 189
73 143
68 98
38 34
117 240
12 214
96 3
171 317
72 22
279 135
265 322
22 68
121 119
263 97
234 13
116 84
110 36
169 173
215 113
205 260
315 132
211 190
128 122
51 152
122 4
179 93
159 154
99 103
297 104
21 225
5 28
5 8
235 169
7 4
25 41
280 200
238 331
321 267
9 39
208 82
245 197
264 285
308 118
95 291
158 187
55 117
141 135
32 320
146 36
84 155
148 154
63 2
64 243
97 9
277 293
40 8
206 328
98 227
337 89
112 233
3 299
122 136
1 3
35 22
18 157
107 102
44 94
9 31
303 301
125 118
131 184
10 199
89 32
76 200
270 109
325 166
182 247
75 239
236 185
66 202
112 70
188 84
92 149
115 2
86 101
134 53
228 102
24 52
184 231
5 4
75 80
594 2 1
585 452
406 350
363 196
46 44
541 164
159 43
284 38
485 75
82 94
353 103
24 497
440 184
33 53
175 244
324 302
133 235
439 213
15 85
18 122
199 356
95 137
368 477
288 7
285 8
112 123
269 102
391 6
139 73
349 14
202 348
89 199
62 70
46 280
451 535
580 409
101 481
202 112
28 37
257 341
71 134
374 182
548 358
298 285
310 398
460 256
249 79
309 96
51 197
592 341
55 359
147 248
210 334
111 7
164 275
283 287
379 87
35 109
515 584
383 349
516 523
34 50
51 68
78 83
331 386
52 301
263 230
441 351
408 225
65 367
503 158
184 117
347 416
167 76
144 278
311 587
431 357
400 138
153 222
126 361
102 138
74 561
207 198
182 41
148 35
78 542
20 3
327 583
485 508
4 6
476 594
355 189
270 512
495 408
421 300
509 188
28 461
250 179
305 181
507 140
223 82
347 83
23 61
5 57
307 464
66 25
457 431
491 459
87 368
86 179
90 133
18 38
294 569
436 590
238 109
62 395
331 318
172 372
134 143
149 5
422 187
371 143
177 157
555 319
65 17
109 208
327 102
46 140
558 534
336 64
180 43
136 323
325 430
187 154
492 158
312 6
52 39
164 221
26 119
279 302
2 1
479 289
115 118
87 225
48 41
221 402
34 522
425 63
209 189
524 443
88 271
405 533
3 1
18 44
390 82
131 15
120 20
413 175
127 414
528 395
38 40
407 282
114 78
342 265
56 2
11 31
213 448
97 100
502 67
181 14
450 527
281 453
424 199
546 462
142 40
75 175
90 553
44 77
378 202
197 568
76 43
6 307
131 233
261 180
14 8
16 257
21 5
449 517
50 260
410 346
98 156
220 290
134 317
477 564
398 550
536 4
56 352
440 486
18 13
176 105
150 178
442 308
517 521
97 26
161 70
7 12
19 11
249 490
43 95
401 354
16 15
103 115
36 273
578 213
158 102
384 465
293 56
451 434
219 192
382 170
576 171
33 16
40 67
127 103
59 266
574 379
120 132
20 89
150 24
147 5
549 67
49 72
87 75
329 204
530 497
71 46
467 393
435 87
181 560
210 445
37 86
285 573
52 186
165 370
381 281
581 191
215 532
447 165
496 193
186 589
165 40
478 11
432 310
330 164
9 25
563 482
516 316
11 384
45 90
58 57
3 469
232 83
501 85
19 69
107 152
396 37
224 539
593 30
227 214
274 77
56 146
437 175
245 153
184 220
239 21
92 73
318 433
108 20
196 86
91 89
51 474
191 489
13 5
229 122
252 253
316 81
572 142
411 538
201 364
136 183
28 476
210 147
8 23
46 279
68 164
87 282
153 142
201 195
493 50
9 577
116 124
411 112
251 210
199 294
337 318
217 99
380 215
112 20
487 375
277 226
234 179
215 446
291 204
224 182
1 8
444 200
198 403
107 99
39 105
398 552
66 82
373 387
412 428
1 7
251 534
191 213
286 34
39 99
9 254
343 518
558 575
515 207
172 198
241 120
279 562
405 280
140 246
43 36
322 301
28 326
218 551
323 335
297 14
242 182
30 49
51 40
10 393
345 67
42 15
244 267
113 58
339 9
74 170
411 526
27 426
329 520
230 182
314 299
144 141
212 1
35 565
454 277
463 209
4 11
90 362
195 320
158 458
125 306
198 466
193 120
231 57
194 155
346 133
417 240
105 332
179 388
2 5
392 232
8 55
244 389
525 63
81 56
12 78
33 41
262 351
377 344
431 436
360 328
120 228
35 54
128 211
121 10
151 321
157 45
83 160
72 93
161 304
136 7
59 200
377 559
311 276
289 202
514 155
52 472
303 212
14 103
172 117
206 175
40 188
547 500
173 167
203 216
348 519
181 240
14 195
169 54
126 83
35 191
114 375
556 253
155 44
3 2
299 252
470 141
22 1
24 13
540 82
82 125
116 397
588 551
276 91
571 93
67 88
268 110
237 191
231 295
190 4
76 98
333 316
145 88
128 73
340 443
201 247
306 450
543 31
278 557
505 392
162 12
358 223
218 504
350 172
475 338
7 26
513 296
482 11
278 357
35 141
328 315
366 190
54 96
9 203
13 438
34 11
480 240
17 6
151 471
82 455
204 49
115 215
101 27
36 25
28 9
104 60
259 110
385 55
498 287
272 260
166 3
102 77
325 30
171 69
74 313
189 11
3 60
420 269
45 135
153 554
449 331
64 3
130 94
365 125
343 288
240 243
230 537
130 404
151 236
330 483
333 468
79 192
188 205
33 59
223 423
409 69
62 50
510 255
570 164
40 117
40 63
523 531
591 432
145 218
567 375
106 18
13 296
394 156
456 351
376 75
561 582
494 172
586 559
308 258
50 174
415 178
25 45
239 452
220 419
59 80
277 412
139 462
58 256
277 340
15 13
262 57
4 2
9 4
154 429
198 264
141 488
13 185
292 84
338 302
283 67
418 199
94 168
302 459
163 114
266 434
3 32
473 307
506 72
252 187
310 303
484 32
53 74
319 119
110 104
427 305
116 107
358 566
47 8
43 399
298 544
3 39
35 3
30 27
169 500
151 67
354 233
167 226
234 545
199 315
281 189
373 41
44 154
258 174
10 4
318 180
511 20
67 73
344 262
265 250
137 270
529 7
84 56
21 27
129 113
255 146
24 29
499 454
69 579
286 300
214 203
274 369
29 79
75 44
540 2 1
33 51
337 261
49 43
15 41
26 21
90 289
62 91
36 84
269 520
8 2
109 68
183 155
390 319
19 232
131 7
394 267
76 89
42 488
15 53
511 267
115 1
507 99
129 118
28 283
486 194
52 176
50 39
103 54
225 160
156 1
334 508
339 343
253 12
268 325
9 17
165 260
313 441
425 178
421 127
212 102
50 73
348 337
209 152
281 136
1 4
383 278
410 168
120 406
124 75
244 97
489 50
534 83
433 173
50 500
297 108
444 363
24 193
2 38
211 345
15 11
403 349
5 20
282 184
250 376
173 448
290 329
106 174
290 223
136 105
134 48
220 427
409 330
150 16
227 352
80 284
221 24
276 404
365 264
531 11
111 94
348 355
82 13
299 198
470 320
40 436
208 426
347 264
95 400
93 431
121 243
415 220
150 197
340 120
319 239
321 92
368 92
30 45
86 45
70 126
471 188
140 446
203 450
248 144
7 6
373 416
90 250
21 402
308 422
417 92
310 539
453 55
247 224
211 219
49 64
373 513
295 17
143 292
31 118
37 163
122 524
184 150
83 217
145 158
498 306
327 239
44 206
174 317
54 46
222 163
105 362
53 300
38 80
326 102
482 8
215 194
387 408
4 29
421 437
207 418
166 518
23 18
9 99
14 220
10 265
293 211
81 26
215 239
31 16
166 360
169 60
397 50
424 207
170 277
263 66
42 170
29 149
116 83
67 45
147 124
435 135
388 323
118 229
67 90
310 229
369 315
58 75
42 11
86 344
72 107
527 283
358 264
40 200
76 25
73 191
380 476
479 287
55 151
10 21
7 74
240 174
4 6
404 405
286 131
402 454
328 342
122 108
461 23
14 148
65 171
100 95
535 48
464 515
521 21
167 334
226 359
34 36
34 92
65 203
243 391
58 288
39 154
27 361
283 538
7 85
464 194
266 375
264 525
210 66
139 79
401 398
105 138
43 112
41 188
6 87
218 210
48 230
67 186
192 81
35 177
235 490
74 473
456 415
41 66
267 44
280 331
228 88
70 208
52 1
198 504
428 69
274 269
28 93
129 166
210 477
302 131
125 105
62 60
10 157
12 27
105 301
350 322
116 305
231 261
21 24
88 48
2 1
370 364
35 128
382 75
382 412
22 9
17 130
234 10
85 121
284 496
43 3
266 509
349 357
90 216
94 2
396 254
239 264
132 117
110 313
516 440
237 279
485 79
530 270
79 21
442 192
360 478
236 198
117 105
305 399
152 2
134 168
48 314
33 11
139 262
15 30
336 411
505 488
46 25
10 419
91 235
88 351
241 122
69 59
25 12
231 519
255 307
141 3
213 206
324 6
481 171
13 10
134 224
514 75
1 14
438 415
246 218
218 452
71 28
2 420
167 96
42 380
83 38
237 198
308 289
55 227
190 143
69 201
374 434
135 55
143 35
22 28
179 29
37 36
483 502
462 297
430 167
280 66
97 93
17 389
19 102
335 134
339 35
43 460
483 108
306 290
374 248
389 536
162 101
285 78
7 12
270 48
386 17
228 291
253 320
492 160
29 173
323 89
78 278
410 440
303 156
248 341
203 480
240 349
4 294
35 26
232 512
455 64
338 276
2 3
119 1
457 396
499 21
36 137
161 142
296 395
200 451
130 205
532 363
39 56
55 57
7 19
28 68
43 96
83 363
40 15
468 41
443 231
101 105
94 459
251 318
44 475
16 198
353 74
366 215
233 231
38 95
41 58
133 447
201 494
312 122
140 102
244 392
19 501
423 301
25 101
287 236
23 196
377 110
128 251
8 178
506 85
211 97
74 153
106 275
138 328
47 45
138 458
165 162
59 364
43 242
445 43
70 72
330 17
261 528
159 398
8 11
194 84
276 469
42 60
224 497
9 7
466 234
202 17
199 266
11 32
182 152
119 414
133 4
144 96
121 214
23 70
180 269
484 9
245 193
20 381
259 150
252 23
62 449
310 315
59 8
63 21
127 97
145 199
4 34
63 226
298 208
204 108
61 55
77 44
440 533
231 182
207 86
110 16
65 61
324 526
139 223
18 12
309 218
54 160
346 136
272 95
292 387
2 44
21 39
467 413
76 189
474 406
114 98
331 503
108 185
336 166
238 191
210 517
151 523
338 529
254 102
164 119
166 332
379 306
42 48
439 230
51 78
58 155
463 123
121 371
50 175
135 367
103 142
268 148
1 3
296 282
316 95
29 108
522 21
443 472
43 356
161 373
393 274
243 537
335 413
104 98
354 92
169 273
217 271
216 249
23 106
281 384
99 491
38 146
172 80
506 540
214 385
112 407
119 256
134 145
493 455
43 372
257 62
429 172
353 465
152 187
5 4
70 258
255 153
137 333
272 487
117 181
195 148
123 39
378 117
3 10
120 97
165 311
115 304
9 159
1 276
113 57
180 158
17 55
432 349
98 83
107 322
61 510
200 495
13 16
372 2 1
183 201
6 41
206 166
182 78
18 299
13 50
121 61
9 55
288 22
226 166
33 308
109 51
137 228
73 59
99 202
62 336
281 8
87 52
74 80
80 287
337 230
367 270
335 325
221 24
22 325
7 12
330 269
314 207
112 45
11 38
20 13
260 279
38 193
26 35
19 61
196 216
15 2
210 245
51 200
32 9
285 78
132 210
50 140
76 67
346 183
298 192
57 103
25 219
211 113
234 19
260 189
364 265
171 16
288 290
269 142
242 127
156 2
57 129
256 348
79 125
16 79
4 3
164 30
59 68
167 324
13 97
306 237
303 296
130 276
64 236
41 98
130 343
155 81
124 57
197 223
130 301
120 47
190 73
334 326
204 129
296 294
273 29
71 63
61 230
109 340
158 261
256 277
121 158
162 264
369 109
185 152
108 94
77 304
111 104
145 229
49 82
95 179
232 71
233 66
19 18
288 371
284 81
198 186
208 321
194 101
22 81
170 249
6 1
262 176
13 110
6 294
45 139
293 34
312 122
142 66
136 84
118 175
14 25
39 92
93 115
45 161
54 254
98 165
90 73
4 8
19 113
8 28
122 89
59 46
57 53
218 217
235 125
176 302
329 100
126 12
112 132
341 291
93 333
237 146
65 275
145 64
354 258
44 27
100 31
166 135
23 21
45 53
181 15
17 26
171 241
349 323
5 347
16 184
8 16
33 78
135 59
344 121
52 15
133 323
21 14
20 149
39 188
311 190
334 338
11 43
27 56
165 328
114 20
44 225
315 103
70 75
352 365
4 67
57 91
342 134
212 256
199 123
101 94
84 32
134 146
1 2
52 93
160 151
358 114
76 191
356 88
77 197
81 106
21 27
300 287
34 268
63 152
67 77
143 39
339 360
180 100
291 372
105 51
350 197
21 169
252 3
331 290
47 65
56 251
255 122
238 355
47 94
2 3
54 22
85 214
246 24
259 295
30 99
35 42
22 172
98 134
48 16
147 266
203 370
289 91
163 250
82 196
214 297
130 258
162 217
51 3
26 192
107 186
286 190
310 40
231 64
43 133
318 157
4 62
205 271
33 49
77 208
79 85
14 10
9 13
45 8
34 19
34 104
212 126
144 38
291 154
29 28
151 125
262 345
11 58
114 159
324 361
116 131
86 24
44 47
33 162
88 22
170 33
72 207
147 101
2 366
9 36
80 176
281 359
117 56
64 51
12 22
24 16
72 62
189 161
10 353
257 246
239 270
67 317
368 215
247 225
253 88
63 17
7 1
128 167
56 313
197 282
15 83
178 142
203 175
239 326
2 224
7 351
248 51
280 144
168 322
362 314
3 5
70 24
15 74
108 116
27 31
17 10
84 177
174 278
37 17
18 11
45 205
357 241
119 38
363 52
33 21
243 212
203 222
128 309
14 30
227 65
12 60
157 244
240 173
24 283
187 132
163 119
154 113
98 141
32 150
352 210
8 46
76 332
141 220
87 95
3 1
74 274
66 17
85 267
305 225
100 138
134 148
192 195
157 183
149 209
168 33
69 40
265 112
227 339
11 1
89 1
263 38
203 272
10 4
40 33
292 232
73 137
316 107
174 7
153 17
8 307
130 6
19 107
320 146
3 39
327 249
319 244
1 213
102 2
2 96
76 157
9 1
128 6
173 3
259 174
123 6
167 239
90 127
215 31
238 197
118 24
374 3 1
52 48
255 93
83 227
154 17
177 368
66 46
15 162
191 251
17 33
11 13
264 9
192 205
236 15
54 39
19 192
9 186
174 50
157 171
44 87
318 183
141 114
23 369
257 195
113 114
239 11
129 44
316 325
210 48
140 94
10 95
374 366
28 47
95 168
166 199
357 18
87 259
169 27
46 62
34 13
121 277
64 225
163 44
145 48
205 293
210 252
94 147
183 137
199 314
270 110
347 265
19 81
183 372
48 12
5 3
153 82
55 74
159 57
2 1
278 42
266 97
53 42
247 65
13 22
248 1
184 127
109 274
18 19
248 365
125 182
322 179
61 46
166 297
212 41
244 260
116 275
9 50
341 83
254 29
112 95
80 110
338 93
370 96
198 124
25 17
271 367
281 320
219 291
208 345
30 300
59 330
6 7
74 240
7 77
264 302
91 4
165 100
218 229
27 221
41 38
115 214
130 133
348 164
19 244
229 279
313 331
29 25
271 304
337 283
96 11
339 291
212 323
279 356
152 23
217 70
280 92
191 150
133 190
185 93
58 44
137 64
26 9
21 15
211 315
117 5
21 127
5 289
223 142
26 60
23 13
134 220
21 84
160 25
2 44
141 233
54 142
27 49
58 120
164 38
67 196
62 80
184 241
180 340
18 12
67 73
141 364
59 202
58 299
37 28
306 55
243 175
2 11
69 14
172 28
344 198
107 73
36 349
358 65
59 24
108 18
71 111
63 276
155 373
161 209
10 218
209 287
116 170
71 351
75 175
106 44
134 283
95 235
226 81
1 32
167 204
122 42
4 3
83 77
359 231
35 15
216 47
258 246
336 167
156 215
134 20
101 6
121 104
353 282
342 4
63 104
3 94
34 64
79 98
91 193
12 79
93 41
124 15
58 86
57 25
282 280
152 156
3 1
1 14
45 103
208 122
360 17
270 309
138 21
303 126
203 91
61 354
205 242
50 89
361 120
23 290
44 177
176 40
284 294
250 65
17 67
333 65
97 213
296 17
263 177
16 118
101 201
75 53
10 12
59 92
51 305
169 249
39 78
328 230
173 181
321 62
144 12
36 17
146 157
45 65
136 31
77 115
332 255
8 9
50 207
240 267
27 38
125 116
155 45
105 42
6 30
72 46
15 6
72 128
8 10
9 113
2 3
102 56
124 131
346 283
20 2
8 1
335 325
24 3
91 148
71 56
126 91
137 253
234 103
16 39
208 237
273 3
132 195
16 15
56 151
105 132
119 97
55 123
12 68
9 317
256 196
232 184
142 334
16 76
31 42
247 269
246 53
38 46
355 199
173 153
350 224
285 211
257 311
45 29
63 5
5 109
265 316
89 178
220 238
56 2
59 146
135 128
116 92
262 17
158 102
141 352
36 362
310 39
206 152
56 219
179 47
100 38
200 41
99 7
42 230
292 51
329 186
32 40
222 161
85 3
43 180
366 274
9 82
228 127
307 211
326 162
283 371
15 31
90 42
139 75
1 166
189 142
125 268
55 20
81 308
48 224
295 185
161 15
324 8
1 6
313 127
168 271
234 319
36 245
39 130
197 84
188 54
252 261
286 28
298 152
59 194
241 363
150 131
227 284
105 167
301 167
43 17
288 31
88 48
327 184
149 129
312 17
231 71
27 26
272 81
70 55
2 28
281 29
3 17
28 51
17 97
343 176
185 211
187 155
143 122
265 212
556 1 2
131 140
336 204
530 234
137 435
366 148
90 527
172 22
549 90
462 397
80 317
65 463
118 362
169 60
127 112
166 122
119 427
40 44
43 155
98 6
95 346
353 124
46 371
268 172
473 231
133 500
101 395
49 87
262 214
159 15
55 71
13 12
202 3
293 271
449 415
308 324
403 320
36 339
149 43
235 298
54 89
115 35
12 1
445 144
150 343
285 470
153 497
116 59
283 104
443 75
37 4
97 132
44 65
407 40
89 123
35 352
29 27
5 24
13 53
232 131
182 320
26 35
64 57
166 304
28 39
18 36
396 204
191 119
76 66
4 7
482 358
498 289
4 1
23 85
288 282
86 92
28 542
508 317
493 540
106 101
330 329
155 297
143 409
219 19
205 98
123 239
157 187
38 46
8 4
11 19
133 464
387 264
327 410
532 502
220 5
224 100
75 466
301 173
41 108
42 77
63 114
68 548
2 22
143 126
2 278
489 193
79 419
399 492
380 205
206 58
107 8
68 275
63 133
495 511
63 189
162 260
518 491
51 88
250 27
5 348
145 426
18 72
327 248
390 150
161 386
255 534
150 228
363 266
16 15
107 197
136 92
17 14
42 164
40 455
318 300
147 533
26 14
394 117
285 321
451 372
16 30
213 554
35 118
457 434
214 42
243 323
458 325
68 279
302 307
104 15
543 189
340 129
454 307
220 289
273 417
227 1
241 495
201 158
550 504
365 452
167 121
140 338
46 261
134 113
115 130
31 432
185 148
2 95
516 459
14 4
22 105
192 483
164 204
89 480
90 209
110 154
233 142
224 405
236 316
61 413
122 349
502 70
363 528
284 282
355 190
112 89
429 87
50 259
203 377
453 168
171 174
322 370
143 252
459 347
556 27
62 80
12 84
3 152
428 100
414 276
351 171
447 415
440 384
337 304
514 157
156 479
385 436
36 48
341 401
324 476
30 491
539 413
128 77
149 477
289 388
254 146
4 126
6 1
6 28
43 213
58 51
325 219
9 31
59 147
361 199
187 312
58 70
112 300
204 248
472 239
354 152
41 8
33 8
106 160
460 77
89 412
140 217
76 97
305 222
15 1
11 8
230 142
286 524
153 399
4 170
97 131
257 42
353 360
242 105
342 37
173 9
400 27
519 474
323 525
2 190
270 61
223 328
239 439
25 11
526 233
49 47
455 506
39 231
411 375
456 345
125 7
424 59
368 247
45 345
34 19
13 369
162 10
181 88
124 40
88 221
313 154
314 276
265 50
3 1
110 95
379 240
326 441
288 378
46 63
275 290
271 72
126 326
86 61
176 179
39 222
529 500
85 121
405 547
21 13
409 494
9 10
247 486
149 196
437 356
39 391
319 302
490 247
408 298
295 258
51 40
184 474
374 367
216 6
203 78
99 446
287 82
471 373
365 35
168 105
37 102
236 141
375 536
240 153
28 243
49 276
256 85
375 397
5 347
552 279
373 515
309 61
132 183
444 275
262 331
388 433
475 450
174 229
1 5
54 389
33 60
241 108
425 237
54 9
364 188
165 162
344 99
384 333
120 109
42 3
223 201
179 251
93 322
89 438
43 141
119 238
310 303
115 156
94 375
114 188
383 342
21 545
180 166
234 292
255 203
61 423
61 42
478 422
404 311
326 382
42 82
332 202
273 244
137 81
493 33
58 66
140 157
347 448
64 146
28 52
44 129
398 340
26 199
79 69
23 18
53 282
381 328
523 6
263 220
139 13
75 62
46 505
356 261
51 91
415 345
117 138
215 54
76 431
196 507
131 274
32 186
18 13
434 273
218 125
258 151
306 522
1 2
21 113
106 373
282 306
191 461
253 296
509 121
252 277
99 38
501 490
496 403
100 280
13 207
182 156
135 87
176 1
42 55
243 247
119 151
272 245
535 113
234 10
329 120
38 8
468 485
111 225
513 258
57 7
430 170
367 15
376 263
245 189
3 2
181 269
226 190
94 208
376 484
333 69
104 171
193 385
45 43
264 235
27 90
89 315
510 163
450 205
56 150
34 117
22 100
127 211
334 312
465 108
14 67
163 67
481 487
53 235
84 244
200 110
555 504
266 73
68 27
248 422
541 455
158 152
207 299
43 341
109 91
153 45
15 47
82 96
117 237
350 338
426 504
83 34
357 71
69 7
303 197
382 537
62 81
45 148
60 551
436 512
75 420
32 10
43 20
21 285
109 194
50 24
402 51
538 39
260 503
283 553
177 69
198 165
467 198
8 193
12 421
184 85
175 114
9 4
372 201
521 2
94 77
73 41
120 142
416 330
27 18
254 418
267 206
546 311
90 210
108 499
36 103
308 126
282 358
76 111
5 101
359 165
20 2
78 36
212 104
46 144
192 49
108 406
481 74
195 189
3 56
246 177
74 517
12 59
74 50
544 294
1 468
205 249
8 40
145 124
277 392
45 62
442 321
78 253
132 520
30 122
60 119
68 302
352 488
469 412
189 281
161 1
294 103
311 193
335 295
531 130
286 165
178 80
39 93
291 203
393 294
564 1 3
34 12
132 160
50 4
248 154
64 76
17 52
5 337
419 401
42 73
213 23
524 418
249 129
495 456
293 550
191 301
519 156
396 418
17 536
302 113
308 483
5 1
136 143
436 469
259 287
13 16
89 154
235 357
197 120
356 13
16 26
245 334
117 34
333 297
33 95
16 368
114 466
408 493
414 251
152 80
163 278
9 21
318 476
225 154
86 365
357 378
437 514
207 136
167 128
188 10
8 7
88 63
279 14
125 187
478 252
230 277
112 49
452 173
69 24
543 11
504 558
177 124
149 28
503 556
126 27
453 384
29 24
156 23
35 22
271 328
244 101
426 310
390 274
54 70
241 299
17 323
171 443
155 36
229 108
181 226
535 378
8 57
42 99
311 79
92 214
364 119
299 484
134 10
10 171
170 123
109 174
236 375
201 231
154 341
289 391
115 76
504 143
51 26
89 538
103 355
199 335
426 429
259 485
76 303
235 108
269 197
138 262
253 486
397 350
181 102
517 331
96 417
40 350
254 244
120 138
110 148
192 321
435 80
85 480
109 161
202 366
192 16
415 440
462 210
403 190
1 234
149 389
92 195
293 38
20 252
54 84
561 513
204 194
52 416
316 327
105 474
356 553
191 91
124 425
54 5
409 397
369 420
206 236
502 168
557 62
106 190
562 15
273 257
81 45
405 497
223 398
212 188
33 202
473 3
219 173
433 104
9 8
59 32
281 500
116 109
59 227
449 242
255 169
563 545
40 295
329 315
363 31
28 169
432 412
549 6
199 125
133 10
71 518
166 115
404 189
399 83
201 196
250 51
48 33
125 5
211 369
470 246
144 33
97 1
66 47
256 15
541 105
184 11
164 50
43 64
20 3
22 42
367 386
3 142
237 88
243 56
106 345
1 4
450 287
305 358
95 198
532 211
25 402
240 160
471 391
273 314
107 315
26 263
35 140
528 511
506 164
30 38
363 564
135 121
4 17
79 122
70 109
374 200
509 315
36 30
308 106
114 21
73 121
422 390
67 178
223 400
230 290
541 547
171 326
38 45
218 53
548 44
23 151
195 539
525 72
555 134
230 406
83 346
189 185
12 14
180 13
384 477
320 156
75 33
40 47
39 501
424 297
307 354
347 111
388 458
31 33
234 423
364 376
232 7
54 74
40 82
83 546
135 384
40 124
336 34
215 141
267 72
96 23
424 531
82 270
2 196
499 327
153 230
181 457
173 463
309 106
175 338
17 388
69 439
83 80
188 233
105 380
428 200
5 41
47 172
39 223
447 21
9 193
29 271
53 194
55 14
316 134
220 67
526 510
36 89
67 120
356 523
530 359
163 51
310 161
16 132
461 89
7 13
505 382
411 23
64 78
17 106
112 352
279 529
42 63
215 324
208 537
106 258
91 72
451 56
100 10
1 10
69 297
233 401
84 176
331 222
2 37
456 345
357 431
340 258
12 3
6 381
51 119
293 395
29 241
245 148
136 59
448 78
515 302
231 275
103 1
211 520
4 7
3 19
79 344
261 112
73 80
16 118
266 216
104 238
182 5
115 412
168 121
492 314
475 385
25 8
295 377
181 348
195 205
158 11
306 283
421 216
74 92
9 23
44 33
456 527
66 272
367 66
364 533
508 119
303 360
131 444
488 49
208 285
153 44
101 63
39 19
93 128
481 127
1 3
389 459
427 332
36 379
94 34
317 61
244 332
173 154
85 113
77 510
472 227
27 15
127 17
94 288
121 259
2 104
238 319
49 26
216 43
361 69
199 200
467 365
430 304
545 507
554 364
56 50
87 59
289 84
165 134
145 3
410 139
296 283
251 214
436 428
62 107
40 65
58 79
265 236
221 83
522 35
2 22
7 185
226 385
260 413
352 370
1 2
77 371
61 28
181 434
158 276
307 152
221 342
118 150
511 394
277 516
353 101
33 162
326 521
551 355
361 560
228 339
183 13
322 330
28 351
46 14
224 175
277 362
140 394
69 343
80 90
166 534
110 294
103 139
52 281
408 268
7 77
36 67
138 268
85 69
209 63
68 179
313 259
322 454
199 512
316 465
415 446
146 63
2 3
195 206
217 140
101 322
102 28
130 5
265 491
100 494
479 133
201 210
536 559
108 45
217 392
552 337
343 405
26 325
279 291
283 276
131 47
42 93
24 13
129 18
242 38
10 18
318 44
9 11
396 49
110 47
137 115
92 442
247 142
38 72
71 50
305 215
320 544
246 312
99 157
292 154
60 105
460 348
258 359
241 489
300 304
2 98
349 263
496 124
282 42
78 387
246 81
38 68
222 153
228 153
382 329
39 455
43 18
159 42
31 17
29 257
123 19
103 437
286 188
212 274
198 503
372 258
114 186
58 35
20 441
77 300
298 106
6 4
36 53
62 54
20 147
95 211
407 30
540 189
40 33
542 485
126 280
103 284
487 67
438 173
60 35
203 56
11 30
260 156
264 23
16 32
131 175
373 99
324 445
368 490
276 393
374 507
253 247
31 239
498 265
111 108
15 13
74 86
513 505
18 383
141 116
27 28
150 208
464 331
482 32
243 415
127 468
312 2 1
191 205
159 207
3 1
143 86
78 67
8 110
89 32
142 85
4 12
45 187
255 189
50 59
152 27
178 188
54 204
232 61
58 23
3 6
254 28
236 245
194 129
11 252
271 162
33 90
141 122
150 93
60 2
81 305
94 65
268 166
196 148
122 46
64 108
85 17
243 155
68 157
16 13
12 15
302 104
248 301
11 8
108 186
172 79
1 2
188 291
139 198
52 311
287 130
259 176
3 2
119 55
36 32
80 2
285 110
81 54
123 17
170 79
46 34
15 64
269 282
86 8
294 153
107 105
308 263
66 103
116 27
163 21
75 118
64 174
56 33
195 152
309 189
230 92
125 165
182 179
71 30
5 1
2 82
13 28
238 203
52 148
306 32
144 262
88 129
73 70
139 11
136 10
57 239
4 17
144 106
160 6
281 224
113 197
47 34
62 125
74 17
43 25
166 58
154 110
256 42
63 18
9 257
177 273
184 53
25 34
295 292
213 157
31 26
29 113
223 59
65 164
97 149
202 233
193 120
150 212
59 202
87 192
44 91
225 266
221 140
200 297
134 110
40 26
138 95
216 91
220 103
292 200
264 1
78 199
199 253
218 21
23 11
178 37
208 168
290 143
110 155
4 8
10 20
296 210
35 42
23 37
98 7
26 9
298 38
14 8
156 133
174 215
241 161
258 34
243 289
278 78
250 274
173 25
133 303
209 23
6 7
158 43
176 123
66 23
250 106
153 121
94 206
83 251
38 105
267 304
59 77
48 79
6 19
126 90
16 293
71 84
114 99
246 147
175 22
4 92
3 137
22 9
104 47
261 25
67 286
11 29
43 70
248 224
140 219
275 22
8 39
52 5
177 247
47 127
75 71
4 10
104 130
145 99
39 147
106 66
183 146
33 62
168 138
5 101
41 191
48 44
179 226
254 265
146 135
104 162
140 33
68 66
149 260
213 277
250 272
22 38
115 8
7 25
87 69
228 197
49 43
69 49
24 1
171 8
24 44
70 190
79 240
312 224
224 73
78 93
109 61
15 88
215 276
76 40
113 133
235 57
234 94
214 125
284 24
50 45
99 72
2 4
249 30
51 7
280 239
5 151
13 5
40 263
57 11
307 133
61 15
228 244
16 237
51 203
27 65
127 132
9 299
300 13
267 198
217 38
108 161
8 45
9 167
181 83
26 41
72 159
21 2
201 169
103 288
120 225
1 9
62 131
27 117
169 57
207 229
279 122
208 211
269 72
184 222
54 7
111 36
96 87
75 270
128 111
35 22
310 237
27 55
149 227
69 102
135 92
104 112
189 133
236 5
46 120
24 33
181 283
10 27
18 17
133 177
124 65
149 242
231 42
28 32
139 185
100 89
45 72
180 68
30 7
121 29
163 210
26 67
122 200
18 83
8 97
76 95
179 169
53 24
414 1 2
266 293
12 13
148 205
389 268
343 118
154 72
302 180
377 77
357 45
31 70
59 25
190 180
241 386
206 160
10 81
25 46
90 108
396 339
43 162
11 209
103 139
6 26
399 249
375 109
55 200
394 248
50 32
106 308
180 107
165 382
285 37
266 408
121 199
272 160
92 401
217 183
9 15
385 381
11 92
8 37
210 189
304 220
249 380
113 82
80 17
329 123
3 179
289 227
89 22
4 177
311 202
13 334
6 2
124 281
96 78
283 231
122 121
125 54
36 310
49 160
51 87
17 132
34 6
115 93
147 264
25 29
2 42
336 40
43 13
199 312
195 69
241 46
276 1
182 101
54 27
61 379
280 301
209 259
112 332
90 84
407 84
340 170
27 13
89 358
56 265
9 17
221 306
322 107
102 97
192 63
340 373
320 350
11 168
251 127
18 31
392 59
35 31
18 181
7 33
367 240
208 245
204 4
60 38
111 164
305 23
7 8
279 351
143 1
38 32
155 73
145 117
315 317
396 409
219 248
218 87
361 1
146 274
28 62
356 49
247 240
403 172
5 146
57 51
381 36
257 316
363 378
39 16
40 253
213 43
313 127
133 222
16 8
373 374
242 206
249 321
67 86
240 120
41 4
25 114
298 272
404 257
118 255
10 93
75 35
191 261
19 11
186 267
194 76
122 135
263 115
84 19
52 45
294 320
118 48
25 3
111 39
103 173
37 130
110 220
178 235
23 144
215 105
271 390
297 130
83 39
3 147
5 63
359 78
1 7
18 347
327 262
21 36
231 147
411 9
216 81
30 16
355 231
7 23
69 72
393 196
10 22
227 370
219 372
8 387
78 236
93 134
41 85
61 14
103 254
106 50
25 185
410 150
328 216
16 28
199 252
129 159
194 224
85 337
70 126
79 3
24 348
257 14
80 82
179 339
14 278
201 203
398 220
163 104
229 76
364 347
341 152
400 172
166 162
116 98
117 138
2 1
223 169
91 87
68 107
265 405
4 5
308 323
227 91
125 287
74 11
32 98
104 47
8 10
175 98
31 101
7 9
236 345
53 38
117 65
214 366
77 4
413 344
249 136
184 120
103 40
79 95
292 202
275 44
291 51
9 14
50 151
303 30
17 262
133 105
335 6
20 67
10 324
51 42
34 49
164 300
5 140
18 47
211 103
189 160
3 2
165 52
78 17
97 48
191 228
64 13
27 198
266 10
309 189
353 28
1 299
91 150
55 44
11 24
62 131
92 258
100 43
284 49
31 226
123 326
98 221
45 27
286 245
161 319
376 293
269 139
47 119
129 8
271 368
78 191
3 1
180 243
402 7
57 325
157 127
246 180
87 282
230 216
128 40
225 48
406 162
237 70
3 4
21 68
78 112
96 346
32 15
149 21
156 144
12 21
247 330
362 89
82 172
208 198
194 273
288 34
172 295
176 71
36 88
38 186
101 153
57 71
10 152
5 18
137 290
212 54
21 349
103 360
365 279
76 148
124 5
270 131
136 35
44 178
87 123
388 22
140 174
235 369
77 183
268 114
193 100
244 196
256 294
33 201
158 99
391 1
137 188
26 58
40 44
94 59
397 261
141 71
175 234
171 123
63 73
3 219
72 363
80 99
371 141
56 8
231 232
95 233
48 15
40 352
338 384
36 109
144 277
342 201
226 333
202 90
105 54
40 3
120 85
233 314
331 90
55 66
296 75
12 6
197 118
137 39
272 412
121 96
239 212
193 318
71 307
271 58
185 187
414 412
22 69
65 32
238 56
214 143
103 169
54 196
256 10
223 344
76 61
117 167
250 48
20 8
280 262
315 226
354 141
12 161
56 110
8 11
207 56
9 383
8 260
170 81
91 142
380 395
189 279
127 32
337 338
538 1 2
402 123
118 197
474 320
159 70
96 158
186 111
104 89
2 141
58 90
439 43
56 218
373 217
93 313
284 96
90 435
253 153
191 8
411 315
295 172
313 446
476 135
467 34
180 198
133 53
271 423
335 518
43 7
51 31
189 192
345 441
18 13
37 249
101 108
4 11
210 285
340 214
24 522
22 55
126 95
458 370
1 174
442 454
123 453
13 8
509 240
165 29
128 288
40 38
304 48
384 244
164 84
215 482
124 190
169 240
391 96
107 68
112 38
140 94
79 180
422 363
6 233
155 212
180 535
498 445
72 16
259 218
111 209
31 85
44 54
73 228
46 48
194 40
516 75
138 202
136 298
246 182
145 223
265 324
120 241
96 37
153 346
127 219
156 66
394 200
466 427
326 292
146 272
380 503
371 164
371 523
108 419
89 115
7 153
201 333
207 97
21 289
376 273
408 46
3 12
47 58
80 242
65 146
428 410
41 62
501 106
283 177
19 276
406 519
10 15
49 311
316 162
181 53
119 79
386 140
425 24
343 438
3 149
361 485
206 328
497 235
99 308
3 1
356 62
262 432
263 315
183 456
24 29
330 475
34 254
479 237
495 339
18 87
64 36
105 24
388 264
220 327
213 187
39 2
59 122
69 379
427 97
6 252
460 511
8 37
29 61
201 154
173 214
290 11
45 8
31 211
147 84
26 28
7 5
372 93
305 359
319 318
200 491
191 350
48 396
152 44
434 500
4 78
325 185
257 273
25 6
1 307
275 103
58 274
222 128
407 378
355 263
76 88
54 347
195 87
2 63
274 424
296 79
259 368
127 111
257 312
295 473
420 58
208 161
139 36
493 208
232 267
109 150
50 57
6 33
5 3
90 237
12 71
449 35
442 175
524 288
92 14
4 42
301 23
247 515
226 82
329 316
247 492
122 166
212 264
533 163
75 41
336 433
64 239
68 38
86 72
322 302
344 167
387 180
361 221
169 45
52 162
118 89
190 231
340 367
28 74
49 13
32 8
4 9
63 247
17 4
22 155
2 148
106 81
70 73
58 80
97 39
42 309
177 123
33 314
436 364
517 47
106 179
303 292
21 510
352 447
38 135
19 464
9 77
483 295
14 1
377 97
209 406
342 528
258 233
448 487
225 145
36 10
82 56
30 362
120 145
489 220
490 407
180 530
179 480
538 89
7 129
189 107
520 352
341 332
171 140
444 387
199 73
98 48
459 469
194 343
457 279
534 431
21 400
434 211
153 302
196 204
10 385
217 73
260 125
2 10
36 70
277 73
486 7
3 6
234 297
299 129
119 323
278 218
109 35
354 12
526 305
269 216
44 40
357 120
3 2
101 134
145 445
444 512
2 53
243 75
256 77
452 514
212 410
207 230
296 537
49 383
119 380
241 250
426 416
397 224
46 81
185 305
529 292
161 351
471 465
38 462
429 390
416 355
331 137
52 36
37 101
257 49
175 22
417 431
260 532
182 81
130 111
283 412
9 66
353 507
100 15
244 131
144 14
43 455
42 91
107 143
263 117
220 105
201 221
56 35
154 48
59 452
10 22
132 266
401 114
61 69
415 459
85 224
21 10
77 472
265 251
17 38
108 167
23 15
3 35
168 122
393 383
114 12
30 279
183 155
207 443
125 131
40 352
232 300
460 208
200 137
66 374
81 193
47 203
238 103
196 179
17 31
355 477
378 18
176 28
339 260
397 437
1 2
2 20
152 336
309 403
3 4
170 58
124 338
102 291
330 51
280 229
117 86
168 287
382 311
236 234
8 7
79 12
348 52
370 160
76 14
505 119
375 230
3 317
133 163
17 137
399 317
34 22
494 56
187 171
5 93
484 77
227 126
127 430
155 349
365 265
185 104
124 286
7 27
24 5
245 41
90 531
205 172
121 118
7 132
217 271
8 123
160 148
99 58
404 31
296 381
251 90
111 22
159 184
488 152
335 103
332 148
71 136
364 308
259 440
70 451
506 94
292 260
414 327
110 52
320 3
229 281
172 178
8 138
310 353
188 73
96 102
369 139
11 216
120 32
235 155
318 155
353 363
93 470
527 69
459 478
11 95
52 125
481 345
288 398
85 142
161 16
132 248
338 390
234 111
55 116
389 115
255 22
22 67
66 113
128 80
496 190
499 103
82 366
50 5
103 57
7 19
232 115
142 468
210 110
84 89
182 306
395 92
229 143
43 47
205 293
525 364
513 207
448 257
282 141
168 206
9 83
26 30
321 316
7 65
262 196
320 409
69 151
239 270
268 98
294 59
7 310
337 536
268 417
124 55
358 280
8 157
72 418
109 215
16 1
508 411
33 41
46 28
205 345
160 337
54 392
421 50
79 360
94 77
34 59
413 185
84 10
415 377
180 504
465 358
405 226
450 235
296 461
358 463
334 145
16 173
21 60
519 521
93 342
502 15
261 198
18 26
172 164
527 2 3
357 363
310 262
218 76
82 209
263 196
26 151
69 375
142 133
130 435
152 49
83 27
522 27
218 458
136 21
91 89
24 18
119 22
269 344
505 136
21 431
62 27
449 427
72 40
425 407
290 256
127 49
305 267
139 98
229 317
4 9
16 1
113 267
508 46
1 2
37 40
323 59
307 447
4 20
143 161
48 37
114 40
362 371
229 206
259 359
273 288
260 242
97 76
126 75
280 295
72 101
351 174
473 69
67 189
40 486
1 163
20 296
36 35
85 122
489 514
45 44
22 191
349 49
68 132
107 115
57 441
176 437
2 248
391 460
102 287
493 437
343 368
219 93
161 165
110 56
451 36
56 442
23 453
286 245
30 129
191 243
326 384
162 233
1 3
490 128
382 186
95 385
472 310
119 510
82 275
333 212
175 79
237 71
464 382
277 63
75 17
80 1
16 273
111 84
15 457
213 108
62 299
123 134
450 113
242 66
382 474
223 127
13 23
4 11
48 206
27 188
372 193
519 190
321 101
488 347
381 362
29 272
64 3
276 261
500 62
196 133
26 285
139 291
265 354
262 251
128 81
378 343
369 55
465 6
95 433
292 475
33 199
87 82
68 73
262 270
53 6
315 316
404 388
282 175
138 255
379 102
52 284
387 199
37 79
326 22
6 481
94 524
231 216
269 79
365 419
79 106
300 158
14 96
166 65
452 334
141 50
356 253
335 388
383 126
125 90
52 85
46 246
98 11
454 295
230 219
175 179
373 253
293 52
63 67
29 37
292 503
497 407
518 271
357 125
54 36
131 72
427 291
169 160
205 325
207 190
22 308
112 48
145 93
139 360
429 407
60 29
120 62
159 400
168 502
2 102
290 410
467 331
2 192
74 150
93 148
214 347
154 102
176 87
225 167
11 43
33 217
94 86
113 204
57 9
121 114
72 390
520 213
367 83
61 274
184 74
405 286
3 320
140 54
444 365
17 9
267 309
394 390
146 127
29 167
253 298
173 254
498 473
470 297
8 3
15 5
396 330
41 268
303 210
324 257
316 492
188 259
159 122
6 14
198 15
181 115
174 348
133 21
258 55
94 256
37 51
30 20
51 232
50 43
3 144
31 4
374 170
276 515
281 114
61 36
70 47
92 39
2 3
190 167
257 184
138 252
187 504
253 220
97 162
147 56
164 83
147 195
161 424
299 380
160 111
270 311
27 185
127 343
222 169
348 448
143 57
131 171
335 73
492 513
34 183
64 100
32 4
321 403
65 31
516 435
312 127
13 234
173 245
85 170
27 81
228 148
38 340
393 119
55 480
512 261
187 149
16 18
301 276
466 461
235 152
434 295
423 177
28 411
24 55
180 193
7 21
203 506
365 71
319 117
53 173
395 151
485 511
526 35
150 478
222 265
279 68
59 99
1 4
175 201
77 60
290 329
55 74
455 94
282 370
377 353
20 58
322 330
164 283
30 41
59 26
13 10
89 35
409 134
149 130
507 52
174 355
307 142
28 44
341 214
172 154
215 482
26 15
297 227
443 259
461 116
398 70
1 266
39 28
315 128
33 18
74 417
105 200
59 84
35 69
489 164
411 426
189 361
174 85
476 99
483 36
463 71
22 10
501 86
281 294
197 81
226 2
104 491
124 55
321 342
244 216
180 205
58 432
168 78
5 103
19 66
11 337
418 345
49 18
376 316
52 27
12 525
399 16
100 104
89 202
6 4
178 117
194 16
86 48
306 27
395 445
495 220
15 19
456 345
352 304
41 82
93 78
177 88
223 438
4 182
10 210
47 37
197 214
26 180
5 1
182 212
271 144
430 270
107 101
181 509
108 27
523 288
236 227
3 56
462 334
23 109
13 25
346 153
146 364
135 336
221 386
366 47
401 336
496 390
314 98
28 334
137 103
157 278
240 158
7 2
77 203
90 17
81 264
207 280
289 72
459 49
138 124
21 28
46 407
26 186
471 89
18 35
43 440
23 34
27 23
92 123
477 282
115 156
116 118
10 362
149 338
5 88
421 222
238 223
243 521
402 82
258 436
26 42
250 197
239 44
161 327
322 250
304 270
137 220
358 9
302 134
391 204
56 224
428 384
221 119
318 226
420 32
446 94
24 527
78 27
413 272
12 6
468 77
20 415
408 22
173 414
398 469
10 6
249 171
325 339
68 15
20 76
239 484
35 130
392 210
258 261
350 147
114 117
52 155
41 153
78 157
10 208
211 94
302 313
292 217
81 332
260 331
156 479
328 37
345 175
87 95
166 215
20 116
216 184
422 21
25 113
105 8
453 494
517 470
353 332
71 135
247 112
162 485
499 212
29 12
158 140
41 227
397 77
412 408
92 439
38 30
71 9
63 17
46 20
299 389
487 170
251 18
416 59
105 241
298 406
405 1 3
19 25
167 213
291 349
403 256
52 43
174 99
232 250
257 338
296 318
212 88
396 154
343 305
278 62
5 23
75 154
305 140
75 42
155 84
306 277
33 36
90 60
193 100
182 187
221 335
277 119
248 303
37 295
210 86
58 313
362 136
117 103
308 216
74 56
55 101
7 9
68 113
189 100
61 152
61 199
7 4
180 21
162 231
93 1
10 76
14 13
18 44
127 150
158 5
369 344
77 12
9 175
91 216
83 138
359 278
204 63
178 238
95 142
249 64
131 259
13 9
1 4
137 114
194 73
393 305
267 175
2 8
54 141
361 187
138 203
12 48
333 168
204 340
55 85
405 142
11 45
69 54
19 224
355 120
143 30
148 336
34 96
108 69
68 104
117 192
16 124
328 258
165 95
394 348
65 40
22 3
292 174
29 186
401 137
74 202
47 178
295 380
236 331
153 35
46 53
109 33
284 145
72 21
243 220
219 378
34 30
8 33
246 87
5 17
43 227
134 34
208 114
280 30
244 141
55 344
217 293
177 134
39 49
241 269
2 1
26 12
147 207
233 117
92 128
293 322
143 148
376 225
311 8
260 90
228 265
31 42
183 8
190 96
129 70
199 263
17 363
3 337
127 211
235 49
13 151
110 200
43 3
262 55
47 110
75 116
38 133
198 88
275 385
30 97
346 87
55 122
42 102
174 373
185 301
46 115
47 131
285 100
261 164
121 67
290 37
170 220
185 151
1 139
18 15
15 16
53 55
236 13
316 44
26 28
120 132
53 125
315 377
226 90
77 356
78 12
302 101
91 34
384 296
61 144
111 65
51 39
1 59
119 101
104 279
16 225
32 60
27 160
83 11
400 61
56 10
145 271
71 47
138 205
156 62
353 18
30 239
146 138
63 26
331 368
29 258
334 123
57 100
58 70
32 38
77 171
228 190
50 39
342 130
397 295
95 365
317 91
289 139
82 10
214 34
135 102
58 11
103 21
6 4
31 4
84 61
188 138
4 86
34 206
229 107
299 395
319 96
122 242
144 327
28 29
92 366
47 1
35 11
149 11
66 118
106 90
10 11
8 32
4 95
289 321
310 232
268 155
335 339
30 13
251 148
107 17
142 237
186 345
18 381
176 171
80 370
77 99
28 94
383 292
24 222
169 138
19 105
57 32
127 62
218 120
189 341
20 66
3 2
114 23
44 164
255 199
166 139
37 232
9 287
257 149
19 9
111 230
237 379
392 265
234 19
288 58
12 6
227 252
386 327
19 24
391 314
173 46
29 120
157 35
30 46
109 184
209 93
231 282
53 88
75 307
123 21
54 7
13 240
8 10
126 109
326 262
235 402
64 98
276 145
147 299
355 367
297 275
158 191
136 97
64 19
36 87
325 133
33 68
241 53
169 294
61 20
330 196
151 350
30 300
20 9
179 323
38 39
176 181
324 371
307 315
245 64
281 164
357 112
42 201
6 79
375 170
40 17
251 398
167 358
159 31
67 52
91 291
332 19
73 219
196 40
61 298
85 182
96 312
23 41
112 24
51 382
52 266
96 248
172 143
147 274
354 94
2 27
89 13
1 3
372 80
98 168
247 104
352 342
8 360
95 387
128 253
351 240
314 224
98 304
221 124
270 120
204 256
329 120
179 166
12 163
267 320
179 388
20 62
164 167
275 43
171 195
147 110
244 364
150 197
283 170
226 273
16 389
89 92
106 170
286 216
5 21
255 264
390 109
348 197
140 92
22 73
5 309
15 8
202 254
5 2
28 162
404 403
130 63
71 296
99 161
37 31
27 324
399 37
223 115
80 57
215 100
273 347
26 81
104 145
272 171
113 217
374 52
310 1 2
26 106
7 127
217 73
5 262
310 13
152 121
238 1
90 210
11 14
46 7
247 157
42 111
5 6
173 45
6 67
25 77
220 292
306 3
141 160
207 117
170 248
98 105
281 144
72 53
114 229
54 168
180 204
18 55
57 131
61 128
136 131
172 122
5 4
155 286
184 35
132 83
67 107
255 185
151 32
55 129
23 62
1 90
206 151
81 123
1 61
171 103
4 13
51 52
94 89
161 48
84 103
180 58
196 140
42 20
230 285
301 144
201 109
143 147
60 40
15 3
220 215
5 237
69 78
120 23
154 167
3 4
179 300
245 23
66 42
155 37
164 28
20 26
2 7
275 88
268 273
47 58
65 139
211 86
197 100
195 271
42 76
4 12
159 84
159 302
48 40
59 235
69 53
73 20
234 200
110 208
5 37
297 307
23 21
189 182
4 45
51 108
3 104
59 80
100 84
150 175
75 102
91 154
182 168
154 244
138 26
40 12
46 252
99 74
298 162
205 189
130 56
17 29
4 81
156 78
263 255
21 36
1 11
112 27
158 188
9 10
178 239
101 61
10 145
117 157
29 44
190 95
45 153
46 65
115 36
61 209
42 86
46 51
71 18
47 240
2 1
121 86
117 165
231 95
56 28
299 254
16 64
222 102
71 87
232 10
3 124
3 2
5 119
78 224
144 272
31 133
234 296
98 140
1 85
241 45
113 54
98 20
110 53
249 172
4 22
37 269
168 266
114 14
1 39
214 18
14 21
9 7
203 189
8 25
34 74
150 79
283 224
25 264
49 8
91 126
65 199
32 59
85 88
134 114
141 61
267 120
99 221
53 3
282 210
187 133
23 179
16 27
221 265
93 77
175 258
108 277
242 308
9 91
157 191
1 3
182 230
143 9
6 20
70 75
142 75
23 256
4 24
146 54
178 50
79 169
71 117
251 289
99 170
50 54
253 77
279 157
288 297
223 261
291 178
64 148
295 248
279 284
3 19
246 133
83 53
48 144
23 32
11 84
30 18
254 44
288 285
18 125
10 41
162 257
108 193
121 198
71 96
278 97
161 260
144 192
242 34
309 245
81 223
195 159
158 174
22 225
57 25
92 61
7 158
37 63
116 70
94 186
92 293
38 13
76 82
294 171
243 153
10 118
43 42
137 63
114 268
3 70
86 219
205 227
109 45
176 29
162 104
17 5
1 226
122 5
233 135
23 28
305 209
8 7
66 135
250 86
287 102
163 89
72 181
15 95
79 3
103 202
212 154
108 270
50 6
18 31
35 23
16 185
213 30
216 7
171 183
74 89
16 1
280 273
18 16
48 200
303 261
177 110
228 165
15 34
274 262
23 33
23 166
47 15
149 140
8 194
304 302
218 189
68 3
290 14
276 200
19 259
83 251
112 215
99 236
38 97
354 1 3
162 129
165 245
139 134
233 227
123 71
11 24
134 190
108 54
86 102
96 2
137 219
2 6
317 234
163 268
158 151
139 296
249 252
79 95
160 248
335 48
37 282
203 265
206 9
333 282
130 49
65 227
6 250
17 189
76 59
50 242
58 51
39 30
15 8
88 67
241 310
10 55
103 188
293 327
177 354
336 276
308 66
209 273
33 48
275 253
286 105
269 312
119 132
143 254
63 229
25 61
190 274
36 8
178 320
209 158
330 20
45 5
163 179
230 210
113 73
103 148
109 237
171 48
79 17
100 72
89 11
2 1
330 346
220 168
102 215
262 124
159 205
125 109
52 25
184 148
287 42
288 299
66 167
45 178
151 169
189 328
200 285
343 89
2 3
91 214
156 198
281 59
168 82
212 270
120 9
119 157
181 207
165 160
116 225
138 39
34 173
103 89
241 306
338 198
31 4
9 78
14 5
59 53
164 56
143 353
301 170
50 51
15 117
201 185
156 289
49 25
109 39
84 47
3 60
151 87
109 241
8 1
303 128
73 311
228 86
266 5
44 166
128 174
150 80
202 208
25 17
340 334
231 290
351 107
339 237
8 30
37 115
269 15
148 247
155 313
2 9
223 258
268 304
23 68
5 1
86 79
6 10
101 126
97 40
312 322
321 197
259 35
152 76
257 169
128 85
302 205
176 82
71 217
15 80
7 19
267 97
67 104
145 19
215 350
145 331
172 90
309 206
17 192
3 16
218 62
48 194
27 13
344 288
83 79
8 65
85 4
16 34
76 200
319 49
326 195
252 341
54 34
304 325
47 42
232 214
204 74
30 40
46 12
16 22
53 112
50 181
50 4
55 170
1 7
276 230
29 43
74 55
28 12
87 280
100 212
71 11
141 129
150 235
32 23
29 3
6 53
91 236
111 22
147 161
2 135
92 64
75 56
20 14
31 62
211 342
25 42
57 25
73 129
202 164
1 3
127 149
131 182
213 249
148 160
199 279
251 181
69 38
143 98
112 347
203 129
137 216
8 18
26 44
211 293
316 288
16 180
106 101
163 81
210 21
18 264
45 136
81 9
20 348
187 81
142 11
101 77
4 3
12 33
77 24
87 177
295 257
30 221
52 63
240 60
137 45
35 11
1 38
261 75
222 332
156 111
39 283
5 11
352 318
66 196
37 36
127 112
195 77
41 35
93 56
155 349
238 94
146 79
43 131
116 277
305 106
281 337
187 292
334 16
34 121
144 84
231 329
116 91
134 23
57 191
71 122
168 223
98 91
199 95
159 63
124 74
243 167
64 10
234 184
278 151
147 115
81 246
75 298
4 17
222 167
12 3
71 185
263 53
216 324
105 55
26 2
1 99
226 50
272 95
20 155
87 36
94 8
110 37
231 17
46 67
323 2
236 307
186 152
267 271
140 111
26 90
120 154
66 183
289 300
51 91
190 197
98 107
59 66
54 239
21 10
86 345
314 136
193 29
72 52
318 40
6 133
73 68
211 18
118 24
23 153
217 260
175 164
288 265
54 70
272 297
119 57
253 10
315 235
115 284
9 23
13 12
77 224
102 255
76 213
82 28
13 56
244 166
180 256
24 291
114 98
294 196
364 1 3
127 130
260 145
204 129
82 46
137 275
35 121
187 127
148 53
146 34
209 87
183 175
171 173
100 226
1 236
255 288
263 240
120 125
291 101
6 63
256 1
2 6
106 150
78 294
126 203
107 207
249 274
40 34
11 75
316 280
4 15
61 12
8 184
279 100
52 77
77 307
166 262
21 30
16 105
27 137
318 75
154 88
217 91
142 82
283 114
41 232
309 71
179 107
171 284
85 239
25 353
302 103
23 6
42 8
300 30
34 23
116 166
76 122
252 322
70 216
157 23
203 213
297 301
219 203
75 241
33 56
251 71
79 164
29 126
168 293
64 178
188 195
71 190
62 280
223 218
310 130
191 140
337 108
206 328
255 327
217 363
73 6
26 20
250 205
133 115
2 18
120 91
29 220
5 86
44 40
95 222
65 158
69 208
257 155
45 16
107 129
43 245
254 258
211 33
295 179
180 62
62 53
223 352
2 153
56 235
44 115
152 43
162 143
204 361
321 350
26 189
6 37
345 84
83 79
3 2
58 106
85 285
78 145
221 2
264 66
71 54
311 332
12 111
224 132
225 64
351 362
122 287
205 29
83 277
176 201
69 107
196 200
329 148
218 55
96 65
244 298
41 43
323 342
349 151
75 172
108 97
5 167
51 34
4 141
67 161
312 219
8 7
95 127
25 55
16 53
269 216
230 65
112 117
266 111
148 253
132 22
30 214
168 24
303 71
123 68
233 314
58 246
248 304
13 39
140 343
168 354
212 82
364 49
87 75
4 9
338 69
61 124
56 97
48 175
48 170
194 99
138 289
17 25
344 213
262 299
59 23
109 229
104 57
194 268
2 12
91 165
101 147
33 113
176 49
109 13
237 297
67 18
36 11
102 143
323 64
56 276
336 296
40 49
120 306
212 321
79 11
48 9
2 7
28 16
18 69
79 135
20 159
286 102
99 56
219 252
32 6
110 67
357 55
22 7
78 80
181 107
247 163
69 177
76 119
7 102
299 339
87 163
210 356
29 16
263 273
30 334
341 269
38 202
15 360
163 305
31 27
188 109
36 134
84 20
46 7
19 52
42 66
326 127
17 14
253 254
145 296
335 325
205 272
290 87
355 312
231 75
128 87
97 234
198 210
95 54
242 346
6 76
25 38
114 28
11 14
41 25
131 72
138 23
10 139
24 324
93 36
11 3
18 140
333 25
14 198
196 107
243 11
243 267
270 237
314 347
320 76
112 49
348 138
68 91
248 60
268 292
21 358
138 155
197 9
60 98
4 2
85 65
70 46
351 55
33 13
236 319
153 169
93 340
64 45
282 121
19 17
193 73
238 121
9 24
171 147
244 34
35 259
122 233
119 160
52 261
198 199
101 44
186 68
278 266
64 313
25 100
153 359
311 180
14 94
126 255
206 317
21 88
331 162
54 60
16 15
159 174
153 185
72 33
2 1
256 308
281 315
193 281
48 65
54 11
33 50
156 20
48 68
183 325
228 206
7 27
149 123
16 81
192 91
215 151
240 72
68 182
265 245
151 119
5 20
330 37
13 47
7 13
144 36
78 23
35 13
118 41
192 242
249 20
25 58
21 4
71 116
11 90
136 10
3 5
5 10
3 1
103 53
74 30
76 89
50 57
65 227
206 166
271 207
92 79
237 153
