30
420 409 208
36 8
4 113
177 37
80 146
358 38
64 126
294 125
276 72
212 72
171 105
23 72
5 75
216 77
159 75
154 239
111 265
307 154
378 417
3 7
286 378
46 54
27 28
181 225
97 74
137 217
220 258
198 137
69 211
413 159
7 14
56 48
259 126
186 98
304 182
199 85
314 294
354 347
50 62
114 172
311 396
57 305
356 199
49 70
232 24
243 234
342 154
24 67
114 143
187 98
223 68
344 209
193 214
92 168
3 17
368 289
18 19
266 328
64 39
128 91
155 4
184 68
5 43
189 151
209 39
139 134
125 333
39 12
66 104
327 143
101 112
385 407
170 95
387 134
2 5
108 71
5 389
357 117
371 21
23 63
81 68
62 338
201 78
125 353
4 2
287 243
143 160
150 311
215 140
283 398
247 183
83 122
136 42
195 303
9 109
203 90
249 37
420 350
280 14
256 341
20 213
291 205
345 64
88 182
51 31
175 271
166 339
91 48
346 305
58 76
13 130
224 137
105 46
264 13
338 412
231 392
150 63
89 50
9 27
18 78
206 22
287 362
204 134
201 205
385 271
92 79
101 161
42 185
77 193
16 37
96 3
250 153
49 42
266 187
59 4
67 337
275 216
8 7
207 64
400 137
97 140
2 317
198 253
7 10
320 22
99 61
19 21
55 365
169 12
239 404
78 237
154 278
34 71
327 366
40 102
119 382
176 373
309 39
157 62
313 243
308 184
94 106
222 115
157 355
263 334
120 254
397 248
30 44
26 176
40 45
183 61
65 41
33 11
32 52
394 163
128 202
164 289
236 381
281 165
22 288
405 361
81 181
121 380
8 165
230 119
42 137
270 113
28 29
166 180
123 87
69 166
66 74
167 343
262 296
326 8
73 7
229 73
62 300
1 293
379 408
121 98
141 226
205 312
5 282
154 44
406 217
42 114
348 243
223 401
12 117
21 132
62 361
200 86
102 141
215 285
407 414
110 67
195 220
30 13
12 124
23 47
74 88
12 11
17 25
363 270
88 284
331 99
188 65
104 118
262 144
286 204
3 32
1 11
109 190
36 409
25 370
14 20
132 306
177 221
189 210
135 116
15 95
87 32
192 236
235 12
50 107
289 330
40 18
170 388
186 372
167 88
256 207
33 151
364 281
74 402
120 84
125 255
238 9
150 233
41 12
48 100
416 371
19 46
360 59
179 42
47 323
364 376
418 319
231 128
32 58
390 293
174 197
101 19
20 24
4 6
21 295
171 252
279 301
367 337
349 184
2 85
4 1
107 144
147 51
260 359
156 127
117 138
318 53
3 1
22 86
94 63
35 38
22 241
322 296
13 15
5 3
9 2
201 352
80 10
66 142
148 107
39 158
182 415
1 18
130 310
14 248
134 133
261 319
277 15
162 127
129 10
125 117
11 369
69 1
60 111
131 419
9 195
6 299
133 81
175 46
13 66
146 242
178 332
98 30
279 240
83 77
62 116
219 340
282 335
103 38
329 309
74 336
202 267
351 48
273 209
101 283
52 152
22 18
64 119
383 343
347 166
53 261
79 246
232 321
390 403
163 8
26 13
19 194
69 290
245 14
174 46
10 263
66 315
105 115
255 384
227 184
23 20
7 82
251 216
269 155
274 104
244 90
108 196
21 61
64 268
149 37
395 410
10 16
377 204
6 68
199 272
234 26
140 297
2 324
399 59
239 375
42 33
35 48
24 35
40 164
68 257
173 86
79 30
123 153
208 21
411 134
391 300
154 228
219 134
56 131
374 207
192 292
57 22
37 77
271 350
14 93
285 298
395 367
218 88
40 240
42 55
316 118
302 176
178 7
393 310
11 60
59 127
95 260
16 90
191 75
42 145
31 11
1 13
386 136
84 18
17 34
50 8
192 112
153 325
19 379
53 1
413 380 362
2 1
204 74
404 293
137 110
224 266
371 356
58 7
29 67
164 99
47 205
242 141
223 22
49 64
180 357
187 22
240 400
276 59
116 62
268 363
164 254
227 46
50 195
406 13
248 159
211 193
8 26
410 376
59 228
312 121
378 411
206 12
285 169
1 142
79 186
161 146
206 360
147 168
10 235
256 228
367 313
172 77
2 89
128 130
359 147
269 325
94 188
129 162
152 392
315 109
349 3
146 26
31 122
22 65
92 72
128 21
262 164
382 177
246 171
11 108
66 317
368 13
9 19
366 361
383 36
166 32
97 39
42 180
1 5
1 57
319 136
15 61
81 50
283 350
60 198
60 144
309 21
17 124
44 32
316 41
3 31
114 68
85 272
45 346
153 152
388 259
217 202
194 209
260 18
14 22
3 13
68 36
3 7
111 83
221 3
28 105
125 101
229 15
17 85
224 48
120 158
282 372
394 79
175 290
156 13
62 194
3 117
356 121
76 281
173 253
6 219
87 47
11 127
9 35
29 38
298 24
98 66
133 64
273 241
46 37
15 12
42 41
152 54
343 172
327 147
145 26
73 340
82 3
331 234
282 209
144 178
196 202
46 351
77 269
334 317
24 318
136 184
183 125
329 70
1 210
95 375
51 21
42 102
266 378
214 118
23 79
3 2
187 191
56 157
245 154
95 60
208 218
119 313
123 314
41 25
241 125
30 37
36 28
250 198
60 54
77 403
108 134
213 222
110 29
125 170
112 37
68 220
165 295
35 337
52 55
104 84
90 358
323 391
54 83
21 20
93 27
197 69
393 58
101 257
192 55
338 260
5 40
81 141
74 118
267 141
333 67
79 284
49 71
165 105
66 27
10 52
54 100
20 10
50 6
34 103
369 21
355 370
104 361
287 385
257 294
326 109
379 322
165 345
121 14
328 112
121 339
137 207
99 154
346 390
214 342
6 70
2 236
64 90
78 185
24 1
179 166
151 55
30 1
5 208
55 231
54 259
203 147
252 90
273 348
74 68
73 77
163 80
135 247
255 22
88 171
347 187
302 364
18 27
293 140
7 10
138 55
108 387
73 19
402 300
63 8
237 126
155 268
297 105
101 43
147 149
398 104
220 261
76 59
225 152
54 37
45 234
126 63
75 58
255 289
148 251
44 132
30 33
34 25
14 18
21 143
407 105
352 324
119 21
10 233
354 201
133 150
69 66
341 153
63 373
238 136
56 22
413 319
135 45
120 7
74 380
32 22
135 292
265 235
362 349
181 17
6 9
88 13
320 301
205 230
23 11
59 36
365 293
169 146
104 113
47 107
6 53
258 76
169 300
23 25
45 244
5 62
190 76
216 133
136 18
11 16
9 323
232 169
1 11
321 298
48 106
37 159
405 340
123 32
85 148
94 30
186 336
306 70
291 269
20 308
176 150
129 64
139 22
43 31
283 111
17 1
35 49
4 3
84 14
277 85
42 109
18 39
133 301
155 62
332 10
342 374
219 384
147 32
5 14
119 240
12 7
196 10
189 15
59 376
324 216
167 37
28 20
79 215
45 86
343 396
2 48
264 181
178 401
155 213
287 141
6 5
397 310
5 47
211 270
199 62
29 1
311 111
249 146
47 96
163 263
174 120
177 120
280 195
160 6
216 296
50 274
307 58
353 259
243 78
212 136
60 275
279 72
91 50
381 290
166 377
158 271
96 299
99 60
200 86
395 314
175 65
72 68
182 126
12 201
408 18
302 158
355 312
26 173
305 230
350 389
115 60
1 45
50 78
23 80
40 239
303 7
322 90
228 286
412 367
335 126
288 56
76 278
140 118
131 112
325 399
4 8
7 226
4 1
311 409
153 193
251 344
309 330
133 310
386 270
304 7
238 59 136
24 104
7 13
45 1
27 82
6 50
138 50
150 159
18 92
145 165
222 219
98 37
26 150
10 29
127 41
74 189
23 194
106 60
119 163
1 154
174 227
24 124
15 111
5 11
12 223
117 26
105 95
11 90
13 64
31 109
228 153
188 113
102 23
91 16
160 28
29 144
105 180
39 155
32 190
56 34
123 106
11 25
21 119
16 38
32 62
120 76
214 213
37 78
3 5
121 10
16 21
46 59
172 89
121 207
58 32
140 136
78 220
122 7
68 141
16 203
29 196
30 84
97 82
21 107
2 213
43 57
16 52
86 193
233 184
55 36
87 40
18 14
6 32
79 76
85 24
131 29
69 33
222 231
199 136
202 64
162 52
147 98
79 181
77 22
2 100
31 101
82 175
36 13
183 177
62 74
73 51
99 235
187 229
46 142
157 46
28 18
47 135
27 21
24 112
12 133
179 142
59 71
225 50
148 81
10 20
9 1
36 224
185 192
28 40
88 198
32 43
47 170
37 205
90 126
104 164
27 44
123 236
10 5
83 226
116 67
4 7
7 31
208 139
61 38
51 18
1 4
151 68
12 14
145 33
80 36
168 123
16 23
201 150
89 22
56 128
2 49
153 41
48 191
217 52
125 171
28 42
232 139
39 6
152 101
26 14
189 211
84 88
6 3
75 146
99 82
54 26
23 184
29 63
83 17
13 108
39 48
70 110
17 53
34 32
69 93
84 215
130 128
52 115
129 7
100 118
41 5
173 117
27 66
10 15
234 41
94 72
1 3
109 197
114 93
46 5
3 2
31 218
237 24
88 200
9 22
50 67
56 70
38 47
133 209
156 81
4 2
134 71
72 75
27 68
113 8
41 204
112 143
75 86
14 19
221 220
136 47
28 35
62 81
169 136
174 238
166 45
176 148
125 118
57 65
57 76
54 185
1 186
116 206
7 72
137 62
51 161
12 3
142 230
174 12
69 195
52 182
7 60
149 135
216 201
11 17
88 167
6 8
23 187
95 38
24 6
37 21
212 86
136 139
46 219
8 16
16 96
71 103
30 28
40 158
132 13
177 129
18 33
161 178
210 112
352 45 52
179 108
11 54
37 200
285 56
303 279
117 24
21 44
224 260
144 323
74 271
36 212
237 108
155 187
17 193
339 276
323 335
107 343
128 234
135 336
138 57
2 9
42 102
137 136
41 114
76 17
247 240
175 4
310 227
216 96
143 235
72 110
21 18
8 1
120 76
9 38
164 153
142 218
130 305
30 64
7 40
160 226
14 290
302 56
1 3
67 109
92 113
75 50
244 308
274 15
9 23
65 32
31 131
270 164
159 94
195 106
105 202
123 264
4 13
23 35
350 137
33 254
244 345
320 159
180 294
328 316
143 148
100 224
26 338
347 212
59 35
170 114
249 67
155 78
52 1
190 31
20 49
177 230
204 150
4 3
96 298
13 47
88 111
203 141
279 107
88 307
97 89
201 6
83 17
25 135
75 273
225 272
262 128
295 62
185 137
30 4
48 171
144 291
130 198
2 28
100 61
214 66
145 9
16 89
92 162
287 168
211 217
337 145
10 43
36 91
173 135
109 129
278 318
70 2
5 19
3 5
172 11
250 243
241 169
153 137
206 58
177 156
136 261
8 14
179 263
1 283
42 12
73 132
69 43
13 192
349 283
10 80
73 229
134 340
196 231
341 156
219 32
220 246
49 348
253 14
284 281
141 22
131 317
61 51
167 149
63 86
224 239
63 41
7 191
95 18
18 33
136 84
168 98
103 89
231 252
136 258
208 245
280 245
13 26
17 6
3 2
3 24
140 117
144 28
232 187
189 141
22 81
334 166
44 122
10 22
220 9
17 123
46 17
142 39
277 293
72 174
130 139
42 66
133 265
319 51
101 16
37 24
41 98
97 161
81 90
114 296
223 304
333 121
209 15
19 55
156 142
7 1
134 236
66 331
289 30
96 70
4 39
180 38
266 232
68 22
31 223
51 116
50 21
71 85
124 80
351 197
269 224
201 324
109 316
47 53
194 80
9 25
96 197
146 118
11 2
58 93
63 72
149 182
60 46
27 16
184 19
199 151
15 8
166 100
186 43
30 275
2 6
36 45
42 58
43 79
332 258
244 183
216 313
34 21
74 207
37 178
88 84
133 181
242 94
57 62
39 119
153 208
196 175
45 99
127 143
102 115
69 121
278 269
125 124
55 329
130 84
1 2
107 100
281 61
252 344
305 311
11 149
77 78
78 255
288 95
127 102
168 227
5 12
20 163
188 154
67 74
342 262
105 22
183 26
301 182
299 176
23 51
30 259
1 292
297 127
30 221
25 32
38 71
20 31
54 67
282 228
222 31
44 56
2 10
29 9
74 87
315 125
277 173
92 1
166 286
226 268
143 205
94 64
14 243
322 101
169 8
103 326
232 257
312 101
248 189
106 152
229 309
160 50
45 126
68 82
238 18
267 48
73 17
128 108
104 18
300 39
210 146
108 112
276 47
108 55
215 98
16 1
154 98
100 233
18 9
98 134
212 228
225 63
165 55
306 119
36 12
18 20
327 264
106 96
240 147
102 147
57 32
127 150
51 176
330 178
256 100
325 223
43 158
45 352
118 66
346 166
321 213
197 211
22 151
46 133
1 48
314 54
41 17
84 43
64 157
213 54
77 28
63 251
484 42 432
28 147
56 252
153 173
236 156
302 54
439 88
10 2
246 350
311 250
356 358
196 127
120 48
20 278
11 29
255 61
85 42
4 5
277 334
166 34
52 168
223 122
76 44
132 379
142 101
317 229
102 46
452 5
451 71
174 382
240 138
48 98
228 312
25 474
199 46
50 28
14 158
162 156
386 136
47 188
98 356
24 67
126 129
1 33
476 140
252 387
12 9
133 90
108 112
36 23
200 143
1 10
50 77
299 38
18 4
14 43
22 244
119 79
204 207
100 92
117 18
52 195
415 313
41 324
167 95
62 30
347 193
110 47
4 20
385 161
410 421
202 226
30 374
179 438
8 6
40 93
402 247
428 257
211 95
128 124
18 70
292 298
7 9
393 68
263 461
343 50
46 95
3 7
115 378
79 17
420 106
454 78
151 86
414 133
50 91
286 256
207 304
271 39
332 151
208 214
78 262
248 92
149 120
259 306
430 399
11 24
14 45
108 9
74 366
10 11
35 65
12 14
267 33
96 294
69 182
231 19
220 119
70 122
90 273
208 195
333 360
342 291
126 69
194 7
239 339
425 449
152 125
433 321
340 284
38 83
4 2
185 40
30 22
150 138
375 149
484 288
158 201
245 89
188 303
191 411
192 180
280 249
172 217
115 7
151 283
319 362
99 21
6 49
30 346
248 260
31 28
2 145
10 63
87 73
78 184
22 259
462 59
165 38
478 156
473 63
93 114
12 239
446 346
64 159
173 457
176 282
127 93
400 77
202 162
104 123
260 320
5 9
295 290
437 74
52 18
17 32
361 39
403 397
125 94
191 381
230 253
174 319
389 292
174 24
101 37
57 103
141 431
272 479
300 355
268 24
198 216
69 180
120 331
444 82
184 418
336 63
111 73
89 72
445 257
405 381
5 16
109 52
94 10
9 34
310 145
97 13
76 81
322 282
44 213
343 432
242 137
92 237
242 292
101 301
39 7
284 206
83 227
197 429
132 115
155 110
65 163
323 200
465 266
143 44
34 397
145 296
112 469
427 306
447 308
300 327
205 341
221 209
288 111
236 348
458 351
190 65
80 246
325 168
422 316
145 364
64 92
13 467
376 169
63 198
369 245
468 220
49 57
139 368
24 164
275 92
330 176
151 443
417 471
178 307
62 169
329 184
6 3
130 35
298 328
455 257
192 243
124 22
215 10
276 398
131 316
442 264
40 26
419 139
9 58
205 131
181 344
22 4
267 463
59 88
390 281
222 448
396 179
217 359
134 101
203 25
235 263
183 69
459 464
15 154
247 155
190 265
70 80
106 22
423 88
51 177
238 227
436 233
17 61
23 20
241 55
483 241
154 178
123 456
107 274
83 224
156 50
426 15
12 71
85 121
19 41
13 59
79 228
333 111
78 197
391 195
43 272
56 20
96 66
253 264
363 3
25 371
170 52
38 82
104 23
482 271
11 15
140 270
126 160
370 289
47 191
472 271
380 11
11 19
415 450
94 481
153 61
26 2
186 254
37 66
86 21
78 9
13 25
133 157
373 131
315 173
179 276
27 2
209 32
87 326
46 28
408 332
1 285
187 114
75 193
392 384
189 279
26 131
38 4
290 197
314 55
181 256
167 287
187 406
152 186
252 321
395 316
297 288
11 13
206 47
35 6
175 71
243 269
98 357
72 4
92 477
225 1
117 410
291 49
118 16
62 305
50 161
401 364
309 92
410 416
158 257
66 235
440 150
86 210
90 48
431 441
41 425
131 277
105 91
12 37
475 215
422 480
293 96
263 459
354 17
399 99
189 58
9 181
28 16
69 1
43 300
73 138
31 113
206 289
84 14
219 97
352 119
203 388
407 244
8 1
106 136
13 17
8 64
232 167
230 193
46 51
121 281
247 335
53 12
174 179
413 164
245 266
246 470
233 201
424 92
226 250
16 74
148 36
144 83
44 18
249 35
15 73
238 308
172 58
48 42
351 125
30 338
229 129
16 372
58 234
435 74
59 212
162 204
313 131
460 241
365 159
138 384
261 223
37 116
68 66
42 28
349 97
337 154
127 353
55 47
118 141
171 164
107 30
171 409
21 6
466 264
32 453
251 187
72 176
254 318
4 140
383 311
394 32
139 137
54 35
36 417
137 65
404 5
8 367
146 138
135 36
377 180
434 245
200 218
60 37
222 138
32 75
258 188
307 345
47 3
412 81
417 190 315
313 50
220 411
97 271
258 45
372 25
19 135
54 53
21 81
333 90
4 5
33 156
228 1
264 331
70 23
179 20
2 242
407 267
127 22
125 181
25 121
286 193
36 73
274 61
312 291
63 133
391 210
347 213
406 384
46 71
1 345
160 233
402 360
210 193
90 310
277 131
110 227
154 110
378 176
15 53
113 28
125 84
21 215
46 50
38 36
161 90
40 349
105 38
147 84
92 295
54 146
15 103
6 2
147 232
247 156
63 259
173 155
294 138
238 414
54 417
265 238
213 322
51 107
336 410
19 6
217 222
215 299
36 22
138 196
49 38
113 130
405 1
335 313
20 278
368 7
255 354
5 8
57 168
239 244
294 382
251 26
251 283
88 54
101 141
7 2
41 46
230 141
291 358
158 285
6 330
264 208
217 185
175 33
305 50
8 224
291 364
110 45
106 189
334 23
3 1
55 51
10 32
17 323
160 212
151 118
309 100
17 2
105 202
362 278
100 254
84 83
263 188
97 353
167 135
317 120
137 56
16 4
321 63
27 72
149 26
340 276
136 54
25 124
142 343
64 48
34 140
141 279
348 350
56 218
68 35
60 241
51 192
85 95
231 122
276 390
124 342
361 182
236 76
385 50
204 57
45 35
58 46
53 69
105 332
246 232
170 10
328 74
29 47
115 51
379 187
70 142
288 302
86 16
153 20
20 10
306 248
81 365
77 159
14 1
139 249
2 41
403 166
290 375
13 29
284 175
10 57
387 183
131 121
59 39
262 255
164 90
11 83
5 148
355 311
307 29
25 3
216 398
134 255
213 404
303 14
8 26
85 64
191 93
30 20
177 82
14 67
21 8
112 304
106 58
247 338
184 39
49 252
225 122
94 17
315 201
276 218
164 185
9 91
200 118
152 23
128 37
349 386
190 170
72 119
58 341
45 62
394 221
367 141
85 293
4 3
339 292
57 150
288 156
116 30
165 28
82 42
4 273
150 281
162 172
155 152
24 22
74 98
289 258
12 3
400 23
83 104
280 183
122 34
38 114
396 11
348 282
316 112
52 60
166 131
4 118
61 63
397 390
221 116
87 256
282 20
183 29
127 240
123 409
96 33
48 13
401 156
324 186
1 292
344 257
24 102
325 49
380 263
235 143
47 65
327 50
62 158
103 371
199 55
84 176
195 163
213 56
366 194
245 112
75 186
115 160
18 415
24 42
4 77
318 229
7 28
209 311
60 162
112 15
22 7
42 178
216 46
373 246
319 103
392 311
357 91
203 125
291 268
61 19
219 123
250 166
52 5
154 351
57 138
301 235
298 266
40 37
33 43
296 131
189 205
25 33
14 211
139 359
395 351
266 90
109 28
8 44
321 388
4 11
237 200
8 13
118 144
119 132
117 363
144 174
126 48
137 194
234 46
261 59
1 10
239 161
166 267
384 200
20 117
25 393
39 89
46 76
238 83
46 412
26 129
125 187
3 23
95 108
116 275
169 56
206 63
102 370
27 253
70 260
66 13
197 73
214 106
320 142
39 30
279 336
18 99
186 413
125 171
60 208
290 12
33 360
60 193
383 351
212 337
127 157
188 21
163 60
356 374
88 182
111 120
134 102
19 87
90 11
123 23
389 280
115 269
21 56
57 75
97 14
21 27
101 51
356 300
27 37
182 272
56 111
326 266
172 201
9 8
309 369
2 3
71 100
209 112
65 79
198 50
62 92
223 40
282 314
18 31
3 15
93 229
139 125
90 145
329 145
408 340
93 180
226 11
308 288
35 13
116 243
170 270
207 84
69 78
287 237
190 416
47 93
14 74
97 220
365 376
215 297
381 163
1 2
5 80
312 377
373 399
18 17
62 143
300 181
345 346
173 268
257 123
34 51
10 248
8 34
163 352
497 179 408
352 33
141 294
32 39
7 28
119 376
211 1
242 200
483 270
69 109
139 328
393 364
206 346
190 145
26 205
36 38
155 156
45 49
64 135
116 79
189 141
296 97
387 251
464 425
16 14
485 322
300 172
122 334
285 191
177 1
123 62
13 40
318 322
247 437
4 7
354 203
436 463
360 94
192 365
320 375
60 8
29 12
297 95
159 73
335 340
117 68
295 5
246 416
282 336
6 18
207 217
71 373
470 273
46 27
37 101
65 331
93 326
352 487
467 482
192 2
353 94
209 48
102 311
53 434
150 347
82 128
96 411
403 222
71 91
69 31
50 79
174 103
350 107
41 64
3 454
115 379
206 458
86 212
284 182
445 8
50 371
158 71
345 264
73 198
177 289
219 157
249 225
244 73
101 368
263 23
141 162
409 383
63 50
54 57
203 6
175 138
388 371
250 88
14 6
26 130
2 7
386 47
39 426
89 127
72 213
167 130
218 149
418 221
93 182
120 90
370 421
288 16
131 154
496 369
298 205
332 344
415 328
70 405
392 375
282 390
141 406
82 30
151 104
348 315
2 8
82 342
341 141
100 33
131 20
162 178
357 163
77 41
318 127
202 349
404 128
56 206
144 19
229 124
60 183
35 8
28 408
51 447
246 324
210 140
204 69
76 381
285 457
88 153
119 419
98 45
34 58
133 67
75 88
449 78
165 97
84 3
6 11
94 222
52 38
155 161
42 432
389 280
23 83
366 260
4 71
3 15
37 1
461 406
59 486
303 52
305 225
54 62
491 332
122 55
293 268
240 143
140 208
358 46
414 394
427 329
453 419
473 110
110 382
331 462
4 176
255 369
377 163
25 7
82 246
6 304
370 313
429 413
13 21
27 70
106 397
3 12
469 456
407 40
436 184
438 236
241 181
97 10
130 146
198 255
320 47
425 110
266 41
215 37
296 396
24 20
299 63
227 193
110 60
30 410
451 371
290 127
73 42
32 26
317 475
92 13
191 9
28 53
62 136
395 330
71 270
26 30
88 362
104 237
150 102
95 118
20 51
217 256
171 109
374 26
466 116
145 423
154 443
221 176
61 310
72 58
225 68
141 103
142 105
333 19
240 420
66 64
18 233
261 132
54 52
35 112
224 258
409 442
468 424
296 315
126 29
243 323
39 125
220 278
121 20
448 426
228 274
279 75
286 231
210 220
17 16
54 90
114 49
164 98
84 441
101 367
332 152
12 450
439 129
237 265
247 164
63 200
139 92
164 413
178 262
199 113
34 13
81 111
355 332
159 497
55 74
119 32
490 400
440 274
78 259
176 245
452 105
378 209
267 287
58 281
136 272
129 15
47 96
46 302
41 132
428 77
178 230
93 401
253 361
243 184
9 8
31 21
166 385
14 113
43 3
111 216
180 50
42 44
187 459
22 33
115 61
65 51
383 456
224 152
188 335
96 197
157 27
68 3
285 412
231 25
230 283
87 19
152 63
99 306
107 25
327 153
79 330
184 166
383 54
181 51
149 398
273 51
160 133
186 137
7 23
25 195
364 190
268 69
309 205
316 21
61 60
2 20
115 339
14 89
108 35
67 37
189 260
229 424
148 188
97 103
480 298
380 40
22 18
309 488
201 164
93 59
137 16
495 444
68 80
159 275
21 81
142 319
467 446
119 257
400 183
3 4
471 290
232 277
234 42
465 412
253 251
276 200
122 343
228 35
136 143
317 13
132 226
417 126
153 166
175 187
125 147
12 314
30 106
202 33
134 118
5 105
182 433
99 31
174 337
354 494
493 286
359 402
78 23
254 430
248 49
149 93
391 257
193 194
476 227
124 93
86 49
163 28
356 353
97 168
151 282
149 489
280 108
384 312
55 9
239 227
1 5
269 128
34 41
103 173
416 478
56 11
185 47
472 492
8 76
80 140
455 294
59 169
6 8
472 381
3 5
235 31
145 63
17 27
42 252
481 445
417 435
308 121
13 7
102 16
227 351
274 474
214 98
165 446
254 153
53 95
38 321
277 444
338 24
59 11
60 325
396 479
196 165
58 148
39 42
96 292
19 4
66 155
52 75
123 193
36 20
72 422
267 99
251 191
307 80
238 209
329 274
47 13
264 203
268 359
313 98
293 312
68 172
271 20
484 401
26 9
104 79
221 477
199 372
41 94
223 18
205 207
85 37
327 431
50 18
11 236
394 223
8 138
2 48
120 363
255 301
179 107
6 1
460 201
71 232
170 5
399 396
291 149
1 45
10 8
420 282 183
1 2
118 121
239 151
274 181
25 141
113 100
134 333
60 321
41 131
292 304
72 30
1 35
284 202
136 341
214 383
177 232
173 282
10 128
250 281
277 389
114 123
11 12
399 223
233 188
92 197
234 137
369 401
255 30
254 83
40 31
9 2
237 207
319 6
8 33
324 225
44 306
164 297
223 162
1 3
314 85
416 372
82 17
415 395
220 74
396 407
79 5
271 221
230 123
46 59
81 124
27 240
11 120
162 14
180 132
60 71
35 300
146 150
308 81
6 7
27 149
146 166
191 155
88 387
379 150
326 39
38 362
269 364
215 273
358 344
282 350
40 213
329 236
155 315
220 266
146 400
41 7
182 26
62 94
172 349
80 366
68 336
205 101
60 14
323 302
109 83
381 245
394 243
223 262
114 88
78 59
53 1
67 49
36 26
34 104
16 51
133 123
58 8
218 250
83 293
70 380
14 15
38 107
73 137
28 30
90 139
398 233
102 183
316 188
135 203
375 186
365 329
45 89
109 136
14 11
116 238
116 5
318 63
177 59
45 48
138 121
81 91
225 84
409 106
8 38
8 19
138 385
14 117
417 294
232 313
256 342
231 291
339 216
264 185
182 280
18 289
216 334
369 264
111 1
257 70
219 20
60 83
323 327
352 292
42 34
127 185
404 26
7 32
19 110
31 112
95 16
200 91
367 355
217 6
7 4
222 246
50 52
256 311
5 118
215 167
49 54
147 75
114 322
13 22
307 52
87 42
28 226
84 7
227 235
39 33
6 17
17 178
62 157
216 35
165 155
371 118
157 393
279 226
144 158
346 280
114 152
119 253
75 46
16 6
372 41
29 28
355 287
86 204
243 17
69 1
258 247
188 62
260 290
10 28
99 37
134 208
284 337
20 419
14 27
64 9
29 68
43 127
24 3
243 278
373 168
74 66
243 388
210 27
63 36
345 26
37 73
106 43
361 177
89 143
368 120
58 195
344 219
277 185
175 94
154 88
50 30
47 85
354 320
51 202
299 241
356 294
154 378
312 48
222 231
209 195
221 222
74 90
10 37
139 406
134 86
75 211
196 124
405 209
287 51
184 60
223 276
363 312
5 283
17 23
6 5
167 140
146 139
80 47
48 49
46 4
186 42
18 25
53 103
56 34
52 76
9 13
193 247
148 92
61 19
39 198
155 189
48 181
269 90
335 75
151 81
43 55
390 179
255 263
88 298
97 16
21 81
88 224
55 242
42 377
317 120
44 93
325 57
285 134
79 102
90 391
325 328
69 374
21 303
13 62
105 32
55 159
57 176
26 70
56 86
302 216
288 220
8 169
101 160
292 72
402 396
249 353
267 87
45 3
66 47
241 61
100 4
80 171
393 418
193 123
92 35
395 239
370 64
275 180
248 168
320 343
245 295
175 179
384 174
57 251
133 153
280 332
256 296
121 140
21 218
25 34
360 150
57 7
228 27
7 10
161 201
88 64
120 272
249 185
32 98
43 2
178 194
330 65
109 135
119 164
110 413
331 104
286 145
270 179
101 82
21 2
376 363
95 96
9 11
386 182
241 294
252 143
144 207
256 103
79 125
47 37
420 135
357 12
218 414
244 22
72 129
226 260
107 115
412 303
34 126
161 145
77 5
130 116
351 29
345 359
408 326
233 340
21 320
77 259
108 58
91 119
13 26
132 17
221 185
172 87
68 229
31 5
57 410
215 265
43 44
301 56
170 96
99 338
347 117
173 124
212 50
142 25
190 60
310 31
268 112
359 392
35 261
20 12
155 119
258 382
57 305
187 145
60 156
168 4
121 192
122 120
89 245
360 396
6 348
275 397
65 19
163 49
2 5
5 18
8 4
99 144
3 4
199 22
214 210
411 355
206 25
236 97
145 142
196 403
174 131
227 183
309 266
318 298 135
90 8
45 76
7 5
74 167
192 151
57 52
4 19
54 139
214 76
199 25
257 206
181 189
2 240
224 91
32 33
44 6
303 261
60 19
6 62
195 174
184 76
210 298
65 48
25 54
203 253
230 44
248 142
140 288
32 6
4 1
42 236
3 27
61 163
179 242
113 81
136 106
218 181
57 244
20 12
5 249
188 103
312 190
12 88
176 206
17 25
92 296
155 85
84 123
4 16
173 268
50 27
62 141
63 38
267 91
149 202
209 280
35 193
122 127
106 209
233 29
30 211
87 19
232 201
262 284
264 47
274 51
45 74
6 30
24 143
88 179
92 58
235 29
286 170
80 36
151 134
64 25
10 40
108 95
111 157
168 315
169 113
39 20
165 266
39 41
238 5
99 79
250 123
81 102
91 160
71 174
20 245
290 292
17 37
72 299
55 67
155 187
106 94
290 186
107 68
11 95
137 168
29 98
103 173
37 69
81 216
63 239
150 50
95 122
18 114
82 29
171 116
76 272
114 285
31 43
133 14
313 30
14 158
31 198
205 136
2 8
317 299
270 198
120 124
309 153
46 147
10 86
62 208
32 83
156 159
166 116
9 2
130 32
62 210
9 75
38 258
176 128
89 207
91 4
217 113
5 26
100 110
220 304
40 51
283 306
137 156
14 162
5 4
78 14
84 103
219 85
124 203
79 78
164 162
129 12
119 132
164 185
212 195
305 167
118 170
48 10
107 115
289 192
160 177
259 47
144 89
152 293
55 26
281 191
23 190
294 32
43 89
153 220
10 15
282 220
9 23
105 153
11 13
119 68
60 175
191 131
74 104
22 29
31 61
47 34
18 263
301 13
246 96
11 8
142 311
145 4
222 215
138 4
28 194
24 22
142 91
5 228
68 71
62 97
45 27
51 252
49 37
227 221
1 10
287 34
3 1
6 131
68 36
72 84
229 155
213 237
215 59
66 152
3 8
57 58
251 141
120 29
121 7
21 2
26 109
252 314
53 7
277 113
223 260
234 93
181 132
245 291
134 183
38 6
272 316
243 134
49 96
2 31
265 230
72 125
56 1
213 134
132 297
98 310
17 15
223 217
56 70
132 137
111 27
34 77
256 182
14 13
17 22
226 77
2 6
228 283
300 281
269 202
93 30
56 72
111 112
11 126
58 180
46 1
172 61
26 28
178 159
85 69
120 204
318 243
161 41
17 18
254 10
37 140
247 241
60 81
46 165
118 99
221 165
186 20
3 59
201 51
116 64
307 109
149 125
154 145
258 262
278 11
35 19
34 19
108 302
9 94
64 73
276 3
241 201
146 52
248 295
279 264
225 179
6 7
101 7
117 110
200 133
28 42
107 135
12 1
33 100
103 197
275 174
128 124
271 76
176 196
6 105
50 52
231 60
43 308
25 66
261 97
104 273
76 148
111 255
123 134
182 128
23 36
480 3 233
291 326
290 126
62 64
129 368
305 6
420 177
49 31
288 154
107 18
29 116
130 370
273 348
20 12
170 127
112 9
200 318
231 194
240 142
24 249
423 397
197 62
346 401
78 453
99 365
103 219
479 98
442 123
204 398
27 137
26 17
167 274
63 1
254 227
454 163
40 80
302 57
89 127
292 264
311 243
319 51
73 46
84 74
209 407
204 432
281 181
4 144
173 80
74 233
148 150
213 4
34 10
387 292
160 357
476 142
60 381
124 21
205 15
403 267
276 383
133 51
260 31
121 120
113 334
116 141
20 98
119 208
220 27
196 126
328 174
209 27
135 162
239 276
246 237
401 478
253 29
293 181
53 44
27 18
97 34
11 204
82 126
239 392
299 390
409 367
295 280
15 33
81 100
90 404
291 97
448 77
70 15
102 11
166 176
9 21
155 135
347 108
36 15
36 60
57 118
363 125
336 331
33 37
382 301
250 9
321 221
70 130
66 283
41 145
298 380
157 257
308 427
255 266
3 22
256 163
76 88
289 59
435 413
2 4
338 131
60 161
440 176
288 424
263 159
9 171
58 45
223 227
339 196
194 477
142 247
96 200
30 201
212 114
48 51
12 41
438 71
271 117
70 131
430 48
172 462
103 148
4 1
186 314
307 258
273 259
106 8
2 28
306 85
175 17
93 164
12 2
278 5
125 183
335 360
223 75
124 388
32 203
3 6
14 5
468 332
7 139
57 8
13 244
275 429
324 231
349 10
54 287
260 458
11 31
329 328
218 201
18 13
9 2
408 396
221 425
68 439
22 188
146 21
298 470
122 86
183 243
150 377
333 324
17 113
168 120
261 282
457 150
192 69
67 34
42 286
120 73
43 4
189 105
214 71
108 185
421 238
38 47
42 261
88 108
8 5
284 234
174 87
39 5
265 40
444 268
89 7
12 29
69 26
1 11
322 14
327 346
22 25
241 209
20 30
389 320
65 21
119 12
44 79
42 221
299 108
3 10
115 67
411 194
434 291
69 215
83 2
332 177
366 193
312 433
152 112
78 27
466 323
92 82
123 154
140 419
128 471
72 323
172 460
114 7
464 374
143 193
56 35
66 341
185 355
38 93
394 200
120 467
258 455
86 182
210 119
71 136
334 406
79 181
172 99
267 147
259 251
142 124
367 304
426 446
200 239
102 264
198 78
159 135
77 82
140 114
109 385
91 96
292 298
242 374
325 228
396 332
79 94
167 110
248 29
335 445
409 456
296 297
303 122
303 343
452 18
142 149
369 418
166 224
151 359
50 54
245 114
42 21
166 84
309 184
17 46
154 235
132 447
1 191
105 80
285 208
384 238
67 179
351 23
30 85
320 247
76 251
111 480
104 68
153 122
276 345
81 18
206 414
422 225
24 71
33 52
186 229
16 90
260 340
58 74
362 45
95 57
356 335
123 5
62 2
238 262
350 200
413 219
129 122
312 260
26 135
352 235
2 3
28 165
188 463
415 389
40 11
87 225
32 18
4 48
344 330
61 38
116 255
41 177
195 310
198 232
134 84
236 104
3 169
410 75
451 14
138 465
143 66
55 110
14 19
30 375
437 419
327 272
262 315
66 55
474 174
25 342
216 180
353 268
376 237
18 24
23 3
2 7
121 228
316 233
44 38
354 278
50 178
160 3
3 1
174 230
164 211
20 277
117 73
138 234
337 326
428 218
180 270
33 186
475 453
405 280
276 412
45 42
80 99
123 180
404 450
15 1
287 378
469 49
128 54
133 207
461 277
114 242
416 176
459 242
364 181
252 17
400 24
393 64
190 358
194 23
237 30
92 391
417 473
33 103
199 144
86 20
87 46
256 379
55 22
294 131
371 33
238 32
31 331
417 369
130 156
330 97
350 395
6 38
2 5
68 206
13 5
258 304
441 364
300 116
317 3
136 275
301 142
28 335
294 296
208 426
230 397
76 4
23 50
313 436
372 249
280 188
221 269
472 121
200 308
150 279
204 217
101 187
77 53
72 35
195 449
287 399
125 80
30 268
68 65
202 198
85 101
71 157
2 16
216 402
95 226
167 184
35 2
52 132
40 163
431 311
373 348
54 151
136 158
96 195
43 91
258 60
313 224
109 386
131 147
138 78
159 222
361 40
369 323
116 190
51 272
21 59
443 362
110 111
35 109
17 13
66 75
385 71 45
139 22
344 136
170 94
119 89
187 259
182 80
69 40
141 96
71 208
21 67
174 108
87 30
94 36
117 48
36 314
1 13
137 68
8 257
58 4
6 5
91 230
70 147
313 154
266 303
54 17
70 59
10 15
11 25
214 292
209 258
215 138
125 14
9 88
301 364
333 89
56 319
216 322
355 143
7 86
177 34
87 341
212 222
277 362
217 83
42 354
176 174
335 144
21 154
133 62
104 184
19 26
169 249
209 79
29 295
24 36
93 73
198 1
263 206
30 16
229 12
210 136
129 140
34 110
171 1
79 26
371 131
156 107
22 146
14 2
24 52
191 356
93 377
2 7
288 218
374 361
156 197
42 38
93 226
293 255
173 213
123 219
59 105
276 130
274 49
56 187
57 54
51 153
211 128
97 179
339 11
200 57
379 210
135 167
92 131
75 43
30 181
262 162
18 19
38 29
179 336
251 301
192 37
218 360
158 60
305 233
26 27
240 213
342 62
218 227
58 206
261 64
125 297
40 145
385 177
331 160
97 20
49 162
220 272
45 28
14 294
85 109
40 81
110 127
128 255
373 299
329 144
74 120
92 1
207 269
271 365
230 236
39 18
73 16
178 33
290 83
4 3
338 242
48 134
14 193
186 332
376 226
84 80
194 382
203 243
223 149
76 183
277 94
2 175
260 87
199 179
68 48
228 196
204 186
191 88
70 348
113 138
281 238
222 241
327 247
38 212
1 11
191 267
363 66
50 16
347 49
39 143
33 116
16 1
41 2
14 95
58 309
181 207
12 96
72 5
41 130
84 90
273 179
218 299
150 53
70 242
65 106
112 29
107 36
300 231
111 66
186 23
3 64
14 83
122 51
65 142
43 35
384 323
119 353
35 56
31 161
75 369
169 29
190 118
48 76
208 351
167 173
5 60
283 21
2 6
202 179
79 291
235 6
22 2
35 5
114 15
82 2
47 35
9 23
91 234
203 311
199 225
61 37
28 201
51 46
41 315
311 340
100 310
192 318
258 284
44 250
32 77
352 337
265 233
380 375
60 275
239 171
323 95
383 139
153 254
80 66
189 27
207 214
368 280
87 99
90 102
132 36
134 233
4 2
204 279
39 46
59 43
49 224
115 57
345 223
91 166
7 48
317 7
367 176
302 175
37 2
306 195
249 304
118 245
98 56
212 218
24 266
235 361
163 154
118 121
378 381
129 188
55 48
10 286
28 40
32 78
151 196
49 123
248 242
148 165
179 180
358 183
194 83
3 29
320 247
160 125
62 101
268 219
45 316
20 17
71 91
78 149
199 256
149 247
18 71
28 31
3 10
7 17
34 6
5 9
33 18
226 357
65 56
334 49
32 28
61 144
366 202
12 18
173 271
128 84
343 324
307 72
12 2
220 35
326 247
236 285
213 282
27 221
77 359
42 159
370 319
59 172
1 5
122 375
378 321
8 3
36 63
337 274
65 136
66 152
236 325
116 237
252 52
59 129
123 328
296 28
324 152
83 238
312 155
118 48
112 251
253 68
29 44
168 38
100 93
122 264
94 330
53 49
231 134
244 151
131 185
2 28
287 68
37 104
216 172
246 112
148 124
157 19
203 68
16 21
66 18
138 270
285 308
113 21
24 3
150 155
298 282
54 85
124 47
19 232
49 44
349 173
289 130
61 108
96 195
86 135
80 126
278 174
62 51
74 34
148 164
80 89
1 3
151 40
103 82
346 60
280 30
265 350
321 166
372 290
205 5
271 36 22
252 155
168 6
23 228
143 121
97 177
130 188
143 145
58 32
56 20
20 42
89 90
18 19
82 66
14 230
43 6
98 100
83 74
193 25
61 119
35 11
198 172
77 53
183 267
35 36
178 169
20 15
13 11
133 104
12 106
87 50
157 251
54 154
115 22
202 167
60 104
70 95
1 6
5 158
7 17
8 10
65 19
224 115
37 34
162 165
103 210
212 17
8 4
19 175
153 207
53 125
80 21
261 2
15 8
104 190
124 259
172 102
200 131
99 98
215 200
78 26
13 63
250 159
97 57
51 30
2 148
94 72
241 239
126 209
56 68
260 114
102 62
146 141
47 156
129 107
76 15
10 124
159 123
245 32
13 16
192 219
155 27
179 86
150 6
172 197
30 243
7 64
228 229
257 69
26 256
253 187
32 67
44 13
240 184
14 26
40 2
196 85
4 75
54 238
72 117
105 67
111 68
109 214
63 269
6 24
16 166
61 31
8 52
153 171
34 109
39 69
185 63
132 82
27 271
203 114
71 264
81 222
130 18
138 93
98 17
195 33
85 54
24 144
115 234
227 206
70 2
161 83
103 7
34 108
50 248
70 96
23 1
13 32
93 167
160 237
146 236
244 230
263 193
58 205
41 9
12 28
164 32
64 71
55 13
57 152
100 216
88 81
74 141
15 49
213 11
4 2
59 3
30 66
54 249
220 14
53 5
233 16
242 197
42 137
265 101
57 3
83 126
6 33
32 48
7 38
118 44
30 81
242 270
50 38
142 79
10 72
3 231
84 64
170 84
121 106
174 164
47 16
31 110
5 7
255 40
184 121
71 262
82 173
145 204
11 123
268 221
235 119
58 128
9 25
131 42
40 54
120 70
221 22
175 187
1 3
22 34
246 110
2 31
15 134
55 192
141 199
162 94
194 106
43 73
38 208
2 11
113 61
4 247
60 17
26 114
93 90
9 3
45 14
79 35
5 4
217 49
22 7
101 25
7 6
21 3
62 29
181 98
84 86
26 211
191 266
153 134
18 30
76 169
92 13
127 39
196 226
45 163
38 139
35 112
1 12
129 223
63 254
18 191
185 225
157 39
184 232
3 2
122 30
27 183
29 135
1 39
14 6
186 124
30 189
239 105
201 88
53 136
218 29
89 14
140 94
206 44
18 3
47 151
74 11
116 44
182 124
160 117
43 107
258 47
91 65
45 147
153 176
16 29
180 32
15 149
32 46
27 14
244 172 139
179 71
162 207
34 22
91 42
62 16
25 66
52 144
238 193
110 10
206 101
6 41
60 161
20 38
197 164
172 19
30 82
244 221
95 7
148 24
163 105
58 139
95 122
106 92
93 112
52 104
37 114
234 18
21 134
74 2
20 54
101 205
60 33
18 37
59 187
103 160
129 33
9 23
62 68
157 50
217 106
86 47
4 7
48 71
137 107
223 120
105 51
6 140
26 47
1 10
131 151
190 119
93 3
56 65
2 79
32 26
38 228
1 12
8 10
59 182
30 194
230 49
75 169
117 152
215 190
99 32
5 20
3 40
44 43
21 20
196 219
224 169
33 18
72 68
76 62
193 113
96 176
39 4
17 174
74 131
117 167
159 24
229 101
98 45
122 143
24 20
90 88
116 111
22 16
184 32
73 65
100 211
131 171
86 177
154 209
35 11
6 5
69 115
78 69
41 149
13 27
56 26
213 243
67 84
64 42
56 57
239 93
52 44
6 153
29 126
133 34
28 178
27 124
9 4
27 203
24 80
35 199
15 12
82 170
189 134
156 92
132 84
101 54
111 39
231 190
88 18
5 11
39 108
16 31
64 102
102 222
38 154
75 166
111 168
118 198
127 210
145 47
46 77
115 186
110 162
28 97
225 126
106 123
127 50
84 85
14 11
188 2
119 147
2 1
42 2
106 135
120 14
15 125
204 149
43 48
59 42
223 241
9 221
200 53
105 118
192 2
17 55
77 107
155 148
7 8
75 25
26 9
32 103
242 86
35 138
87 109
196 99
240 191
24 183
77 83
94 150
180 156
13 158
189 226
62 195
45 35
9 5
60 136
99 117
2 3
72 175
63 26
131 214
233 62
67 59
20 30
201 24
94 23
227 139
185 66
36 32
96 7
28 15
213 190
49 141
87 235
16 6
81 10
212 182
225 236
25 5
63 142
165 69
89 16
13 19
70 60
14 49
31 181
43 13
11 17
46 35
21 218
116 121
46 119
60 100
232 202
6 3
191 133
101 208
128 100
164 53
53 42
18 16
13 12
10 29
48 51
38 50
24 69
129 146
89 130
216 78
61 8
237 110
220 159
155 202
58 44
113 27
173 26
62 92
40 87
487 424 297
222 186
96 371
247 341
375 416
450 183
55 250
387 391
51 56
124 30
147 332
159 324
407 302
367 182
278 79
103 92
461 285
270 404
14 154
470 414
471 285
406 388
55 231
342 438
35 141
51 54
268 48
155 53
226 245
90 477
27 10
21 18
189 432
298 466
20 252
408 71
485 481
81 177
457 81
22 200
418 130
320 116
53 157
270 272
364 311
249 431
336 378
3 95
220 469
66 105
57 13
421 59
132 434
151 414
225 242
3 4
115 31
18 11
379 374
303 38
51 37
299 159
73 305
190 168
396 175
170 238
289 113
152 326
284 130
219 274
24 162
409 239
198 158
158 463
197 208
183 405
241 122
465 479
149 276
3 7
366 79
322 306
12 171
298 11
53 148
16 101
46 52
31 104
443 275
31 456
156 128
325 232
52 88
79 23
204 24
33 39
54 153
67 147
192 119
126 60
8 23
429 57
2 1
297 77
323 182
132 119
13 20
77 38
131 18
31 55
358 82
139 209
34 13
276 311
280 252
107 163
194 411
227 59
29 189
254 228
6 13
172 102
382 240
230 233
333 287
31 11
475 58
31 472
15 377
53 144
474 143
237 110
194 98
292 95
459 331
145 146
267 5
37 93
9 44
69 246
308 96
54 75
35 16
212 186
203 321
327 109
5 78
111 151
117 19
462 73
44 84
260 424
196 155
142 181
111 166
258 331
113 69
183 1
328 330
91 83
72 135
365 34
329 131
46 206
69 179
388 39
5 9
423 393
172 232
106 473
7 10
188 483
48 18
182 359
316 210
175 337
353 60
12 16
226 116
193 138
150 16
401 395
124 139
288 481
386 145
324 433
205 116
63 85
19 201
120 84
441 276
293 227
158 32
261 96
69 164
73 59
1 188
319 226
419 84
374 126
55 99
215 213
370 86
402 21
53 178
281 171
256 214
451 176
60 40
81 10
91 422
385 56
452 312
38 3
71 121
102 93
30 4
349 337
141 465
127 266
10 14
46 317
207 134
229 215
248 158
299 372
60 315
221 180
223 259
410 267
184 118
310 233
413 326
76 357
6 46
302 110
31 375
142 100
33 22
191 173
214 295
41 14
106 114
131 334
288 28
389 239
149 139
460 20
210 182
275 40
173 156
279 89
43 223
32 134
340 51
255 230
33 89
56 243
109 32
56 58
125 32
59 38
96 73
314 245
392 323
286 108
118 14
454 16
269 48
415 281
9 19
420 209
305 447
257 403
86 81
446 438
4 15
321 398
371 445
106 345
439 241
29 27
368 30
53 116
29 53
100 108
24 49
468 171
45 25
65 5
450 458
98 137
487 66
222 363
440 83
336 292
227 428
7 26
110 44
417 110
304 203
342 65
97 220
170 217
11 5
50 230
293 312
455 61
4 1
168 350
80 257
30 203
66 145
453 282
180 45
161 65
54 68
123 168
94 3
55 129
395 175
5 70
76 51
14 32
310 360
13 17
318 297
306 251
24 67
361 256
348 262
130 5
55 195
165 43
53 62
185 80
265 27
33 43
87 77
128 18
143 72
397 342
92 244
216 177
260 87
197 104
191 202
86 263
72 14
98 47
435 37
40 152
36 425
100 58
65 271
36 3
211 393
37 24
82 10
444 144
49 133
94 335
31 80
239 383
430 407
38 97
78 240
301 120
328 66
208 253
77 343
437 247
167 114
150 213
196 387
57 251
119 13
130 176
24 50
21 228
390 148
211 180
339 145
47 28
373 9
131 138
28 8
5 12
290 257
467 363
436 376
9 264
106 104
262 252
294 1
155 235
179 352
66 47
426 334
476 193
14 64
256 285
41 199
296 205
282 50
164 381
216 464
36 225
347 230
151 287
484 145
208 218
234 79
182 145
136 28
442 118
1 40
21 22
369 5
155 160
1 5
449 184
184 283
263 300
26 187
431 478
427 325
215 258
263 270
104 122
63 48
159 96
46 71
169 74
44 61
354 249
174 39
2 3
69 35
167 486
38 74
170 79
258 307
291 150
231 394
92 81
345 384
8 6
400 116
249 114
4 111
25 16
362 177
63 112
127 67
122 175
318 344
107 70
269 482
2 6
132 351
224 190
21 346
62 123
313 302
273 148
17 42
16 380
277 4
64 83
34 356
178 219
309 46
52 338
247 137
214 9
273 448
239 204
40 355
412 22
22 186
43 399
236 20
376 28
480 322
24 4
140 120
4 90
405 300 293
39 63
19 129
39 21
328 278
257 252
32 28
232 337
315 278
214 22
12 108
52 309
72 287
211 330
133 232
10 11
226 220
215 24
292 122
66 43
154 124
60 124
8 176
62 145
198 173
135 186
105 139
105 55
299 30
238 319
52 92
88 189
253 106
182 255
222 17
149 274
51 162
41 312
120 91
60 164
36 1
160 173
13 85
166 270
213 190
53 207
263 366
204 167
58 57
41 18
27 220
343 299
41 245
15 12
53 45
250 346
356 121
258 69
93 210
143 241
14 77
102 118
184 168
72 67
223 332
68 95
68 54
352 166
9 82
65 5
388 45
185 143
93 1
156 85
14 38
52 301
369 48
251 53
100 35
150 244
30 24
125 112
118 178
49 47
25 130
183 22
279 60
322 3
11 14
12 121
17 74
300 58
21 165
276 122
17 10
404 135
22 86
103 18
351 136
174 313
94 23
180 64
41 111
166 216
4 2
202 62
116 389
18 116
209 225
303 33
254 14
383 227
55 338
12 28
8 4
139 347
67 63
195 146
18 3
122 104
397 246
218 98
109 51
373 21
47 21
228 1
102 41
40 3
53 78
196 16
254 359
177 14
138 278
111 157
96 6
205 83
396 126
327 281
135 95
72 230
34 348
141 191
187 262
16 54
98 128
26 61
6 5
15 20
136 201
283 48
381 361
288 198
31 16
24 35
226 325
88 104
43 31
106 110
324 44
384 296
269 317
1 3
136 58
219 117
118 149
307 114
171 45
334 63
361 362
275 100
77 84
3 101
374 399
13 26
340 382
159 393
156 306
99 208
398 90
3 5
117 17
294 11
9 160
86 277
4 141
249 308
22 17
33 25
123 17
336 216
56 57
146 374
266 87
58 71
351 353
272 161
260 229
158 74
163 145
305 94
2 89
293 291
42 1
70 12
138 97
259 372
194 175
48 91
3 19
59 181
237 14
45 37
31 224
380 345
25 20
106 211
125 296
124 209
9 1
97 62
9 12
231 227
59 2
144 86
172 1
94 188
316 246
345 196
323 365
340 189
243 18
171 295
280 279
342 188
6 273
147 144
86 175
19 90
392 274
55 229
181 193
271 262
147 192
349 13
358 35
112 109
304 75
107 26
166 394
343 354
402 368
3 46
331 88
23 24
17 21
143 247
65 265
25 60
187 302
81 40
44 31
291 136
282 281
27 88
167 121
287 377
289 3
257 360
379 265
350 98
137 114
106 80
43 256
47 197
161 64
221 261
364 151
242 66
33 87
10 9
81 357
321 304
314 206
5 16
297 15
155 233
61 169
281 251
111 174
29 168
139 200
337 395
150 152
7 6
290 333
98 159
177 290
323 244
140 55
59 264
320 355
376 370
82 298
20 29
94 310
192 386
308 391
179 23
297 403
15 51
206 67
390 288
73 61
212 12
405 134
398 401
285 63
130 318
26 234
361 80
223 152
190 117
151 80
238 100
138 387
79 77
62 43
20 326
269 213
248 9
368 24
115 35
114 29
52 11
239 223
55 370
281 341
52 127
236 385
36 126
20 50
170 116
153 140
93 252
30 55
96 134
182 180
119 75
284 94
42 64
69 10
344 140
38 99
245 259
148 267
75 17
27 56
227 152
9 236
75 221
1 2
48 24
30 367
235 163
64 155
34 80
12 27
17 76
263 56
375 175
79 98
56 187
113 98
148 7
16 371
240 126
286 55
34 24
94 131
16 37
166 83
7 8
22 217
72 83
268 240
205 320
335 303
150 4
54 203
143 97
96 363
191 378
250 131
311 155
132 25
199 35
13 1
339 186
5 23
329 116
142 30
246 73
131 133
32 249
146 68
323 400
453 329 400
326 335
216 316
176 142
310 451
63 32
213 92
105 54
318 395
329 257
304 123
172 104
13 57
147 161
423 113
347 430
341 419
286 406
265 202
91 198
449 49
178 123
420 118
236 44
106 163
77 33
177 320
227 61
131 378
6 120
293 26
209 105
325 417
100 136
16 210
329 432
126 37
216 355
263 114
50 28
13 207
92 137
24 32
153 150
71 165
196 302
70 155
37 241
164 162
230 405
343 453
225 52
286 275
67 100
6 162
171 59
169 166
49 273
182 206
24 186
372 117
174 10
321 56
248 347
48 144
322 379
3 179
226 443
317 125
23 41
183 352
86 94
190 173
33 26
205 298
35 32
243 275
354 306
441 401
374 136
195 237
73 55
3 233
316 387
242 105
287 142
260 255
258 80
307 294
120 244
100 204
295 126
447 353
47 71
200 191
167 195
33 292
202 41
290 216
33 322
143 130
136 407
50 129
380 71
342 421
1 87
103 259
331 11
107 146
238 311
266 231
180 264
21 139
108 35
351 205
57 110
29 55
111 13
49 13
93 356
251 185
135 337
86 235
24 95
1 2
58 67
144 220
68 140
31 52
91 254
162 182
236 327
113 16
294 415
53 285
232 5
56 39
148 7
127 261
325 375
38 343
220 402
34 26
32 40
254 284
301 165
223 294
1 253
40 92
328 19
52 234
248 53
50 107
188 84
13 17
175 9
26 75
197 168
194 29
184 424
32 422
162 446
341 333
37 6
6 4
217 376
60 219
191 211
389 19
85 208
67 150
17 212
216 211
350 72
289 254
244 308
98 11
201 269
435 188
263 444
125 74
139 214
342 393
359 265
15 22
131 334
256 363
47 14
368 321
2 76
452 217
16 78
348 235
174 450
99 95
29 25
222 74
428 82
163 394
436 310
166 39
331 339
151 56
244 270
201 362
16 14
111 370
216 429
18 101
396 165
5 3
87 96
183 276
402 445
89 10
271 227
399 245
3 115
141 229
102 69
309 220
18 14
119 24
330 285
12 26
64 27
10 66
228 139
38 18
3 13
133 29
59 138
85 3
62 156
319 87
288 36
54 6
133 230
306 231
136 385
102 189
128 98
72 29
19 21
28 8
81 43
259 279
373 138
24 14
280 210
12 11
9 19
4 7
437 260
106 82
33 39
109 6
170 148
398 257
198 340
249 164
104 16
20 130
27 8
426 408
59 326
18 262
173 100
109 131
247 216
193 383
23 36
90 43
8 62
173 438
193 291
20 297
135 28
220 257
255 246
134 15
35 112
79 50
20 10
221 150
338 412
281 9
159 181
192 231
28 43
46 43
300 440
12 53
298 386
170 377
75 118
206 342
114 110
338 254
68 18
32 245
25 142
125 448
8 25
182 268
217 36
167 60
3 6
5 11
19 70
124 346
6 14
123 60
191 56
50 371
28 223
30 18
100 147
278 115
121 122
145 39
5 1
10 103
323 287
381 355
3 313
151 413
89 226
388 159
292 408
196 135
38 124
7 42
272 14
16 48
65 27
85 201
225 349
5 9
168 32
18 127
79 361
33 299
397 94
274 139
409 44
101 158
48 187
403 358
8 10
192 157
183 99
186 431
336 344
114 240
218 167
410 330
2 93
141 26
384 16
16 82
45 427
345 255
177 103
392 90
77 358
95 149
11 83
15 5
91 84
382 303
44 29
254 310
364 228
184 133
160 101
401 175
139 365
105 324
303 271
404 284
62 69
243 188
84 32
189 336
215 300
23 58
116 18
132 282
256 117
8 4
412 425
36 51
80 19
333 106
12 224
255 414
188 277
159 3
97 4
36 193
418 212
34 59
332 65
118 246
32 132
180 152
228 400
171 199
57 205
170 442
367 14
74 1
267 166
154 149
161 390
315 160
63 369
157 305
82 203
434 226
35 416
28 360
366 68
45 12
22 121
218 353
175 250
233 238
112 152
212 314
120 215
357 351
49 61
20 185
37 117
158 252
10 23
157 107
7 86
31 24
296 143
298 433
102 411
4 2
129 391
318 31
139 283
13 60
215 439
239 168
312 33
325 110
72 88
280 17 4
31 154
276 129
57 210
20 32
156 105
86 33
209 197
71 104
9 4
180 271
164 123
167 206
15 94
93 23
223 187
58 41
182 121
21 13
79 187
181 15
67 96
17 10
99 126
166 162
148 177
15 228
34 127
246 155
33 24
163 11
224 273
36 69
16 23
169 68
38 120
95 54
56 270
85 33
82 106
168 45
16 87
11 109
4 12
280 29
72 12
71 67
2 7
251 164
38 207
233 30
110 63
13 63
269 164
113 122
272 251
159 79
56 259
264 57
38 195
190 235
219 192
215 28
55 61
112 134
48 41
105 65
100 278
1 8
274 229
188 257
177 262
117 152
24 49
238 78
205 141
110 185
40 112
59 115
157 39
26 25
70 29
133 108
94 229
45 125
33 137
22 222
148 84
40 51
44 241
11 1
139 90
67 1
8 53
35 43
68 82
25 34
256 170
176 174
29 8
158 156
7 6
208 199
2 3
162 59
40 39
79 138
190 165
149 138
158 226
76 114
27 108
64 111
148 161
199 173
225 7
45 84
26 80
129 110
40 89
248 164
73 16
21 25
180 49
97 236
74 31
60 191
46 47
147 11
218 87
2 19
98 260
250 62
221 93
102 82
10 7
120 124
38 41
234 70
192 9
16 5
17 116
183 131
67 68
22 153
34 38
62 213
118 184
79 47
133 143
209 245
128 18
263 126
83 91
62 81
64 20
267 146
146 9
30 212
217 277
279 163
46 27
261 250
193 36
204 123
90 121
151 25
220 91
268 179
54 130
15 100
149 275
38 45
242 119
60 37
44 144
85 239
47 57
145 74
188 88
28 56
18 240
47 55
63 243
65 50
172 93
108 203
49 247
66 59
92 22
200 42
44 7
232 100
77 68
50 49
62 201
6 27
5 4
165 244
27 99
58 107
141 107
135 50
140 47
75 189
186 150
20 78
87 113
176 265
174 164
13 8
119 92
110 150
42 11
227 39
174 198
54 17
35 132
220 254
39 32
30 12
25 35
36 90
88 171
255 30
5 1
165 18
118 63
17 20
4 249
189 230
17 28
24 75
69 252
1 22
237 76
84 197
9 6
27 117
62 2
217 7
15 1
175 102
76 7
59 214
123 51
97 95
43 83
173 76
6 37
136 5
3 8
170 69
131 26
59 26
103 21
178 141
266 83
104 179
211 6
10 101
2 52
167 136
112 202
185 216
133 160
5 24
98 81
36 5
258 31
147 194
253 152
13 14
98 231
142 30
92 224
2 18
80 196
23 31
88 71
114 155
462 285 328
203 21
419 84
173 206
6 3
152 145
404 57
167 87
59 93
138 378
435 285
259 236
127 59
31 76
91 6
103 100
90 65
143 262
11 55
49 155
231 122
174 240
40 118
456 131
336 59
340 395
54 392
55 209
389 9
266 316
17 107
21 169
383 305
19 388
126 87
173 353
163 180
172 159
47 125
108 36
349 377
314 338
36 114
449 68
14 273
168 218
65 40
247 282
369 405
162 99
21 7
46 309
1 12
177 359
16 17
211 225
86 12
15 71
233 105
400 241
325 260
354 334
37 47
200 158
187 158
117 53
154 201
49 35
244 194
106 20
4 29
22 75
130 151
116 414
238 235
248 302
25 88
194 224
275 58
89 375
72 386
86 149
28 189
194 132
4 216
3 5
3 175
232 241
379 75
210 102
78 59
113 443
222 46
128 7
24 163
83 239
250 101
374 143
93 96
238 288
358 119
291 126
191 42
164 355
461 27
460 145
76 243
179 365
19 31
24 207
343 177
289 323
432 312
68 428
219 289
92 45
77 100
329 116
4 3
137 160
62 34
199 277
87 37
61 121
47 89
48 142
245 249
145 121
110 236
327 227
305 54
370 448
192 212
195 187
49 95
376 436
242 181
72 18
144 299
411 222
31 42
43 40
253 51
8 196
403 2
266 71
184 213
285 131
264 401
356 381
166 306
57 4
12 50
372 83
58 258
53 5
65 315
24 46
28 5
452 405
387 440
111 133
81 112
455 167
348 396
181 94
157 139
6 36
310 427
18 14
22 2
24 16
336 341
177 44
7 37
274 5
144 16
111 94
11 8
114 183
255 30
317 149
399 407
56 63
202 422
111 221
332 186
298 30
34 168
416 293
103 154
431 439
70 390
313 185
27 15
188 155
8 9
267 11
357 338
214 35
7 5
170 335
28 30
4 25
337 442
200 263
117 235
24 349
35 193
9 60
110 120
247 23
296 38
101 350
361 453
307 147
334 393
443 451
10 5
75 287
190 205
8 294
326 104
157 227
382 47
135 42
220 60
67 161
23 83
380 98
342 321
170 160
228 227
316 318
454 86
48 16
204 10
115 63
223 120
174 434
423 266
5 23
63 129
272 112
22 56
397 139
52 73
97 159
197 162
10 35
31 132
136 295
358 421
66 283
351 282
2 1
14 40
46 254
151 311
148 112
246 398
173 261
77 301
84 158
217 155
444 66
202 90
124 344
81 8
41 35
370 74
156 67
18 66
147 13
2 4
410 189
225 308
105 124
120 123
110 345
101 102
422 433
7 356
6 20
45 328
284 95
63 64
99 363
70 42
220 441
48 334
373 171
391 65
413 233
15 4
94 12
310 197
462 256
409 192
54 176
264 151
51 48
281 91
252 116
59 27
120 286
258 366
93 303
63 425
142 337
125 229
8 6
399 234
242 347
324 41
199 184
273 437
179 24
120 429
13 270
339 52
257 46
68 82
340 319
251 92
314 233
87 198
271 387
110 300
290 245
196 219
55 69
174 167
213 331
256 201
179 319
304 182
15 34
61 17
143 99
58 80
285 450
320 40
12 346
173 248
417 430
160 322
41 412
110 36
67 105
292 174
446 257
279 185
105 140
32 109
312 81
41 271
74 31
26 171
400 418
387 431
242 245
458 223
137 25
352 136
37 122
116 96
276 243
64 84
36 139
5 19
141 32
39 2
62 104
368 41
269 29
232 37
166 159
215 117
53 101
186 22
98 27
134 367
79 16
232 280
94 153
184 61
169 237
371 45
300 369
149 360
182 112
198 293
10 26
370 384
424 23
297 33
389 457
24 52
165 417
3 16
44 30
283 408
38 12
146 75
113 64
234 140
10 14
445 436
85 51
108 134
182 361
27 260
19 68
265 130
53 77
211 204
13 8
185 12
321 37
138 165
15 54
438 212
362 192
186 208
415 257
131 105
447 309
138 87
101 136
246 21
330 75
66 119
394 376
178 100
237 459
190 167
2 226
420 49
5 1
348 301
144 426
123 130
402 36
58 6
22 33
150 87
174 192
173 80
14 32
82 99
230 165
268 238
406 104
91 376
97 13
175 364
29 385
18 45
6 67
333 40
164 8
170 278
223 78 1
200 5
4 68
90 65
78 96
59 32
84 69
53 212
168 123
109 86
107 76
28 16
47 17
4 18
205 219
66 71
119 5
5 37
11 16
159 20
97 170
6 43
79 23
33 60
22 13
101 148
17 50
193 99
118 75
10 12
97 133
181 155
44 177
87 20
6 19
166 10
174 19
54 44
76 161
40 80
51 47
63 191
140 188
172 154
38 121
103 182
37 199
63 88
110 30
105 41
26 11
215 182
76 217
1 145
4 194
180 137
14 33
30 113
24 190
138 146
98 55
25 32
127 173
27 1
10 3
141 139
169 145
36 120
97 44
26 95
211 74
184 9
83 46
193 210
94 11
176 128
50 131
13 5
70 63
216 201
130 97
207 68
125 123
53 13
129 76
46 37
45 28
31 100
42 78
93 66
44 9
15 31
74 102
12 152
117 19
185 21
223 51
73 7
19 25
16 213
45 122
222 26
160 64
6 128
15 140
187 218
65 72
63 106
132 162
89 87
17 56
27 92
205 137
135 8
74 64
46 49
32 58
186 161
31 127
101 99
2 4
197 102
15 147
10 20
196 112
47 81
23 12
167 23
11 61
48 47
20 21
35 164
17 195
35 76
86 51
20 67
204 124
9 1
41 2
3 8
25 123
18 124
32 36
122 154
163 59
65 7
192 42
183 23
44 126
143 6
202 39
29 23
136 138
39 14
73 85
30 99
104 65
136 79
38 55
221 195
175 138
17 24
82 53
4 8
43 157
16 35
67 116
66 17
86 149
14 6
103 73
101 114
46 115
5 6
44 64
214 36
63 171
1 6
220 174
178 160
38 15
42 28
155 139
153 1
4 57
132 96
144 69
80 158
111 4
115 165
63 51
7 11
31 62
35 40
3 7
108 38
75 50
91 40
10 34
30 29
139 76
7 203
122 151
44 69
177 208
206 133
78 137
201 108
181 209
142 40
15 12
183 187
150 89
2 1
52 46
17 12
19 77
38 134
27 179
5 7
76 189
198 28
68 156
112 2
336 279 69
164 54
38 64
48 115
8 23
28 5
225 37
22 33
2 31
9 2
336 314
280 192
100 47
315 305
200 191
218 212
206 178
67 138
34 247
76 77
220 242
28 59
125 249
54 49
3 1
101 260
12 128
61 16
6 14
53 43
87 254
158 160
259 254
163 68
116 184
86 134
91 66
52 245
198 204
95 127
136 174
93 50
120 57
287 136
190 43
249 298
39 3
188 244
88 106
6 143
161 95
293 124
284 45
153 28
167 303
253 283
144 149
50 152
228 198
29 230
171 16
327 41
89 7
6 7
137 21
49 234
82 83
250 227
6 47
60 80
131 41
332 109
261 101
78 173
60 233
312 34
256 117
248 25
306 209
50 37
7 15
5 8
62 183
57 9
290 20
310 198
97 196
141 122
74 59
214 155
2 213
178 11
258 66
85 104
12 30
5 10
2 19
87 47
144 166
266 188
219 291
177 304
215 87
135 275
300 307
125 87
47 66
74 193
273 309
22 75
203 138
2 8
179 68
188 124
49 1
267 89
286 25
31 46
135 49
146 18
114 81
51 300
331 156
139 117
95 52
251 3
63 257
12 5
25 79
132 123
26 52
113 158
268 231
162 299
162 288
319 54
70 157
90 25
148 162
187 83
13 51
41 317
192 59
22 38
44 144
19 231
2 235
285 259
328 323
118 20
274 199
330 192
207 139
150 79
172 124
221 80
295 113
96 142
24 43
14 62
72 96
10 7
199 38
11 170
196 296
83 278
108 91
103 302
189 83
33 42
263 175
131 311
26 1
324 27
176 35
94 97
191 320
209 22
92 35
265 263
197 194
50 73
17 70
74 159
7 18
136 253
26 109
212 149
20 220
101 29
308 256
128 243
27 21
82 43
222 176
65 55
292 210
12 136
45 9
5 35
63 7
266 301
238 38
160 264
26 71
186 232
105 276
227 208
105 50
252 22
216 98
69 86
76 186
156 289
122 169
7 24
80 98
108 270
119 76
175 211
41 15
318 115
110 104
139 219
13 17
226 132
277 22
239 43
25 107
9 25
43 102
1 4
175 15
168 14
117 71
155 18
102 129
3 9
313 34
37 24
314 62
210 87
240 110
34 7
148 72
148 262
217 182
200 335
287 326
85 57
6 99
124 241
44 36
69 13
179 224
99 151
21 5
56 44
14 16
51 325
49 81
35 55
147 138
323 235
87 122
140 72
19 145
76 88
60 72
229 108
111 16
124 94
305 16
217 223
208 87
279 103
24 154
146 165
191 60
177 93
17 68
14 22
130 272
13 12
116 236
112 54
32 16
195 77
76 4
37 194
113 198
77 126
68 84
151 297
218 255
322 102
67 42
58 94
14 36
167 157
78 72
58 39
123 185
89 205
121 116
246 173
182 176
219 329
17 60
321 99
29 24
273 106
4 6
123 22
334 207
282 280
30 48
130 126
202 3
1 20
180 15
11 4
87 103
59 133
229 269
271 215
253 316
22 294
197 201
333 306
181 48
40 1
281 178
71 237
156 1
32 116
113 73
398 96 194
133 96
20 15
130 246
13 15
269 196
302 329
212 216
128 302
71 93
357 134
23 40
11 67
346 377
215 50
11 176
98 87
182 212
178 81
367 328
397 362
319 117
120 111
316 192
161 184
199 229
7 183
280 208
389 224
23 341
39 65
91 108
272 211
129 130
152 289
18 175
21 86
303 181
217 76
4 3
75 297
90 248
335 214
10 263
3 21
33 44
79 314
238 199
273 4
46 214
144 345
384 151
159 12
11 281
268 328
228 99
288 156
72 234
242 65
27 6
126 67
299 83
32 18
50 13
192 10
44 270
1 114
2 33
295 100
191 266
349 130
59 75
98 186
222 100
30 201
200 127
348 146
220 93
15 24
41 14
250 214
14 29
29 74
231 198
239 40
5 39
191 133
307 355
202 152
137 213
258 381
309 177
19 165
285 123
176 236
71 337
8 87
122 112
17 22
11 324
61 31
26 170
96 129
6 199
343 330
264 230
115 162
187 209
30 71
22 66
18 127
322 263
55 7
4 52
153 243
148 85
1 7
151 64
57 52
278 385
110 188
16 47
226 258
39 223
92 182
72 101
58 287
11 13
387 211
119 204
58 57
2 6
103 137
21 282
135 193
11 115
11 77
325 395
91 50
7 109
161 92
111 34
351 274
356 27
143 254
333 9
48 39
212 364
10 11
35 116
237 167
156 113
33 181
256 78
125 77
162 344
59 2
29 230
274 73
394 132
85 39
152 119
262 18
11 94
16 62
123 109
30 27
38 29
245 39
173 330
203 135
398 235
78 74
54 4
122 141
3 2
79 171
189 383
134 177
23 283
96 279
44 132
38 251
247 32
16 3
22 158
51 147
58 96
185 37
314 326
163 121
389 396
352 13
268 265
373 49
301 136
37 140
103 51
199 323
336 331
197 342
94 227
308 151
53 84
292 56
42 8
2 97
44 56
212 375
195 192
34 37
5 7
26 8
110 30
211 14
180 194
22 79
386 273
172 305
281 354
291 205
56 88
362 29
180 372
224 313
15 106
333 353
41 68
324 371
139 96
60 10
11 34
146 172
360 117
113 99
82 298
295 315
15 25
5 118
18 10
174 137
181 370
14 376
6 1
334 152
4 235
5 8
147 275
267 175
259 186
150 115
358 115
149 58
10 6
119 365
46 24
15 119
210 83
146 13
390 173
311 288
14 19
4 5
107 45
69 160
338 156
368 151
393 382
104 13
286 54
97 105
102 86
255 241
391 118
45 64
190 206
197 296
106 320
374 333
69 21
14 121
164 69
249 339
148 198
317 215
213 350
45 23
259 363
327 131
138 142
232 92
170 265
67 189
106 190
18 249
40 197
80 38
257 122
143 15
25 278
268 331
144 276
331 379
101 169
4 9
157 51
179 84
47 89
371 388
70 34
138 71
180 63
83 224
54 82
359 259
223 340
46 378
21 83
81 24
108 347
26 277
79 306
346 74
247 307
72 10
135 73
35 173
11 361
11 17
51 38
244 369
13 167
124 23
35 17
169 187
137 166
69 73
64 293
92 43
9 23
117 93
154 85
296 300
36 112
205 110
382 344
127 225
392 320
284 191
90 60
48 136
118 128
131 23
274 294
312 234
12 10
366 352
271 51
290 239
48 218
321 158
15 380
134 14
43 35
207 110
125 304
168 119
240 93
90 100
261 41
28 6
145 134
310 223
40 63
325 303
260 63
155 60
241 55
31 22
95 76
253 74
39 49
332 69
76 20
226 211
233 154
53 51
99 22
219 100
153 83
33 36
318 301
1 221
1 196
142 144
244 33
208 38
11 14
131 252
233 152 8
152 176
171 219
115 77
156 198
158 201
107 84
72 32
127 192
101 223
102 196
31 161
83 114
106 126
83 180
5 155
151 120
16 143
25 103
148 177
25 10
150 6
8 12
23 3
35 41
69 208
93 131
18 102
141 97
24 61
7 10
168 103
1 36
195 142
113 33
88 146
74 178
78 15
120 226
43 77
19 13
74 205
152 136
208 210
16 21
99 217
1 4
173 98
15 24
79 51
187 7
138 3
57 110
50 25
45 147
58 43
93 22
179 36
14 85
153 54
73 99
117 106
116 57
8 135
7 2
170 181
56 7
19 53
214 186
39 108
170 227
53 169
40 130
73 43
189 156
204 106
12 190
134 8
40 112
84 7
27 1
59 47
9 37
191 87
220 205
132 8
36 215
64 26
33 96
128 108
51 129
163 164
200 125
43 71
197 163
128 222
7 16
149 137
39 10
32 188
90 74
5 13
127 230
54 52
163 133
104 8
148 9
2 202
5 124
31 28
186 64
170 133
159 134
72 94
68 17
199 34
140 160
176 232
157 26
72 95
109 193
11 44
3 30
3 1
25 52
183 15
127 8
81 31
35 145
167 12
5 15
17 8
9 66
7 174
185 37
212 130
23 87
91 182
9 42
111 27
20 28
13 48
62 9
169 175
25 83
31 91
74 65
14 29
55 142
42 228
156 25
92 79
123 120
158 50
211 195
51 24
43 171
100 6
25 35
165 184
21 47
59 118
106 70
70 46
8 18
47 109
45 15
51 55
105 59
160 209
119 33
2 4
148 154
73 75
14 9
93 218
140 59
67 82
7 9
40 1
60 33
121 55
76 52
231 127
69 120
162 60
19 57
38 165
22 16
98 37
17 97
22 125
114 172
32 27
194 185
58 136
116 206
69 14
46 31
5 6
47 122
224 104
144 13
89 56
29 38
20 13
11 1
33 9
139 67
49 9
55 216
5 7
16 86
213 35
63 9
9 34
133 1
120 166
225 33
73 221
172 207
125 229
30 88
6 8
233 17
3 6
203 102
11 80
65 47
58 67
137 53
43 6
101 6
3 26
320 138 176
37 139
72 130
109 19
91 175
218 56
162 26
288 275
63 71
245 165
97 281
9 28
211 316
274 59
136 164
191 195
2 10
10 15
18 297
246 28
1 45
68 64
94 62
2 5
54 50
302 280
146 111
58 26
56 244
4 99
49 33
271 166
230 128
51 45
157 113
6 25
83 243
9 168
91 78
50 296
68 107
61 8
80 1
64 26
181 110
97 38
2 3
20 8
224 124
68 303
222 39
41 67
250 205
55 84
161 132
52 176
6 3
103 71
55 30
292 218
216 167
27 165
16 188
316 318
4 8
74 272
96 127
42 70
263 11
194 253
93 238
123 49
75 23
237 130
135 174
171 183
76 18
92 4
187 111
191 200
1 5
256 282
194 50
172 234
113 10
128 155
141 100
52 160
21 169
215 73
28 101
78 204
249 55
21 38
50 3
185 1
12 85
89 30
133 221
3 259
177 42
65 135
75 108
39 15
11 115
18 17
312 65
22 52
92 293
59 110
170 307
205 149
61 98
95 54
214 114
12 4
154 144
78 71
309 111
9 232
36 102
42 46
83 24
247 170
12 137
289 259
148 242
177 178
227 5
32 34
145 26
295 115
143 20
217 106
48 19
74 36
28 93
280 89
252 27
142 79
15 31
320 30
162 256
226 127
149 39
152 126
27 172
36 37
7 265
80 240
79 112
188 196
231 65
304 168
203 198
243 268
110 133
5 81
150 46
66 120
20 117
264 121
283 42
4 199
52 132
44 111
178 236
200 228
88 86
80 126
300 243
217 310
166 60
17 267
30 25
193 84
190 48
268 317
235 27
210 24
287 236
5 77
1 21
98 156
284 6
97 298
291 282
159 148
52 63
128 262
57 62
238 279
258 138
17 47
96 41
222 319
24 3
12 13
158 208
86 83
44 163
90 65
36 22
223 97
123 184
52 114
64 104
145 257
23 32
25 41
314 215
167 162
42 5
285 254
17 15
53 206
119 299
112 136
64 87
1 69
290 126
55 241
202 177
30 212
142 266
18 118
141 147
127 151
203 233
67 105
144 8
44 40
278 308
301 110
12 53
66 18
99 131
4 3
25 40
9 106
277 262
97 138
23 125
267 276
171 182
45 72
229 188
38 116
82 37
149 261
100 30
153 129
78 315
16 6
30 294
311 18
269 114
178 286
260 196
43 17
121 106
278 21
119 77
4 7
27 10
25 35
60 273
225 168
28 129
86 189
19 7
19 23
11 140
192 158
251 172
96 306
305 253
255 208
60 6
207 147
98 213
22 17
40 171
29 2
28 73
46 173
248 127
128 50
48 148
162 191
122 106
134 55
114 124
198 136
4 1
190 220
59 219
153 180
33 10
5 14
74 313
57 54
209 4
201 55
124 270
11 170
59 26
19 26
11 6
65 27
26 254
158 79
79 54
275 1
179 45
213 239
211 12
197 89
56 25
9 8
54 186
324 158 195
54 63
53 59
6 57
246 184
101 41
137 317
16 15
7 5
44 182
155 46
56 268
50 46
68 91
33 69
19 4
62 84
319 128
58 68
24 8
17 177
113 299
223 142
232 206
135 186
222 24
102 21
322 57
115 174
11 10
210 140
28 225
267 159
230 306
64 31
32 47
269 140
56 28
193 60
129 81
3 258
11 17
1 3
149 164
312 224
192 29
84 296
13 15
61 81
2 4
51 44
201 266
108 100
90 50
122 32
94 33
300 283
124 256
71 305
229 264
84 132
252 120
37 3
1 2
89 48
7 18
70 275
2 166
8 40
241 138
38 2
313 36
143 250
213 245
128 217
316 205
115 287
265 102
290 204
169 190
22 165
141 38
5 26
117 110
133 95
55 105
292 38
137 240
54 71
263 149
5 4
43 28
99 3
113 187
43 242
70 244
4 3
134 101
8 9
1 12
202 158
261 103
219 107
107 168
169 54
6 4
110 120
91 254
221 220
42 272
215 47
171 155
55 88
146 4
46 62
130 20
37 262
65 82
140 62
211 129
136 209
278 167
97 3
72 87
36 58
139 106
109 136
36 22
66 206
184 150
63 66
98 96
52 51
255 102
3 178
103 69
78 32
42 4
44 83
29 159
136 218
177 309
1 25
239 71
28 39
123 74
196 10
24 79
289 304
286 226
8 195
127 208
285 72
71 153
235 52
282 57
188 155
315 84
44 38
1 110
39 154
253 129
201 205
16 35
61 85
60 92
8 116
315 320
4 203
197 163
21 77
142 111
55 151
308 270
214 163
55 65
184 213
6 148
51 61
4 200
25 167
226 144
85 212
55 1
2 29
59 115
158 191
129 185
149 47
10 6
46 42
112 25
31 30
161 97
224 51
294 268
12 53
307 50
314 49
227 190
19 216
75 273
166 181
23 247
109 106
3 229
114 32
25 111
72 16
31 54
234 154
181 289
23 194
236 310
251 106
95 89
3 138
248 106
170 159
175 89
280 120
131 42
200 257
27 17
100 62
21 20
55 160
240 301
260 211
154 231
163 156
183 29
1 20
10 220
198 27
2 127
22 28
4 67
23 107
75 19
22 16
113 39
96 37
302 79
33 14
37 86
14 1
116 118
279 71
70 32
259 181
127 135
13 49
236 76
70 230
2 128
123 137
303 1
150 26
40 157
26 60
18 80
180 45
323 25
178 189
318 66
162 160
21 30
45 21
76 276
37 48
252 293
191 281
23 13
146 176
76 5
295 217
16 144
238 235
8 6
106 103
249 14
93 15
91 298
272 284
237 277
52 237
121 69
41 7
158 31
27 204
261 271
233 116
37 179
124 61
70 126
74 37
91 119
297 258
234 274
153 156
105 125
6 13
92 104
119 228
110 321
147 138
176 291
295 324
145 130
12 199
201 159
288 81
207 162
214 270
23 32
73 59
149 172
124 152
140 143
283 211
243 120
34 32
296 311
11 173
258 33 69
9 8
131 70
167 72
188 198
68 5
119 191
251 131
49 27
83 146
116 137
20 47
4 7
85 56
184 71
28 7
77 144
82 61
201 94
3 18
3 31
214 78
168 89
62 40
15 21
95 166
136 218
24 16
1 13
22 23
22 48
48 50
18 217
119 153
59 114
87 59
18 205
54 250
2 26
99 171
7 156
117 62
115 164
227 132
180 139
31 212
132 143
6 5
209 127
129 85
25 1
66 106
6 136
110 249
199 48
210 53
58 26
124 160
252 3
235 204
127 220
18 43
9 22
187 40
39 228
35 130
80 221
64 42
30 1
127 185
8 16
117 125
19 13
50 52
57 72
68 127
239 199
119 85
3 7
76 28
42 66
153 213
13 57
118 13
112 42
175 123
157 97
16 196
88 94
51 43
37 222
82 179
17 33
83 70
10 107
148 19
11 8
7 147
39 109
34 231
39 75
57 95
77 73
69 90
59 34
165 141
52 173
20 18
122 52
181 17
187 238
140 90
96 91
109 242
197 130
27 178
70 123
153 236
9 254
37 12
88 17
53 103
92 149
3 2
9 4
54 35
12 3
61 18
46 206
2 121
5 39
8 10
5 56
18 193
135 28
152 91
243 34
36 245
128 115
15 2
44 229
133 90
33 53
47 73
161 157
79 53
244 112
186 126
60 86
183 88
2 6
34 237
9 46
194 37
91 23
26 41
110 102
115 2
230 25
190 59
256 32
11 36
46 89
176 232
241 114
87 92
175 223
233 56
17 159
145 34
84 33
84 98
27 219
247 240
211 59
150 110
1 10
234 61
4 113
124 48
12 71
26 65
63 142
14 5
163 90
127 240
55 138
80 170
248 138
10 44
33 34
29 21
216 34
151 18
26 100
35 16
20 63
99 188
104 17
59 70
64 141
140 207
192 83
174 158
81 37
56 126
5 42
119 132
69 35
80 16
37 40
38 23
158 154
153 202
208 25
226 178
166 203
150 154
60 13
215 28
6 169
64 93
111 77
28 120
116 106
73 224
27 2
9 172
6 17
182 10
37 177
102 76
87 105
220 225
1 5
42 55
162 52
126 257
204 146
38 246
58 195
31 99
134 29
101 42
75 78
139 135
200 163
255 108
55 97
108 100
67 66
67 189
176 128
25 32
3 45
74 5
81 155
253 203
172 258
297 272 172
263 199
48 51
162 125
109 3
9 19
156 208
114 230
248 57
270 20
188 268
190 287
161 141
220 27
141 134
180 108
12 7
44 35
67 35
55 82
258 233
44 65
50 78
126 273
124 114
138 115
42 212
180 197
69 61
10 29
68 243
194 69
154 206
7 143
229 215
37 41
279 30
150 151
135 43
211 165
105 122
56 19
85 126
173 288
59 221
192 238
102 118
112 68
295 64
192 122
19 195
64 133
228 210
68 129
168 133
182 121
33 9
77 227
73 219
4 5
235 90
34 73
9 116
262 42
141 166
46 35
32 5
30 4
115 1
76 50
27 3
39 29
13 18
16 24
276 80
297 132
54 70
286 103
101 245
22 25
218 250
193 9
210 19
267 280
11 17
52 23
103 60
126 136
83 149
199 26
15 89
285 226
174 68
198 81
45 25
289 103
137 7
13 4
26 153
198 274
36 80
10 49
14 87
105 44
145 135
10 207
9 21
10 99
50 93
202 225
153 260
158 164
296 154
222 103
159 165
68 271
102 25
60 140
36 35
3 252
2 1
284 254
68 67
205 34
135 177
213 68
97 54
31 186
32 266
3 2
63 10
9 11
34 55
131 261
42 15
120 9
9 8
46 110
3 81
32 98
108 16
185 48
164 196
83 47
255 218
49 84
226 240
207 234
156 131
4 1
172 217
69 181
100 68
256 264
34 29
79 170
7 190
292 103
122 226
254 26
283 73
189 137
1 88
282 82
9 101
31 113
92 191
2 201
71 26
38 14
45 148
24 37
74 187
119 52
43 33
19 173
42 281
237 8
35 21
48 9
111 214
128 59
83 85
13 58
6 8
69 125
107 51
111 179
53 79
57 41
160 27
172 131
227 231
40 12
218 197
178 9
10 8
94 44
114 21
31 27
155 7
117 55
39 150
94 175
31 61
152 124
253 244
171 97
92 25
11 15
278 184
139 27
60 132
102 215
130 89
146 72
24 60
99 158
267 52
144 45
219 257
142 82
233 228
2 7
10 16
251 256
251 248
247 59
239 36
2 6
249 111
77 9
13 22
121 52
74 6
224 140
32 157
167 160
60 96
25 127
159 32
47 31
232 166
242 92
104 85
102 188
21 59
43 131
145 184
20 3
148 265
294 190
45 277
134 54
26 9
86 28
105 111
26 147
95 33
9 75
182 204
80 246
28 13
151 203
163 200
106 33
215 223
181 183
123 52
95 169
209 179
50 46
3 5
10 54
290 22
202 140
90 31
51 163
293 11
62 55
43 272
72 5
130 244
291 149
147 259
21 64
23 20
269 180
18 154
25 66
14 1
176 40
275 181
91 46
42 53
167 241
21 236
216 34
209 94 141
164 96
7 22
181 122
21 187
3 8
48 53
5 10
93 31
25 200
20 25
27 125
10 88
98 207
92 190
57 170
21 11
4 2
20 28
75 86
12 33
77 37
11 1
8 26
37 174
37 94
9 173
118 102
62 134
22 79
44 16
121 109
29 15
141 203
42 196
150 168
44 52
34 26
102 150
49 24
88 138
70 120
199 208
152 188
89 42
16 122
96 3
24 7
17 7
61 24
47 7
129 45
38 37
7 90
194 81
127 3
9 56
3 12
19 30
201 76
99 115
5 45
11 186
88 144
133 157
156 84
2 84
61 133
76 40
110 100
197 130
54 178
62 58
110 128
142 89
54 49
87 101
56 74
63 28
124 112
122 151
58 43
73 130
166 5
97 139
131 183
98 26
30 182
84 161
47 107
2 7
137 10
55 7
32 123
99 80
31 3
35 12
9 4
27 24
116 19
48 16
18 36
73 8
41 9
172 74
155 84
11 159
70 204
67 71
146 134
175 158
80 15
8 6
84 132
13 1
33 69
28 66
2 103
75 73
72 25
70 49
117 165
39 2
185 83
117 79
78 40
108 105
158 129
167 92
24 81
95 102
145 19
100 64
25 97
16 9
33 43
1 149
171 144
37 32
115 180
206 15
153 53
104 88
39 46
108 179
169 78
32 16
9 105
114 198
65 19
60 11
11 18
82 15
64 68
19 6
130 205
1 6
17 42
10 1
52 106
58 136
139 148
114 199
60 91
17 131
177 71
9 5
60 95
51 1
113 163
40 4
105 140
126 70
202 96
1 152
55 67
3 7
85 82
196 209
184 163
195 107
87 47
126 147
72 189
3 14
114 41
176 175
112 95
8 113
193 139
83 3
10 15
59 3
94 135
154 28
89 141
4 119
10 111
83 162
1 64
104 143
20 109
34 50
7 20
13 23
192 31
4 57
160 142
38 92
191 130
331 210 153
85 31
298 243
277 226
99 27
181 244
319 44
63 120
132 14
325 177
13 106
140 14
2 1
289 131
36 53
244 320
27 213
201 259
318 290
32 148
153 154
114 255
28 42
315 16
97 29
81 4
67 283
221 261
174 25
6 83
278 99
16 8
74 92
89 30
264 130
215 227
299 263
171 88
173 223
260 69
130 17
91 22
87 116
101 45
211 158
55 167
129 225
3 10
78 51
190 113
11 4
258 25
309 35
9 61
108 87
208 93
14 71
2 9
202 88
84 146
156 93
321 213
39 52
124 68
312 145
50 180
87 153
80 9
133 241
144 110
53 59
240 13
269 41
130 284
23 19
28 14
214 24
247 178
21 25
310 200
201 20
72 183
266 279
157 134
164 185
98 11
74 47
9 31
12 111
29 113
63 46
3 14
1 7
176 275
104 23
83 164
72 34
12 27
135 33
289 317
34 48
3 231
303 89
16 39
246 27
60 16
66 31
265 296
4 316
121 266
38 217
256 192
45 82
206 73
293 330
302 213
6 3
43 57
8 2
147 132
224 23
90 45
160 77
167 282
110 123
12 220
235 265
183 230
26 23
272 238
104 251
79 51
6 210
189 167
94 218
233 305
56 55
8 87
190 287
59 232
187 128
287 314
11 96
95 65
55 195
198 160
83 155
238 322
63 133
39 215
196 146
158 116
122 11
68 7
47 36
178 133
189 205
326 98
24 58
22 6
1 3
103 234
327 252
34 27
170 78
221 137
67 54
65 94
45 19
15 6
304 267
10 18
2 24
148 163
58 204
105 56
20 324
67 229
128 59
75 43
285 168
19 2
267 65
181 60
110 228
138 107
131 29
304 323
33 1
186 203
248 153
321 329
2 172
73 38
191 249
39 49
214 276
308 196
103 52
5 2
77 27
79 233
192 18
257 290
17 93
38 33
197 133
250 43
40 8
149 130
135 150
151 78
119 143
212 73
191 32
215 301
166 61
270 118
175 268
200 273
156 243
125 94
23 41
70 245
165 4
51 291
102 60
20 13
145 12
11 84
252 240
127 120
175 52
168 235
253 164
175 293
150 222
162 97
92 254
65 126
21 35
311 186
236 215
51 18
307 160
7 152
100 20
53 209
193 60
186 62
183 199
286 284
12 179
95 134
50 32
139 85
292 125
62 328
251 300
133 239
169 77
96 216
187 306
1 4
257 101
89 142
36 14
69 129
122 184
15 21
102 226
44 55
188 58
219 133
20 29
110 79
60 112
53 288
86 49
32 24
65 70
161 81
13 9
1 262
295 88
54 52
297 158
102 313
30 8
69 41
238 95
76 32
109 24
124 176
46 29
242 37
274 98
107 60
50 64
88 69
8 121
5 281
263 10
194 21
2 3
137 40
14 182
10 44
44 168
17 11
91 136
62 3
71 118
75 141
278 294
129 173
189 200
37 19
90 119
114 21
34 280
98 207
20 177
331 318
159 22
4 12
9 117
17 237
115 65
65 20
154 271
43 6
232 150 142
24 29
56 168
154 56
21 78
203 38
86 87
31 97
53 163
89 218
61 39
145 114
4 53
152 67
1 82
54 17
111 93
125 49
38 204
167 182
91 87
10 15
2 13
5 83
14 45
12 157
194 166
135 142
164 179
134 2
90 219
33 176
36 14
41 3
31 25
113 81
97 232
90 110
137 19
57 29
3 10
198 99
220 112
209 73
130 25
79 23
230 120
6 34
196 184
5 7
31 195
157 200
32 51
91 174
2 4
137 211
162 46
100 27
43 69
141 80
202 143
122 178
42 60
12 90
2 12
210 46
153 186
107 46
158 130
93 227
31 48
7 22
11 75
1 6
11 8
88 144
103 65
147 51
181 7
26 222
98 2
56 190
16 40
11 28
136 224
117 148
52 228
14 3
20 52
47 26
64 185
44 22
76 188
12 35
45 63
38 215
96 149
39 28
86 61
19 12
72 56
74 12
104 205
84 5
168 226
143 46
85 38
135 169
81 17
15 102
10 33
15 101
8 5
2 9
126 23
149 223
48 155
94 15
50 67
24 50
7 9
133 129
26 16
207 40
175 51
229 193
171 88
31 37
118 73
3 43
12 65
37 99
86 135
27 58
103 122
6 23
210 213
114 216
63 140
45 121
119 103
20 80
29 46
156 160
27 92
10 76
167 132
88 59
16 9
180 120
71 13
128 4
139 87
56 68
64 25
70 191
63 66
82 151
86 136
153 128
15 20
102 217
41 56
119 184
146 74
55 70
55 29
19 187
96 15
138 40
225 35
7 27
11 18
32 5
34 62
170 56
231 1
108 56
6 4
221 33
10 109
124 159
53 120
25 10
114 10
173 140
89 36
129 8
145 193
123 46
109 115
42 27
66 192
30 28
42 206
78 131
167 199
189 148
93 63
150 118
59 42
3 8
105 42
156 61
61 73
114 127
76 201
49 37
172 79
117 53
17 21
33 112
115 166
17 14
24 7
95 52
165 149
64 104
66 177
208 160
214 131
197 123
132 9
21 106
77 19
212 62
22 38
76 164
116 26
131 183
135 161
10 1
25 124
348 84 5
47 62
249 93
178 193
73 114
263 343
98 107
63 59
134 286
105 196
6 3
156 6
34 29
140 299
22 121
285 231
124 137
329 50
11 17
327 140
24 2
143 163
85 315
220 141
17 21
94 20
33 30
228 46
18 7
11 230
195 260
17 277
298 160
36 130
290 98
114 142
300 71
335 228
26 13
104 31
52 185
131 203
81 183
83 96
29 54
276 36
158 164
9 20
265 11
182 323
306 268
204 223
71 271
171 115
73 116
1 31
328 234
177 49
113 25
246 176
258 251
144 212
202 324
157 115
196 251
108 168
107 186
6 1
4 199
63 232
81 24
13 239
33 131
292 10
117 104
133 87
4 180
339 215
128 20
9 16
51 301
72 32
272 288
109 37
134 166
30 303
117 139
256 177
107 146
56 84
57 267
48 36
80 227
163 287
75 98
9 14
211 331
188 38
49 45
242 31
89 26
206 318
56 68
80 13
161 234
210 48
106 29
47 44
263 83
26 60
30 53
4 2
13 23
182 78
334 340
115 170
22 126
70 254
79 250
248 261
295 143
252 80
209 144
156 248
65 32
40 204
6 244
47 58
84 111
278 226
316 280
35 2
97 229
5 12
118 58
69 64
64 46
71 2
35 134
80 221
90 6
110 336
251 311
158 108
3 10
305 277
143 63
155 68
37 24
1 42
132 92
62 266
29 14
206 191
10 88
73 119
2 5
296 293
269 160
49 184
307 172
105 255
38 124
135 275
78 37
19 51
45 7
140 83
222 137
112 161
116 153
298 321
214 65
21 52
149 87
62 112
268 158
284 99
29 56
158 211
337 46
92 71
272 195
332 213
255 282
286 322
174 53
8 195
92 102
213 297
46 18
326 40
128 235
129 105
202 184
138 289
115 25
36 41
243 144
279 234
197 333
8 281
334 103
220 233
346 331
137 141
32 259
38 12
231 128
213 82
88 151
21 75
95 58
160 47
205 175
113 123
28 36
74 44
320 288
255 280
192 304
237 84
88 341
27 93
31 345
190 100
132 270
92 198
145 217
30 18
54 99
112 308
25 85
75 127
154 125
25 150
41 207
5 11
4 7
90 253
102 302
122 194
262 142
236 167
189 44
19 14
173 344
13 2
112 144
74 187
22 2
294 276
317 6
5 43
273 240
171 274
4 110
61 42
130 173
251 319
55 40
191 76
46 79
109 215
22 120
8 310
240 204
25 83
126 178
82 100
67 348
208 147
330 223
38 219
16 77
29 181
82 8
11 314
167 152
215 291
21 25
325 52
86 27
253 257
54 67
169 245
57 5
27 59
69 201
103 65
117 293
18 39
71 136
1 8
313 21
10 172
152 83
118 125
189 283
200 149
226 88
105 147
9 5
59 238
275 312
70 58
33 73
148 139
8 28
32 17
15 1
104 247
34 40
76 40
48 216
135 14
9 10
347 298
179 46
264 98
176 37
45 169
66 21
165 129
197 24
108 106
140 145
175 118
153 309
101 14
46 50
192 137
103 162
159 74
101 122
21 44
129 218
224 342
92 105
18 91
82 338
4 27
241 132
8 7
119 225
75 97
19 138
224 64
77 87
