20
86 70 6
13 28
10 16
37 30
36 51
41 6
10 7
51 73
34 56
1 4
69 50
1 14
9 29
31 6
7 19
4 30
12 7
75 64
49 47
6 24
6 64
45 41
62 16
58 3
72 4
3 25
15 32
53 61
15 55
37 82
1 59
13 22
13 1
60 83
81 77
17 16
53 6
6 4
13 39
1 3
11 15
52 60
24 74
15 79
73 80
36 26
42 52
66 65
2 3
86 82
68 70
2 7
63 57
33 67
85 22
9 8
21 13
27 25
47 44
57 12
76 35
52 54
77 59
23 15
17 43
11 10
26 33
37 42
9 34
6 38
5 26
65 13
49 50
14 78
33 48
18 2
1 5
60 84
35 13
20 1
4 2
68 9
64 71
44 37
40 14
8 3
21 46
98 18 78
12 1
60 47
1 20
4 23
6 75
30 33
66 20
67 73
38 92
58 62
72 37
11 14
10 98
4 3
3 5
24 7
9 11
20 83
37 90
2 3
8 31
67 42
71 64
44 12
85 84
10 39
53 20
1 2
81 34
28 13
7 54
14 74
30 5
34 95
26 21
16 48
8 9
41 23
63 49
38 43
53 84
17 88
97 22
15 2
16 68
19 27
7 38
20 93
2 52
64 17
56 12
24 89
77 56
69 41
42 45
59 44
7 16
65 35
79 24
7 47
49 24
9 17
27 32
21 4
2 35
4 10
4 7
51 17
40 36
87 12
58 19
80 52
8 70
13 18
6 8
38 55
17 19
5 25
1 4
61 6
37 35
82 79
78 5
88 94
46 7
22 19
34 6
57 26
45 91
63 76
42 21
86 96
51 86
18 29
13 2
4 6
23 36
28 50
100 53 8
15 8
23 41
89 18
38 17
28 44
62 16
23 14
4 33
85 63
22 94
79 48
30 46
2 18
70 11
48 42
13 14
20 22
56 91
88 55
13 4
34 33
30 4
32 63
2 21
61 39
20 6
10 2
1 5
64 71
65 1
21 51
50 38
6 7
17 96
36 55
39 15
81 3
3 56
3 6
8 4
35 25
6 9
25 17
4 5
36 7
74 40
53 67
82 86
64 12
29 1
62 100
1 2
12 6
90 56
60 78
47 99
73 42
62 66
5 24
7 60
2 3
36 43
39 54
55 98
35 92
31 95
5 11
32 8
97 55
77 34
13 58
14 75
42 11
68 51
45 20
17 1
32 57
93 78
7 72
80 52
9 26
49 37
40 7
53 36
69 44
82 69
18 19
37 20
84 2
70 76
16 6
59 36
7 4
47 18
83 14
27 17
30 31
28 11
87 23
37 52
74 20 11
30 14
4 6
38 9
20 21
21 53
4 5
71 2
54 61
29 16
1 25
59 58
17 67
19 49
44 21
51 27
17 5
10 1
41 23
8 12
1 3
72 41
50 20
15 12
55 13
34 2
9 18
12 24
13 36
4 7
9 70
59 62
12 69
5 1
48 37
33 17
22 37
24 28
57 40
39 46
23 15
35 56
26 16
20 15
8 7
60 17
44 66
52 6
74 50
5 9
64 15
40 6
45 2
2 4
14 11
4 16
65 7
39 6
2 42
41 43
8 27
54 50
13 4
2 3
55 58
43 47
6 11
43 63
73 11
10 68
32 4
19 22
35 19
31 12
19 6
93 22 17
11 5
13 20
18 15
4 8
48 93
29 40
7 6
10 3
83 90
2 6
20 69
10 29
42 65
23 86
10 13
26 1
3 14
8 68
49 2
84 71
31 53
28 81
39 50
33 15
55 75
23 45
79 64
28 8
34 55
82 58
21 70
4 43
6 41
17 63
32 60
16 38
45 51
59 49
25 17
54 9
84 89
11 77
15 6
75 80
27 64
72 1
15 46
18 52
42 47
9 5
43 48
61 52
73 91
1 21
7 3
12 3
1 5
3 9
9 35
62 71
37 67
28 30
8 17
61 78
16 15
14 73
80 88
54 66
62 39
27 36
12 31
27 15
32 27
87 43
24 5
3 83
23 20
40 56
6 22
1 8
37 4
4 2
10 44
76 4
74 26
34 3
1 39
19 42
12 57
4 19
58 7
92 31
85 7
76 34 62
11 1
8 1
41 5
18 4
66 5
27 26
4 55
47 34
42 9
28 34
57 11
21 59
58 31
39 49
46 45
37 72
22 32
12 14
51 46
31 5
48 71
44 52
25 38
43 45
53 16
27 29
40 23
12 6
6 10
6 5
33 2
63 53
67 70
18 22
43 15
69 50
14 37
4 35
67 33
3 19
25 54
13 1
28 14
6 68
64 52
3 5
26 7
5 2
1 4
62 17
1 2
20 7
73 3
48 6
60 37
44 27
3 4
21 11
5 36
46 50
23 18
43 75
6 17
28 30
39 9
15 7
9 8
16 10
28 56
25 22
3 7
74 63
53 61
18 76
61 65
22 24
91 55 35
17 66
1 4
58 74
86 88
1 43
53 83
25 46
90 5
28 26
67 4
5 15
55 36
50 33
12 5
5 56
13 25
78 22
7 11
37 7
61 53
68 55
3 81
73 69
37 47
85 38
31 24
64 50
51 79
26 6
39 41
39 2
45 17
6 4
91 38
9 48
6 8
24 13
24 72
32 11
38 14
25 69
63 11
17 40
22 21
6 14
7 13
3 4
42 14
56 76
1 30
15 54
70 80
33 24
7 1
11 86
3 2
73 77
2 5
60 4
49 14
75 28
53 28
36 11
58 27
18 59
29 20
9 35
34 65
5 18
19 5
16 11
11 20
18 21
10 7
71 57
41 89
51 48
87 34
52 3
10 27
26 34
44 14
17 7
62 13
23 22
82 50
23 57
84 45
9 6
70 30
1 2
98 39 55
54 25
18 61
47 57
12 11
39 75
1 14
11 33
53 9
3 73
14 32
62 57
41 25
56 89
7 23
22 13
8 52
21 28
32 64
59 84
4 30
70 24
5 98
34 38
79 76
91 52
69 53
48 3
1 2
63 26
90 60
7 68
58 41
8 7
1 3
4 3
88 26
16 2
42 46
3 9
70 76
60 24
19 74
43 37
39 2
6 24
3 7
88 97
30 44
21 3
16 49
51 14
10 26
6 5
65 16
96 40
80 65
2 3
25 94
15 17
42 78
59 27
10 67
35 12
36 26
37 10
11 1
63 81
69 72
71 56
4 85
91 93
31 13
20 17
20 82
5 92
19 40
23 29
87 69
34 22
15 7
18 7
55 19
55 86
19 4
4 5
50 13
40 77
95 72
18 56
83 61
41 47
45 34
10 8
13 25
4 66
25 42
27 26
13 2
97 79 38
58 43
34 32
9 65
16 21
81 4
6 40
2 6
29 37
31 86
13 10
42 63
32 17
26 20
5 7
51 31
91 70
72 77
62 11
7 1
11 50
14 2
90 7
25 97
88 57
3 87
30 21
38 7
46 10
2 11
9 70
24 13
8 22
55 44
33 27
79 11
10 43
25 83
21 42
32 89
19 15
4 47
16 13
68 21
36 25
5 15
6 9
75 68
10 8
39 53
26 80
48 67
61 82
16 60
71 2
5 6
59 14
94 59
47 92
3 4
48 31
76 54
93 86
51 73
23 31
45 41
23 25
39 26
85 51
20 13
28 2
24 84
95 42
49 9
22 56
3 54
74 1
61 22
2 8
18 29
1 35
16 17
64 53
13 41
12 5
11 78
18 11
23 57
23 19
69 23
66 62
3 96
27 24
1 3
52 48
6 72
8 4
44 2
80 49 13
50 14
6 61
1 4
5 3
25 63
17 8
17 42
60 56
69 62
12 3
3 24
35 26
33 32
14 13
51 59
20 7
63 80
30 45
38 20
72 58
5 8
11 74
34 66
23 27
62 10
25 17
8 32
56 58
44 12
10 29
54 26
3 7
15 3
6 23
70 40
2 3
22 9
49 16
26 52
55 77
53 13
76 36
15 39
3 11
15 68
38 47
3 13
14 31
16 51
39 41
56 30
43 22
79 5
27 73
40 5
30 29
48 20
3 9
78 70
19 57
28 17
71 50
29 55
5 1
39 67
17 46
6 18
64 2
2 4
1 34
37 9
1 75
19 15
65 46
1 36
26 13
16 9
10 4
4 6
21 5
54 20 51
6 5
42 3
35 2
4 3
5 24
5 11
6 8
16 41
2 3
37 3
48 17
8 23
10 26
18 5
1 4
5 4
11 22
49 4
47 38
29 24
14 21
40 19
6 28
16 5
52 28
15 5
33 17
25 2
19 1
4 10
21 31
14 8
30 1
39 20
27 34
37 43
2 7
41 45
46 9
12 9
1 2
17 16
44 53
9 3
5 38
16 20
41 51
27 11
36 34
44 6
45 50
40 54
8 13
27 32
77 48 52
7 9
2 1
35 56
14 16
31 75
27 48
11 1
50 35
25 47
43 39
20 68
8 2
39 71
6 63
20 1
5 3
14 19
17 3
14 31
29 1
65 63
3 4
5 76
12 21
21 22
62 67
52 35
28 60
1 4
62 47
40 73
3 30
28 42
2 6
66 19
13 2
17 25
19 44
64 58
61 4
14 4
18 41
15 2
35 27
36 19
4 18
49 43
33 38
45 15
31 33
3 2
51 27
3 46
55 15
1 27
6 32
7 5
13 24
40 2
22 28
3 39
72 68
3 26
20 57
34 13
58 7
39 70
53 36
38 59
28 37
77 16
54 18
6 10
17 23
74 20
9 12
40 69
84 62 71
62 41
11 8
9 40
11 27
16 38
49 16
51 65
35 59
22 57
10 1
53 27
8 4
38 44
15 9
45 30
7 52
25 2
3 5
7 2
8 20
60 72
29 32
36 82
3 17
15 21
7 19
70 14
69 54
33 16
2 42
41 21
37 1
8 3
46 14
67 62
75 16
31 17
29 19
25 60
3 78
37 43
5 1
38 84
12 9
54 47
12 79
18 8
4 26
4 24
4 9
42 76
9 14
36 51
63 13
48 10
16 5
29 77
22 5
56 19
59 74
64 59
28 12
58 23
36 17
9 6
7 68
55 53
34 5
13 1
6 2
35 61
23 15
3 80
39 18
35 10
27 83
30 23
73 72
7 10
66 29
71 20
81 31
50 1
1 47
91 21 1
15 3
10 33
1 11
63 14
14 34
45 56
62 59
72 53
64 77
1 53
50 32
13 51
78 35
55 32
86 30
19 87
17 8
3 65
28 16
17 70
16 9
73 4
2 6
45 21
36 20
18 13
17 23
13 9
1 4
7 71
14 2
28 64
3 37
44 4
26 30
26 11
40 43
67 61
1 12
56 58
24 20
88 47
8 1
6 9
61 57
4 7
31 83
3 29
2 4
28 47
68 45
85 22
16 49
5 4
79 27
6 89
19 20
29 31
25 5
11 39
84 70
16 27
41 38
12 19
11 35
80 30
38 17
25 46
84 90
42 21
41 82
20 91
74 7
17 48
6 10
28 81
12 52
54 25
25 69
1 3
2 3
76 47
31 66
11 22
54 59
23 40
13 57
32 26
75 48
7 60
21 19
75 64 56
14 34
2 15
67 50
45 23
11 46
60 17
3 6
27 3
34 48
3 61
35 32
2 22
1 56
26 55
72 54
57 40
16 49
65 41
43 37
25 64
11 14
17 16
69 6
40 17
41 62
2 39
13 9
11 12
51 30
1 28
73 14
29 2
26 52
23 37
6 10
10 1
25 2
75 19
59 32
1 5
2 8
12 23
11 47
4 9
19 41
4 8
20 11
3 2
6 16
58 20
30 20
14 66
31 20
71 63
19 3
50 30
26 18
24 21
53 63
45 74
56 70
9 7
15 38
7 5
12 32
7 18
15 33
42 44
53 45
42 21
19 36
11 6
21 6
54 41
68 52
78 20 63
71 59
24 10
31 12
40 24
19 20
28 51
46 7
42 27
13 9
1 9
3 58
12 29
14 8
4 5
7 6
9 16
3 6
23 66
54 29
22 16
30 15
63 12
62 28
1 4
39 33
11 7
41 43
15 2
2 55
26 49
65 72
35 44
23 5
76 77
56 64
47 20
57 56
21 53
3 26
60 45
52 69
74 65
67 39
8 19
78 73
47 65
68 57
70 17
17 75
73 67
21 8
45 56
32 19
3 2
38 32
7 8
15 36
33 26
28 9
27 34
27 45
48 40
4 35
12 18
54 59
58 61
1 3
2 5
7 10
41 23
52 25
27 25
37 35
50 32
17 6
7 12
25 17
31 76
78 71 75
11 9
6 8
1 3
47 46
24 12
13 7
46 20
21 61
37 28
40 77
36 1
64 51
66 54
56 13
74 42
9 5
63 55
8 4
28 2
29 7
52 25
22 2
25 50
1 21
69 3
39 51
3 23
26 39
57 8
14 78
4 27
53 33
67 4
59 58
12 6
17 45
7 14
10 18
17 6
16 7
26 11
17 68
71 21
40 13
25 75
7 2
22 30
5 4
38 17
19 9
60 11
39 54
43 40
31 16
62 11
32 33
42 18
3 2
9 1
32 11
7 6
18 65
53 73
3 25
15 3
30 44
58 33
48 12
6 34
4 70
49 40
9 41
20 1
72 64
11 55
31 35
10 2
5 76
55 35 42
4 23
53 11
1 9
22 15
4 6
40 38
27 16
11 17
47 17
55 10
10 3
22 44
5 28
1 26
1 16
27 35
32 1
25 9
31 33
33 50
46 16
21 29
15 20
18 43
20 24
45 14
2 1
4 3
14 8
31 1
48 40
39 18
11 10
18 3
2 7
49 45
14 36
51 50
27 38
3 8
21 12
41 18
14 42
2 19
12 6
4 2
52 34
35 37
1 3
1 5
13 2
15 1
54 26
19 34
7 30
70 14 64
49 8
15 18
40 4
3 16
24 27
34 27
60 47
2 3
8 44
64 68
7 1
15 28
59 4
2 5
30 27
33 29
7 19
29 19
70 20
47 25
15 65
17 5
41 57
22 11
4 55
64 13
5 9
50 23
31 56
8 4
4 2
66 56
21 10
48 18
52 22
6 10
12 7
26 1
7 39
3 1
6 51
4 42
36 18
16 35
61 49
18 45
4 11
11 43
12 46
54 23
14 4
31 16
22 67
25 22
36 62
41 4
20 15
6 1
1 2
53 23
4 24
9 69
18 32
58 42
38 24
1 15
22 23
24 63
7 13
37 12
54 16 5
27 19
10 31
13 10
9 10
5 3
33 45
21 33
4 18
3 8
41 36
20 15
40 39
36 31
23 16
25 24
47 2
13 54
35 1
50 49
8 2
24 8
6 1
21 8
7 6
33 34
16 1
12 11
3 11
15 9
1 4
7 5
48 3
23 51
34 53
14 3
28 7
3 46
44 25
29 12
28 43
5 9
7 32
41 52
42 15
17 1
39 3
7 19
26 23
19 38
17 30
2 4
49 29
2 22
28 37
