10
37 33 1
20 19
14 15
27 26
24 23
30 31
17 16
2 3
27 28
22 21
24 25
12 11
34 33
26 25
36 37
7 6
20 21
16 37
8 9
13 12
10 9
13 14
29 30
1 2
31 32
18 19
16 15
28 29
33 32
17 18
7 8
35 36
5 4
3 4
34 35
6 5
11 10
23 22
25 3 14
25 24
22 21
22 23
10 11
3 4
7 6
3 25
19 18
3 2
17 18
14 15
16 15
1 2
16 17
10 9
4 5
12 11
5 6
20 19
8 9
8 7
12 13
21 20
14 13
24 23
50 11 32
36 35
34 33
24 25
32 33
28 27
4 5
29 28
26 27
21 22
35 34
41 42
21 20
8 7
26 25
44 43
1 2
19 20
47 46
13 14
14 50
43 42
18 19
36 37
5 6
46 45
47 48
22 23
31 30
6 7
14 15
40 39
50 49
45 44
12 13
40 41
11 10
16 15
12 11
3 2
31 32
3 4
29 30
48 49
23 24
17 18
38 39
38 37
16 17
10 9
9 8
36 13 26
3 2
31 32
1 2
21 22
10 11
6 7
16 36
5 6
14 13
18 19
17 16
32 33
20 21
20 19
25 26
13 12
36 35
16 15
12 11
9 8
23 22
29 28
17 18
30 29
27 26
9 10
35 34
27 28
3 4
7 8
30 31
14 15
34 33
4 5
24 25
23 24
30 23 9
30 29
9 8
7 8
13 12
19 20
11 10
18 17
23 22
15 16
22 21
10 9
5 6
26 25
29 28
27 26
3 2
27 28
16 17
14 13
4 3
7 6
24 23
25 24
30 3
20 21
14 15
5 4
19 18
12 11
2 1
42 29 1
6 7
22 23
16 15
41 42
39 38
1 2
5 4
5 6
3 2
27 28
16 17
28 29
12 11
8 9
7 8
37 38
40 39
36 35
37 36
3 4
24 25
34 35
30 29
32 33
12 13
20 42
41 40
34 33
18 17
22 21
19 18
27 26
15 14
11 10
10 9
20 21
30 31
24 23
19 20
26 25
32 31
13 14
31 30 18
9 8
25 26
2 3
2 1
6 5
14 13
12 11
16 15
18 17
10 9
7 8
17 16
19 20
13 12
8 31
4 3
30 29
15 14
18 19
21 22
28 29
7 6
5 4
21 20
24 23
28 27
30 31
25 24
27 26
23 22
11 10
35 15 30
35 5
15 14
6 7
12 13
28 29
33 32
21 22
1 2
20 21
17 18
5 4
8 9
24 25
34 35
12 11
16 17
3 2
14 13
32 31
8 7
30 31
16 15
11 10
34 33
4 3
19 20
26 27
19 18
29 30
26 25
5 6
9 10
24 23
28 27
22 23
41 4 26
28 27
11 12
25 26
6 7
29 30
7 8
2 1
10 9
2 3
6 5
33 32
41 11
35 34
31 32
11 10
17 16
37 38
40 39
20 21
35 36
41 40
19 20
36 37
18 19
34 33
5 4
25 24
39 38
22 21
30 31
3 4
23 24
13 14
8 9
28 29
14 15
18 17
23 22
27 26
13 12
15 16
42 38 20
41 40
37 38
9 10
4 3
38 39
5 6
15 16
15 14
22 23
6 7
11 12
28 27
39 40
19 18
10 11
24 23
12 13
36 37
21 22
34 35
20 19
17 18
21 20
16 17
3 2
35 36
31 32
24 25
5 4
13 14
32 33
30 31
26 27
8 9
34 33
28 29
42 41
7 8
25 26
2 1
29 30
42 8
