15
13 1 7
6 4
1 3
3 4
1 8
9 8
7 12
7 3
10 11
10 7
13 2
2 4
1 2
2 5
11 7 3
2 1
3 2
2 9
1 4
1 7
1 3
10 1
9 11
1 5
2 8
6 5
21 1 3
6 16
21 16
12 8
1 20
2 18
5 4
6 15
14 8
3 7
4 6
10 4
4 11
1 2
3 1
13 6
17 4
4 2
3 4
9 7
5 8
19 4
18 12 4
12 16
8 11
17 11
14 4
6 4
9 8
3 8
2 3
3 10
10 15
9 12
7 4
1 7
2 5
8 13
18 14
5 6
1 9
25 1 4
6 4
10 25
11 1
6 22
4 23
1 13
7 18
22 24
5 1
17 20
14 17
18 21
14 7
2 10
2 4
19 8
3 2
9 12
8 5
3 1
2 1
9 7
16 13
13 15
7 1
18 1 17
7 1
8 7
11 1
6 3
13 3
9 10
7 3
4 5
2 1
15 5
15 18
16 9
16 17
9 1
6 4
12 1
5 2
7 14
11 9 10
1 5
3 8
10 5
5 2
4 3
11 3
9 4
6 3
1 6
7 6
4 2
16 12 16
1 7
4 12
5 6
11 6
9 7
2 1
2 16
10 6
13 11
4 8
14 13
8 9
5 3
3 4
2 15
2 10
24 7 17
6 22
7 4
4 14
4 8
6 4
2 4
11 12
7 10
20 21
6 13
1 5
2 3
12 17
6 19
18 11
3 24
9 1
23 22
11 7
5 3
3 15
20 8
16 3
6 1
13 10 6
4 2
7 11
1 12
9 7
1 2
1 8
6 5
7 6
5 3
4 10
4 3
13 11
1 7
30 29 11
24 6
10 3
23 10
15 10
5 8
25 8
22 20
13 6
4 1
4 6
9 11
12 2
26 30
7 5
11 17
16 8
4 26
14 18
4 27
14 5
9 21
2 6
24 28
3 8
2 9
2 7
4 20
9 19
29 2
3 1
15 12 2
4 3
2 12
3 5
1 2
13 14
7 6
2 6
8 10
5 7
8 1
4 1
9 4
7 13
11 9
15 2
21 9 15
20 17
4 2
6 5
5 12
17 18
3 5
2 7
13 3
2 1
11 7
4 6
14 10
5 17
19 13
8 3
15 11
1 3
9 1
3 10
21 11
16 5
30 27 7
30 12
3 2
16 22
16 17
4 6
1 3
29 21
11 8
16 15
7 20
3 10
8 6
24 5
28 13
5 9
19 21
25 12
6 7
2 1
5 4
5 13
14 18
14 6
23 20
11 27
19 4
4 3
15 11
18 26
12 9
14 5 8
1 3
3 2
5 7
4 2
9 10
5 12
2 5
1 13
6 8
2 11
14 13
1 4
6 4
8 9
