15
94 3 85
29 28
57 58
25 24
2 1
92 93
44 43
6 80
80 81
42 41
77 78
14 13
11 10
13 12
55 56
89 88
54 55
31 30
59 60
16 15
71 70
63 64
74 75
1 7
3 4
90 91
28 27
52 53
46 45
32 33
62 63
19 20
40 39
65 66
40 41
94 93
45 44
1 6
18 19
73 74
91 92
22 21
5 4
5 65
7 8
38 39
69 68
90 89
10 9
84 83
85 86
37 38
35 3
72 73
5 6
9 8
31 32
26 25
53 54
77 76
78 79
47 46
87 88
61 60
70 69
21 2
85 84
37 36
61 62
57 56
49 48
50 51
51 52
36 35
22 23
50 4
82 83
47 48
18 17
29 30
76 75
68 67
72 71
43 42
16 17
23 24
67 66
2 3
27 26
82 81
86 87
58 59
11 12
15 14
33 34
105 5 57
14 15
79 78
5 4
29 28
29 30
3 4
88 87
19 18
48 47
22 21
19 20
86 87
51 52
99 100
94 95
17 18
35 36
102 101
6 1
70 69
77 76
63 62
6 5
41 42
62 61
23 24
39 40
53 54
95 96
60 61
59 58
13 14
78 77
46 47
65 64
91 92
26 27
58 57
42 43
103 102
2 1
84 83
89 6
104 103
23 2
45 44
73 74
7 1
57 56
25 26
8 7
43 44
100 101
45 46
32 33
80 81
10 9
55 56
2 3
74 75
53 52
70 71
31 32
39 3
11 10
24 25
86 85
8 9
99 98
98 97
93 92
63 64
73 72
31 30
93 94
90 89
41 40
38 37
50 49
65 66
33 34
76 75
97 96
69 68
82 81
105 104
82 83
5 72
90 91
68 67
35 34
67 66
85 84
12 11
15 16
20 21
79 80
50 51
55 4
16 17
49 48
36 37
13 12
59 60
28 27
88 2 87
54 53
82 83
57 58
17 18
38 37
78 77
16 15
41 42
10 11
1 7
17 16
79 80
83 84
36 35
10 9
21 20
40 39
35 34
41 40
73 72
59 58
30 29
50 49
48 49
80 81
6 5
47 48
68 67
33 3
70 71
78 79
75 76
29 28
44 43
2 20
62 63
27 26
3 2
55 54
25 24
12 11
34 33
47 4
14 15
72 71
68 69
23 22
74 73
13 12
24 23
65 64
86 87
85 86
50 51
39 38
64 63
37 36
28 27
1 6
84 85
31 30
8 7
9 8
5 4
69 70
76 77
65 66
1 2
61 5
51 52
42 43
59 60
45 44
56 57
66 67
55 56
81 82
26 25
87 88
6 75
21 22
53 52
3 4
32 31
19 18
46 45
62 61
13 14
92 5 46
20 19
5 63
21 22
16 15
85 86
8 7
42 43
17 18
31 30
14 13
10 11
44 45
50 51
64 63
85 84
4 49
57 58
64 65
74 75
68 69
78 6
23 22
88 89
57 56
21 2
51 52
74 73
78 79
5 4
72 71
61 62
42 41
90 91
66 67
34 33
80 81
16 17
26 27
83 82
84 83
24 23
53 52
71 70
1 7
47 48
29 30
38 39
46 47
91 92
53 54
82 81
90 89
66 65
46 45
25 26
61 60
56 55
25 24
70 69
76 77
87 88
59 58
59 60
31 32
11 12
50 49
72 73
28 29
75 76
33 32
39 40
35 3
36 37
80 79
2 3
5 6
18 19
54 55
15 14
9 10
28 27
1 2
9 8
35 36
3 4
12 13
41 40
6 1
43 44
37 38
67 68
86 87
120 2 120
59 60
111 112
10 9
54 55
89 90
61 60
92 91
57 58
27 26
3 45
1 6
77 76
56 55
4 3
115 114
84 83
45 46
95 96
37 38
12 13
86 85
57 56
1 7
49 48
105 106
97 96
13 14
37 36
92 93
93 94
41 42
64 4
78 77
118 117
119 120
33 34
24 25
73 72
65 66
8 7
89 88
2 1
11 12
31 30
17 18
70 69
104 103
119 118
95 94
35 34
109 110
29 28
116 115
73 74
64 65
98 99
41 40
83 5
91 90
113 112
79 80
111 110
44 43
108 109
42 43
49 50
19 20
5 6
100 99
15 16
51 50
79 78
46 47
102 6
81 80
20 21
62 61
67 66
29 30
114 113
47 48
76 75
68 69
102 103
71 70
40 39
97 98
35 36
116 117
108 107
17 16
101 100
53 52
74 75
2 3
22 21
105 104
88 87
81 82
31 32
24 23
27 28
52 51
15 14
67 68
106 107
9 8
26 2
58 59
11 10
23 22
54 53
32 33
39 38
87 86
85 84
19 18
62 63
4 5
72 71
134 4 124
57 56
108 107
45 46
99 100
53 52
21 22
30 31
26 27
133 132
55 56
7 8
85 86
50 51
32 33
133 134
35 34
30 29
127 126
31 32
127 128
37 36
122 121
26 25
84 83
5 91
96 95
113 114
80 79
114 115
34 33
4 3
7 1
62 61
119 118
117 118
123 122
117 116
125 126
49 3
87 86
120 119
69 68
2 1
10 9
62 63
25 24
50 49
53 54
105 104
60 61
16 15
102 101
65 66
71 72
40 39
47 46
106 105
107 106
83 82
44 43
109 110
58 59
37 38
129 128
20 19
95 94
103 102
67 68
6 1
18 17
5 4
125 124
42 43
45 44
112 111
94 93
12 11
74 75
88 87
4 70
77 76
58 57
47 48
17 16
113 6
92 93
35 36
2 3
99 98
12 13
55 54
13 14
2 28
70 71
108 109
20 21
40 41
18 19
73 72
84 85
97 98
124 123
15 14
74 73
81 82
76 75
90 89
28 29
88 89
100 101
77 78
59 60
131 130
23 22
104 103
91 92
10 11
129 130
96 97
39 38
8 9
64 63
110 111
67 66
120 121
41 42
5 6
52 51
64 65
116 115
131 132
79 78
80 81
23 24
140 3 140
19 18
68 67
46 47
132 133
87 86
74 73
36 35
49 48
80 79
2 29
60 61
76 77
15 16
98 99
63 64
25 26
121 122
40 39
67 66
3 51
92 93
129 128
21 22
132 131
110 111
83 82
30 29
60 59
55 54
5 6
65 64
81 80
116 117
31 30
44 43
50 49
74 75
76 75
114 115
69 68
131 130
102 103
99 100
84 85
2 1
73 4
7 1
32 33
17 18
77 78
55 56
17 16
90 91
9 8
125 126
14 13
15 14
110 109
135 136
44 45
134 135
70 71
78 79
5 4
12 11
31 32
92 91
6 1
101 102
36 37
94 93
86 85
62 63
140 139
48 47
100 101
70 69
34 35
114 113
125 124
98 97
13 12
105 106
127 128
96 97
38 37
3 4
19 20
108 109
123 122
66 65
136 137
107 106
10 11
27 26
126 127
23 22
118 6
115 116
43 42
39 38
111 112
119 118
53 54
34 33
8 7
53 52
108 107
24 23
9 10
3 2
138 137
41 42
51 52
45 46
105 104
84 83
56 57
20 21
25 24
129 130
104 103
82 81
88 87
72 71
119 120
27 28
58 59
88 89
134 133
112 113
124 123
40 41
89 90
139 138
95 5
121 120
95 96
62 61
58 57
88 6 75
53 52
40 39
7 1
31 30
6 75
79 78
17 16
70 71
72 73
83 82
86 85
17 18
11 12
2 3
2 20
73 74
59 60
40 41
80 79
77 78
24 25
13 12
57 56
5 6
44 45
21 22
88 87
13 14
29 30
9 8
62 61
54 55
34 33
35 36
66 67
50 51
9 10
22 23
10 11
3 33
2 1
65 64
69 68
45 46
20 21
4 3
27 28
34 35
16 15
57 58
31 32
14 15
67 68
49 50
42 41
80 81
38 39
48 49
47 4
63 62
25 26
36 37
63 64
26 27
83 84
53 54
28 29
85 84
75 76
81 82
86 87
24 23
37 38
7 8
5 4
72 71
52 51
70 69
42 43
56 55
47 48
6 1
76 77
61 5
65 66
43 44
19 18
59 58
112 4 59
56 57
60 61
65 64
7 1
36 35
43 44
46 47
19 18
93 94
79 78
13 12
69 70
30 31
89 90
103 104
11 10
7 8
73 72
59 4
34 35
4 5
99 98
33 34
14 15
17 16
81 80
109 108
84 83
103 102
40 39
107 108
70 71
57 58
50 51
43 42
19 20
97 96
22 23
86 85
80 79
67 68
78 77
38 39
24 2
53 54
93 92
81 82
111 110
56 55
66 67
11 12
98 97
87 86
6 5
32 31
105 106
101 100
66 65
5 77
62 63
9 10
3 4
1 2
104 105
88 89
21 22
6 95
55 54
51 52
32 33
102 101
61 62
107 106
48 49
68 69
3 41
99 100
20 21
112 111
3 2
16 15
50 49
72 71
85 84
110 109
29 28
63 64
45 44
92 91
90 91
76 75
27 28
42 41
45 46
9 8
47 48
87 88
17 18
1 6
27 26
29 30
36 37
25 26
24 25
38 37
59 60
74 73
83 82
13 14
75 74
53 52
96 95
120 6 14
18 17
81 82
2 3
16 15
10 11
3 4
76 75
116 115
7 8
45 3
106 105
97 96
80 79
28 27
36 35
13 14
12 11
112 111
55 54
86 85
114 113
86 87
30 29
5 6
43 44
74 73
41 42
118 119
50 51
52 51
22 21
100 99
96 95
6 1
46 45
91 92
83 5
102 103
83 84
116 117
12 13
14 15
95 94
60 59
41 40
2 26
26 27
56 55
10 9
93 94
69 70
78 79
112 113
61 62
33 34
97 98
93 92
98 99
23 24
17 16
37 38
9 8
88 87
76 77
81 80
72 71
101 100
78 77
85 84
90 89
46 47
68 67
109 110
56 57
64 65
52 53
58 57
109 108
67 66
60 61
36 37
119 120
50 49
48 49
90 91
106 107
4 5
59 58
69 68
75 74
53 54
31 30
35 34
25 24
4 64
19 20
32 33
66 65
89 88
18 19
28 29
104 105
71 70
43 42
108 107
2 1
111 110
39 40
47 48
20 21
118 117
22 23
103 104
63 62
31 32
6 102
39 38
1 7
114 115
72 73
105 4 100
67 66
58 59
38 37
48 47
69 70
96 97
56 55
30 29
101 100
6 89
78 79
15 16
41 42
82 83
16 17
2 3
53 52
51 50
105 104
17 18
45 44
80 79
40 39
83 84
65 66
87 86
94 95
86 85
46 45
1 6
87 88
92 91
18 19
47 46
85 84
32 31
35 36
12 11
90 91
102 101
55 4
81 80
39 3
72 73
102 103
21 20
34 35
54 53
99 98
40 41
4 3
28 29
9 8
1 2
9 10
22 21
93 92
95 96
97 98
63 64
10 11
77 76
34 33
30 31
61 62
36 37
103 104
74 73
78 77
57 56
72 5
33 32
44 43
60 61
60 59
27 28
4 5
74 75
25 24
58 57
70 71
81 82
27 26
24 23
13 14
26 25
50 49
68 67
75 76
68 69
15 14
52 51
49 48
6 5
8 7
89 90
23 2
20 19
7 1
63 62
94 93
12 13
42 43
100 99
65 64
150 5 113
86 85
40 39
11 12
132 131
142 143
54 53
4 5
85 84
96 95
89 88
116 117
3 55
115 116
3 2
136 137
71 72
111 110
135 136
106 107
146 145
46 47
113 112
122 123
31 2
7 1
61 62
83 82
127 6
58 59
16 15
28 29
115 114
91 92
35 34
22 21
99 98
138 139
1 2
51 50
118 117
145 144
82 81
89 90
150 149
56 57
103 104
73 74
44 45
121 122
69 70
106 105
43 44
148 147
11 10
43 42
141 140
125 124
125 126
66 67
73 72
63 62
71 70
113 114
147 146
67 68
50 49
36 35
112 111
103 5
133 134
33 34
100 99
4 79
80 81
41 40
25 26
22 23
100 101
80 79
108 109
75 74
8 7
141 142
38 37
66 65
69 68
48 47
109 110
87 88
13 14
98 97
59 60
27 28
124 123
90 91
52 53
118 119
10 9
75 76
63 64
39 38
93 92
137 138
83 84
42 41
120 121
134 135
17 18
45 46
55 56
30 29
12 13
57 58
52 51
49 48
19 18
4 3
128 129
17 16
37 36
26 27
65 64
130 129
6 5
25 24
131 130
20 19
20 21
8 9
93 94
33 32
132 133
87 86
1 6
76 77
127 128
148 149
139 140
105 104
14 15
97 96
107 108
120 119
102 101
61 60
95 94
143 144
31 32
23 24
77 78
118 4 62
103 102
105 104
77 76
12 13
15 16
87 86
93 94
5 81
84 83
80 79
66 67
9 10
58 59
6 100
62 4
4 3
18 17
78 77
104 103
113 114
52 51
107 108
106 105
32 33
50 49
33 34
116 115
111 112
31 30
70 69
62 63
78 79
59 60
86 85
41 40
76 75
65 64
16 17
38 39
45 44
22 23
88 87
82 83
5 4
45 46
37 36
43 44
68 69
60 61
91 90
5 6
89 90
19 20
112 113
14 15
22 21
65 66
58 57
117 118
73 74
36 35
88 89
114 115
96 95
48 49
96 97
2 3
47 46
71 70
84 85
12 11
99 98
34 35
91 92
2 25
82 81
48 47
53 54
67 68
6 1
92 93
71 72
29 28
95 94
109 110
1 2
27 28
21 20
108 109
11 10
54 55
117 116
29 30
13 14
53 52
102 101
40 39
41 42
8 7
73 72
31 32
63 64
74 75
26 25
57 56
111 110
51 50
106 107
8 9
43 3
56 55
37 38
101 100
26 27
97 98
23 24
7 1
19 18
129 3 59
19 18
25 26
82 81
58 59
3 47
99 98
57 58
8 7
6 5
23 24
118 119
87 86
12 13
1 6
48 49
114 115
16 15
76 77
126 125
25 24
76 75
63 62
5 4
22 23
116 115
128 127
20 21
95 94
14 13
55 56
111 110
90 91
103 102
105 104
72 71
93 94
31 32
52 51
80 81
48 47
2 1
33 32
65 66
121 122
16 17
64 65
4 3
10 11
43 42
3 2
62 61
82 83
60 61
29 28
107 106
33 34
111 112
100 101
97 98
56 57
28 27
117 118
27 2
73 72
122 123
110 109
79 78
53 52
71 70
5 88
119 120
31 30
95 96
38 37
129 128
114 113
127 126
101 102
46 45
104 103
105 106
96 97
42 41
74 73
49 50
79 80
83 84
69 70
90 89
54 55
35 34
8 9
15 14
67 68
109 6
89 88
54 53
21 22
78 77
108 107
92 91
44 45
43 44
113 112
1 7
11 12
41 40
50 51
40 39
74 75
17 18
68 69
37 36
84 85
60 59
35 36
93 92
117 116
85 86
99 100
20 19
124 123
10 9
64 63
124 125
4 67
38 39
29 30
120 121
110 4 84
71 72
59 58
30 29
78 77
41 42
6 93
64 65
1 2
59 60
48 49
105 104
36 35
16 15
100 99
55 56
31 30
80 79
7 1
70 69
53 52
12 11
109 110
63 62
3 41
11 10
53 54
46 47
106 107
68 67
61 60
32 31
34 35
68 69
28 27
84 83
56 57
75 76
21 20
108 107
95 94
67 66
78 79
26 27
87 88
44 43
18 19
98 99
8 7
51 52
3 4
44 45
81 80
47 48
38 39
102 101
14 15
37 36
81 82
26 25
103 102
23 22
82 83
50 49
73 72
106 105
65 66
97 96
108 109
8 9
46 45
14 13
9 10
93 94
21 22
70 71
98 97
51 50
76 77
86 87
90 89
2 24
101 100
33 34
17 16
88 89
6 5
103 104
55 54
91 90
12 13
19 20
86 85
75 5
63 64
28 29
95 96
39 40
24 25
73 74
61 62
37 38
1 6
92 91
85 84
4 5
3 2
33 32
43 42
17 18
58 4
