38
685 2 147
483 482
573 574
437 438
654 653
42 43
343 342
636 637
543 544
147 148
517 516
92 91
219 220
372 371
132 133
448 449
598 599
123 122
313 314
348 349
514 513
396 397
572 573
179 178
316 315
188 189
478 477
336 337
338 337
264 263
344 345
39 38
42 41
277 276
103 104
528 527
466 465
174 175
183 182
677 676
643 644
306 307
71 70
232 231
134 135
610 611
240 241
8 9
297 298
199 198
233 3
660 659
663 662
346 4
658 659
192 193
304 303
521 522
541 540
273 274
681 682
320 319
355 356
411 412
425 424
526 525
180 181
399 400
534 533
568 569
145 146
445 446
250 249
19 18
83 84
45 44
187 188
227 228
583 582
151 152
630 631
118 117
319 318
538 537
32 31
333 332
89 88
552 551
184 185
674 675
678 679
195 194
532 531
657 658
472 471
321 322
604 603
83 82
170 169
347 346
671 670
365 364
620 619
682 683
117 116
165 164
594 593
562 561
497 498
505 506
247 248
576 575
296 295
406 405
2 120
669 668
623 622
563 564
413 412
105 106
639 638
7 8
359 360
554 553
320 321
603 602
133 134
144 145
93 92
326 325
28 27
192 191
197 196
275 274
339 340
237 236
128 129
299 298
461 460
310 309
552 553
585 586
408 409
510 511
138 139
362 363
355 354
158 159
261 260
143 142
239 240
327 326
679 680
512 513
474 475
208 209
615 616
588 587
454 455
127 126
432 433
294 293
332 331
382 381
272 271
171 172
492 493
665 664
352 353
387 386
366 367
72 73
489 490
613 612
67 66
422 423
606 605
290 291
75 74
354 353
150 151
429 428
529 530
423 424
331 330
189 190
207 206
234 235
258 257
75 76
324 323
465 464
570 569
23 24
531 530
176 175
324 325
524 523
11 12
294 295
22 23
625 624
77 76
53 54
58 59
446 447
443 444
550 549
596 597
124 123
335 334
97 98
614 615
308 307
430 429
220 221
509 508
375 374
288 289
167 168
268 269
612 611
427 426
389 390
96 95
202 201
301 302
652 651
370 371
476 475
566 565
381 380
668 667
519 518
507 506
633 632
5 6
219 218
440 441
459 5
1 2
312 313
373 374
434 435
453 454
21 20
648 647
535 534
40 39
535 536
577 578
150 149
255 256
393 392
521 520
217 218
442 441
601 600
556 555
143 144
648 649
102 101
417 418
89 90
440 439
35 36
215 216
19 20
621 620
462 461
508 507
193 194
35 34
339 338
646 647
395 396
657 656
684 685
357 356
457 458
93 94
466 467
328 329
60 59
223 224
421 422
664 663
65 66
480 481
228 229
577 576
500 499
619 618
336 335
358 359
645 646
13 12
586 587
536 537
566 567
669 670
18 17
132 131
120 121
554 555
74 73
626 627
383 384
24 25
560 559
147 146
677 678
299 300
244 245
280 279
607 606
522 523
153 154
174 173
199 200
72 71
609 610
376 377
272 273
543 542
165 166
14 15
242 243
539 538
456 455
360 361
270 271
655 656
286 285
282 283
211 210
121 122
357 358
597 598
673 672
378 379
547 546
284 285
415 414
51 52
581 580
334 333
109 110
94 95
281 282
53 52
79 80
514 515
153 152
251 252
128 127
608 607
293 292
239 238
363 364
181 182
496 497
487 488
642 643
486 485
283 284
600 599
210 209
661 660
601 602
420 421
178 177
77 78
111 112
428 427
655 654
233 234
329 330
230 231
61 62
113 114
50 49
262 263
447 448
37 38
203 202
186 187
595 594
106 107
661 662
474 473
230 229
184 183
418 419
138 137
459 460
212 211
125 124
103 102
608 609
163 164
433 434
254 253
115 114
323 322
464 463
87 88
136 137
216 217
198 197
140 139
681 680
303 302
141 142
278 279
410 411
505 504
131 130
502 503
641 640
388 389
255 254
289 290
227 226
7 1
157 156
635 634
3 4
491 492
548 547
510 509
33 34
310 311
471 470
469 470
444 445
390 391
347 348
666 667
398 399
344 343
564 565
250 251
81 80
40 41
370 369
407 408
97 96
436 435
167 166
571 570
596 595
351 350
266 265
104 105
517 518
574 575
68 69
395 394
604 605
99 98
392 391
443 442
296 297
478 479
352 351
624 623
628 627
683 684
25 26
235 236
108 107
592 593
468 469
160 159
410 409
572 6
373 372
56 57
287 286
309 308
549 548
64 65
590 589
365 366
48 47
557 558
515 516
494 493
457 456
155 154
342 341
125 126
253 252
383 382
393 394
82 81
361 362
113 112
222 223
385 384
301 300
641 642
57 58
417 416
90 91
44 43
155 156
328 327
314 315
451 452
640 639
484 483
584 583
87 86
400 401
291 292
407 406
487 486
129 130
16 15
404 405
2 3
288 287
618 617
67 68
275 276
463 462
61 60
1 6
4 5
349 350
215 214
563 562
367 368
472 473
204 203
616 617
86 85
532 533
491 490
592 591
637 638
401 402
195 196
558 559
512 511
632 631
180 179
579 578
208 207
13 14
262 261
265 264
582 581
246 245
479 480
629 630
45 46
190 191
580 579
650 649
550 551
588 589
259 258
526 527
62 63
213 214
46 47
377 378
316 317
449 450
467 468
591 590
485 484
651 650
520 519
246 247
171 170
140 141
628 629
541 542
213 212
528 529
311 312
10 11
270 269
388 387
244 243
495 496
404 403
452 453
385 386
36 37
260 259
160 161
238 237
675 676
161 162
162 163
414 413
450 451
51 50
108 109
30 31
416 415
48 49
221 222
402 403
172 173
672 671
267 266
398 397
55 56
644 645
32 33
525 524
29 30
200 201
340 341
482 481
17 16
375 376
206 205
368 369
204 205
176 177
280 281
499 498
248 249
157 158
438 439
257 256
135 136
225 224
556 557
419 420
100 101
495 494
539 540
64 63
225 226
100 99
666 665
304 305
242 241
614 613
560 561
185 186
621 622
430 431
584 585
425 426
54 55
115 116
488 489
22 21
69 70
674 673
9 10
501 500
567 568
431 432
504 503
26 27
28 29
149 148
502 501
267 268
79 78
379 380
634 633
436 437
85 84
476 477
278 277
544 545
318 317
545 546
306 305
653 652
168 169
110 111
636 635
119 118
625 626
618 6 92
94 95
336 337
220 221
160 161
496 497
297 296
455 454
320 321
272 273
366 367
53 52
570 571
511 510
274 275
328 327
585 584
266 267
559 558
586 587
533 534
314 313
35 36
442 441
388 387
259 260
346 345
196 197
154 153
174 175
361 362
429 430
569 570
112 113
454 453
549 550
329 328
466 465
105 104
69 68
596 597
554 553
122 123
400 401
318 319
44 45
143 142
419 418
176 177
392 393
340 341
10 9
560 559
377 376
252 253
258 259
445 446
163 162
541 540
132 133
180 181
515 514
404 403
103 104
121 122
205 204
322 323
471 470
160 159
165 166
378 379
498 499
592 593
289 288
405 404
458 459
234 235
299 298
345 344
501 502
369 370
276 277
393 394
210 209
165 164
111 112
134 133
447 446
468 467
294 293
507 508
83 84
114 115
111 110
537 538
562 563
130 129
140 141
23 24
461 460
152 153
216 217
248 247
167 168
339 338
30 31
530 531
560 561
358 359
158 157
373 372
494 495
361 360
103 102
107 106
245 246
391 390
529 530
398 397
466 467
216 215
225 226
223 224
188 189
370 371
383 382
469 468
597 598
381 382
574 573
17 16
450 449
263 262
555 556
172 173
528 529
55 56
285 284
576 577
127 126
271 272
400 399
35 34
297 298
399 398
199 198
348 349
187 188
220 219
307 306
72 71
378 377
23 22
535 534
79 80
613 612
57 58
449 448
608 607
102 101
408 407
350 349
230 229
255 254
117 116
315 316
4 5
392 391
325 324
309 310
429 428
87 88
283 282
615 614
463 462
61 60
441 440
320 319
116 115
239 238
110 109
610 611
420 419
421 420
91 90
184 183
118 119
270 271
285 286
230 231
453 452
501 500
131 130
554 555
505 504
6 517
305 306
572 573
256 257
428 427
212 211
32 31
268 269
214 213
337 338
590 589
317 316
568 569
495 496
37 36
558 557
232 231
409 408
577 578
287 288
322 321
7 8
144 145
412 413
200 201
539 540
194 193
476 477
578 579
3 4
455 456
286 287
610 609
587 588
509 508
615 616
347 348
73 72
308 309
179 180
124 125
279 278
157 156
246 247
506 507
545 546
491 490
430 431
134 135
25 24
233 232
48 49
27 28
66 65
427 426
251 252
381 380
17 18
283 284
552 553
44 43
137 136
194 195
547 546
374 373
366 365
465 464
90 89
78 77
148 147
409 410
606 605
185 184
262 261
47 46
472 471
593 594
611 612
2 109
63 62
76 75
486 485
522 521
583 582
101 100
140 139
487 488
401 402
249 248
473 474
380 379
332 331
434 435
77 76
475 476
187 186
254 253
372 371
146 145
278 277
61 62
456 457
591 592
323 324
164 163
2 3
552 551
249 250
479 478
410 411
138 139
86 87
596 595
461 462
568 567
580 581
171 172
59 58
218 219
229 228
178 177
128 127
504 503
544 545
418 417
197 198
588 589
367 368
258 257
403 402
396 395
227 228
413 414
308 307
155 156
8 9
385 384
543 542
351 350
126 125
526 527
179 178
201 202
38 37
531 532
190 189
261 260
303 302
84 85
13 12
483 482
604 603
444 443
564 565
185 186
411 412
362 363
98 99
99 100
359 360
295 294
12 11
374 375
452 451
53 54
437 438
105 106
81 80
293 292
519 520
82 81
519 518
151 150
506 505
386 385
39 38
170 169
613 614
572 571
483 484
364 365
45 46
303 304
375 376
492 491
493 494
352 351
152 151
528 527
489 488
537 536
11 10
54 55
389 390
557 556
203 204
222 221
13 14
474 475
161 162
524 523
174 173
266 265
437 436
290 291
336 335
68 67
509 510
205 206
281 282
354 353
270 269
30 29
564 563
463 464
263 264
236 237
155 154
166 167
493 492
15 16
86 85
218 217
602 601
333 334
149 150
333 332
472 473
432 433
193 192
521 520
170 171
523 522
200 199
158 159
34 33
579 580
424 423
148 149
43 42
168 169
79 78
330 331
548 549
586 585
74 75
50 51
108 107
565 566
237 238
33 32
1 2
63 64
15 14
421 422
97 98
576 575
296 295
124 123
121 120
304 305
498 497
93 94
424 425
20 21
265 264
574 575
388 389
591 590
599 600
147 146
594 595
176 175
95 96
368 369
92 93
513 514
196 195
243 244
292 291
302 301
310 311
251 250
234 233
113 114
19 18
470 469
208 207
511 512
448 447
131 132
203 202
541 542
312 311
60 59
538 539
334 335
396 397
444 445
567 566
347 346
604 605
533 532
329 330
525 526
343 342
70 69
29 28
274 273
57 56
19 20
478 477
485 484
443 442
67 66
143 144
450 451
342 341
499 500
481 480
190 191
425 426
83 82
242 241
91 92
71 70
339 340
240 239
609 608
227 226
327 326
74 73
439 438
129 128
183 182
383 384
214 215
415 416
364 363
459 460
536 535
432 431
352 353
243 242
355 354
290 289
225 224
240 241
211 3
279 280
51 52
301 300
601 600
518 517
64 65
344 343
582 581
275 276
512 513
544 543
457 458
602 603
136 135
6 1
49 50
357 358
584 583
256 255
482 481
192 191
120 119
406 407
618 617
89 88
25 26
268 267
479 480
356 355
22 21
325 326
405 406
182 181
96 97
41 40
417 416
561 562
212 213
318 317
550 551
490 489
607 606
281 280
5 6
357 356
314 315
7 1
435 436
599 598
245 244
206 207
502 503
142 141
41 42
515 516
524 525
40 39
118 117
415 5
137 138
439 440
223 222
486 487
47 48
616 617
4 313
548 547
209 208
236 235
386 387
433 434
395 394
27 26
423 422
300 299
848 6 19
317 316
680 681
6 5
543 542
505 504
848 847
418 419
267 268
822 823
504 503
736 737
840 839
802 803
349 350
68 69
606 605
298 299
435 434
220 219
153 154
500 499
490 491
783 784
470 469
246 245
393 392
332 333
644 643
142 143
394 395
164 163
764 765
835 834
627 626
592 593
704 703
767 766
726 727
357 356
136 137
157 158
585 584
170 171
454 453
677 678
512 513
569 568
106 107
40 41
121 122
738 737
190 191
436 437
526 527
280 279
741 740
532 531
547 546
756 755
763 762
563 562
58 57
96 95
521 520
546 545
399 400
377 376
151 150
462 461
575 576
407 408
173 174
539 540
412 411
374 375
785 786
226 225
103 102
635 636
457 458
687 686
505 506
9 10
172 171
723 724
159 158
360 361
179 180
99 98
495 494
826 827
99 100
673 674
407 406
52 51
553 554
76 75
822 821
661 660
251 252
421 422
467 468
814 813
744 745
831 830
294 295
651 652
6 708
692 693
294 293
443 444
845 846
816 817
790 789
584 583
40 39
259 258
329 330
338 337
621 620
352 353
824 825
778 779
266 265
324 323
73 74
727 728
807 806
287 3
484 485
34 35
185 184
187 186
415 416
109 108
653 654
625 626
54 55
699 700
2 1
483 482
172 173
732 731
296 295
59 60
712 713
103 104
695 696
758 759
65 66
676 677
679 680
749 750
411 410
349 348
30 29
614 613
763 764
377 378
28 29
603 602
406 405
685 686
471 470
433 434
805 804
761 762
255 254
510 511
423 422
395 396
58 59
345 344
78 79
305 304
521 522
656 655
133 132
692 691
660 659
162 163
443 442
134 133
119 120
655 654
333 334
432 431
659 658
229 228
182 183
429 428
420 419
831 832
131 132
700 701
159 160
715 714
775 776
160 161
668 667
12 11
834 833
791 792
709 708
627 628
216 215
525 524
338 339
279 278
498 497
761 760
572 571
98 97
270 271
300 299
246 247
669 668
723 722
210 209
365 366
796 795
531 530
66 67
733 732
48 47
242 241
401 400
181 182
641 642
540 541
478 477
151 152
178 179
101 102
587 588
577 576
380 379
331 330
619 620
472 473
601 600
622 623
309 308
843 844
328 329
574 573
481 480
632 633
319 318
663 664
283 282
233 232
846 847
373 372
72 71
51 50
207 206
466 465
802 801
192 193
409 408
11 10
136 135
423 424
94 95
14 15
194 193
507 506
19 20
656 657
777 776
779 780
534 535
425 424
744 743
510 509
30 31
445 444
830 829
92 91
614 615
305 306
786 787
386 387
508 507
41 42
306 307
26 25
93 92
773 772
841 842
487 488
829 828
797 796
698 697
804 803
588 589
650 651
694 693
184 183
245 244
845 844
104 105
390 391
149 148
228 227
239 238
463 462
140 141
7 1
775 774
155 154
126 127
670 671
528 529
418 417
390 389
550 549
355 354
706 705
53 52
364 365
91 90
567 5
718 717
93 94
382 381
720 721
90 89
468 469
591 592
648 649
725 726
351 350
496 495
367 368
344 343
73 72
64 63
793 794
801 800
385 384
688 689
441 442
569 570
196 197
355 356
79 80
606 607
715 716
220 221
115 114
545 544
325 324
465 464
753 754
810 811
674 675
552 553
9 8
509 508
780 781
705 704
335 336
170 169
405 404
128 129
750 751
600 599
590 589
740 739
249 248
538 539
537 536
666 667
200 201
342 341
570 571
533 532
130 129
702 701
313 314
815 814
447 446
56 55
456 455
303 302
623 624
186 185
639 638
557 558
56 57
288 289
670 669
369 370
243 242
519 518
816 815
143 144
582 581
583 582
414 413
211 212
291 292
109 110
169 168
61 60
618 619
695 694
528 527
421 420
374 373
223 222
556 557
516 515
256 257
8 7
311 310
523 524
551 552
746 745
74 75
281 282
491 492
304 303
231 230
499 498
123 122
548 547
251 250
22 21
43 42
270 269
601 602
288 287
493 492
272 273
253 252
22 23
346 345
730 729
555 554
529 530
572 573
409 410
477 476
312 311
258 257
489 490
162 161
6 1
80 81
427 428
580 581
167 166
836 837
662 661
70 71
181 180
644 645
393 394
771 772
719 720
616 615
752 751
131 130
189 190
145 144
398 397
604 605
31 32
302 301
459 460
770 769
13 12
501 500
363 362
458 459
147 148
201 202
224 225
236 237
480 479
147 2
556 555
449 450
234 235
731 730
748 747
352 351
188 187
260 259
87 86
150 149
478 479
425 426
781 782
536 535
17 18
359 360
44 43
599 598
826 825
202 203
563 564
322 323
617 616
341 340
631 630
578 577
140 139
809 810
618 617
152 153
799 798
235 236
250 249
427 4
314 315
625 624
33 34
454 455
685 684
127 128
142 141
439 438
208 209
794 795
665 666
157 156
724 725
475 476
194 195
124 125
204 205
736 735
718 719
368 369
308 307
119 118
697 696
647 646
125 126
683 682
277 278
195 196
787 788
67 68
711 712
106 105
590 591
461 460
800 799
482 481
560 559
285 286
139 138
46 47
77 78
412 413
717 716
32 33
381 380
274 273
580 579
526 525
256 255
404 403
174 175
665 664
212 213
766 765
594 593
262 261
17 16
24 23
819 820
699 698
247 248
754 755
579 578
65 64
566 565
211 210
275 276
595 596
558 559
84 83
759 760
639 640
168 167
678 679
471 472
362 361
649 650
113 114
364 363
596 597
702 703
483 484
124 123
189 188
117 118
61 62
50 49
100 101
690 691
451 450
309 310
788 789
347 348
777 778
317 318
621 622
26 27
399 398
264 263
53 54
636 637
3 4
214 213
791 790
452 451
453 452
441 440
290 291
574 575
312 313
637 638
83 82
138 137
738 739
134 135
107 108
628 629
771 770
359 358
85 86
175 176
808 807
474 475
2 3
587 586
88 89
440 439
711 710
672 673
49 48
734 735
513 514
237 238
383 384
595 594
709 710
315 316
429 430
612 613
832 833
335 334
70 69
165 164
298 297
44 45
358 357
166 165
392 391
28 27
319 320
204 203
757 756
707 706
653 652
4 5
327 326
76 77
435 436
645 646
486 485
39 38
728 729
467 466
20 21
837 838
268 269
487 486
379 378
456 457
371 370
437 438
110 111
146 145
752 753
267 266
611 610
808 809
275 274
550 551
548 549
818 819
522 523
414 415
501 502
463 464
387 388
585 586
205 206
253 254
641 640
603 604
431 430
289 290
516 517
218 217
448 447
749 748
543 544
824 823
325 326
285 284
354 353
386 385
496 497
219 218
63 62
838 839
214 215
818 817
842 843
199 198
233 234
223 224
609 608
561 560
684 683
812 811
537 538
488 489
648 647
216 217
785 784
417 416
517 518
564 565
397 396
797 798
567 568
226 227
533 534
85 84
176 177
371 372
46 45
339 340
433 432
642 643
281 280
14 13
840 841
634 635
208 207
542 541
446 445
264 265
610 609
743 742
515 514
199 200
113 112
835 836
320 321
296 297
366 367
473 474
733 734
503 502
327 328
494 493
229 230
271 272
690 689
336 337
262 263
36 37
115 116
722 721
828 827
231 232
757 758
520 519
631 632
512 511
630 629
240 239
675 676
37 38
155 156
197 198
681 682
331 332
25 24
741 742
82 81
611 612
598 597
321 322
260 261
96 97
121 120
774 773
346 347
111 112
820 821
87 88
192 191
376 375
277 276
793 792
768 769
292 293
240 241
448 449
177 178
36 35
388 389
117 116
402 401
300 301
18 19
284 283
782 783
607 608
662 663
805 806
812 813
222 221
382 383
15 16
402 403
687 688
671 672
562 561
767 768
244 243
633 634
714 713
747 746
342 343
658 657
822 3 617
463 462
538 539
89 90
600 599
261 260
362 363
112 111
27 26
281 282
228 227
695 696
453 454
345 344
42 41
781 780
38 37
196 195
532 533
224 225
431 430
615 616
235 234
146 147
716 717
31 30
742 741
701 702
397 398
6 5
309 310
758 757
15 16
206 207
190 189
358 359
77 78
754 753
398 399
659 658
704 705
354 355
444 443
462 461
566 565
167 168
680 681
217 216
283 282
246 247
284 285
408 409
595 594
337 336
129 128
29 28
217 218
261 262
476 475
503 504
578 579
3 4
705 706
231 230
115 114
803 804
587 586
465 464
598 597
514 515
34 33
382 381
317 316
530 531
544 545
169 170
215 216
9 10
660 659
731 730
205 206
564 565
68 67
402 401
416 415
361 362
14 15
267 266
132 131
644 645
391 390
469 468
347 346
304 305
169 168
133 134
255 256
92 91
407 408
426 427
811 812
751 752
663 662
760 759
95 94
49 48
147 148
572 571
675 676
121 120
649 648
568 567
213 214
509 508
223 222
14 13
410 409
113 112
192 191
485 484
298 299
564 563
102 103
589 590
436 435
162 163
693 694
357 356
316 315
419 418
203 204
721 722
191 190
428 427
650 649
228 229
538 537
591 590
20 21
450 449
753 752
815 814
51 52
784 785
786 787
115 116
433 432
278 277
143 2
699 700
541 542
310 311
266 265
166 167
774 773
126 127
592 591
742 743
276 277
387 388
401 400
83 82
200 201
437 438
193 194
810 809
764 765
257 258
471 472
706 707
122 123
73 74
393 392
482 481
661 660
305 306
97 98
275 274
111 110
118 117
808 809
54 55
592 593
225 226
605 604
63 64
806 807
451 450
573 574
6 687
488 487
66 65
617 616
23 24
791 792
735 734
686 685
457 458
788 787
271 272
479 480
139 138
149 150
431 432
732 731
628 627
470 471
125 124
798 797
744 745
606 605
511 512
496 497
122 121
295 294
272 273
28 27
43 44
173 174
91 90
479 478
370 371
477 476
622 623
786 785
199 200
614 615
576 575
49 50
383 382
293 292
374 375
776 775
523 522
618 617
668 669
243 242
107 108
185 184
698 699
291 292
173 172
718 719
444 445
296 295
655 654
689 688
102 101
481 480
142 141
548 549
769 768
642 641
221 220
807 808
518 517
163 164
435 434
447 448
389 388
298 297
339 340
811 810
164 165
806 805
555 554
682 681
670 671
647 646
634 635
761 762
211 212
561 560
116 117
135 136
511 510
609 608
439 440
484 483
344 343
395 396
805 804
20 19
410 411
528 527
352 351
159 160
333 332
241 242
80 81
360 359
647 648
160 161
94 93
109 110
622 621
285 286
341 340
485 486
208 209
813 812
619 620
566 567
578 577
17 16
569 570
145 146
516 515
246 245
672 673
118 119
252 253
687 688
391 392
813 814
197 198
405 404
268 267
537 536
89 88
416 417
384 385
406 405
175 176
88 87
76 75
490 491
779 778
748 749
475 474
237 238
233 232
736 735
192 193
96 97
60 59
99 98
520 519
708 709
238 239
585 586
790 791
663 664
507 506
583 584
655 656
646 645
643 644
204 205
259 260
422 423
771 770
498 499
691 692
494 493
636 637
13 12
582 581
514 513
426 425
596 595
671 672
357 358
492 491
372 371
441 440
64 65
690 689
509 510
743 744
253 254
472 473
651 652
249 250
695 694
710 709
201 202
656 657
155 154
99 100
390 389
497 498
530 529
17 18
540 539
701 700
386 385
421 422
372 373
174 175
72 73
294 293
518 519
535 536
740 739
783 784
654 653
198 199
262 263
610 611
627 626
597 596
726 725
75 74
816 815
746 745
208 207
436 437
732 733
96 95
443 442
196 197
127 128
766 767
588 587
503 502
534 535
501 500
251 250
157 156
380 381
313 314
337 338
580 579
625 624
135 134
794 793
417 418
495 496
376 377
821 822
328 327
395 394
603 602
61 62
411 412
281 280
677 678
120 119
321 322
802 803
585 584
144 145
665 666
380 379
765 766
38 39
734 733
653 652
326 325
793 792
641 640
513 512
781 782
684 685
68 69
150 151
131 130
516 517
589 588
747 748
141 140
352 353
661 662
666 667
683 684
757 756
339 338
499 500
247 248
677 676
284 283
361 360
420 421
738 737
575 574
355 356
697 698
464 463
692 693
188 187
104 105
583 582
552 551
712 711
465 466
679 680
396 397
633 632
70 71
718 717
154 153
42 43
7 1
599 598
442 441
715 714
39 40
182 181
525 526
562 563
638 637
258 259
474 473
714 713
630 631
21 22
726 727
776 777
561 562
434 433
331 330
187 186
235 236
1 2
702 703
799 800
11 12
468 467
367 366
774 775
407 406
658 657
329 330
703 704
130 129
577 576
24 25
547 546
307 306
821 820
25 26
139 140
79 78
105 106
156 155
107 106
534 533
176 177
738 739
290 291
3 2
760 761
393 394
249 248
801 800
183 184
188 189
758 759
309 308
546 545
86 85
799 798
553 552
325 324
728 727
328 329
178 179
682 683
62 63
40 41
559 558
626 625
218 219
797 796
438 439
556 557
614 613
5 551
59 58
600 601
386 387
76 77
820 819
53 54
83 84
165 166
100 101
459 458
607 606
609 610
369 368
678 679
320 319
61 60
557 558
769 770
673 674
275 276
157 158
33 32
452 451
755 756
543 544
210 211
778 777
635 636
737 736
730 729
350 349
195 194
240 239
445 446
494 495
209 210
58 57
34 35
171 172
623 624
707 708
628 629
180 179
554 553
158 159
669 670
30 29
296 297
265 264
524 523
560 559
364 365
6 1
108 109
414 413
818 819
612 611
817 816
795 796
185 186
750 749
138 137
353 354
469 470
415 4
52 53
488 489
280 279
691 690
349 348
556 555
327 326
741 740
640 639
789 790
11 10
487 486
342 341
230 229
721 720
722 723
36 35
301 302
113 114
632 631
57 56
82 81
532 531
507 508
425 424
56 55
379 378
251 252
318 317
125 126
455 456
124 123
403 402
244 243
365 366
377 378
449 448
224 223
604 603
47 48
572 573
263 264
454 455
413 412
571 570
222 221
331 332
725 724
270 269
629 630
323 324
457 456
619 618
151 152
383 384
428 429
501 502
747 746
214 215
202 203
236 237
466 467
132 133
505 504
493 492
312 311
712 713
144 143
520 521
400 399
312 313
178 177
37 36
93 92
288 289
23 22
226 227
300 301
171 170
423 424
103 104
268 269
419 420
290 289
527 526
350 351
522 521
773 772
32 31
403 404
505 506
724 723
720 719
334 333
232 231
667 668
540 541
162 161
270 271
183 182
642 643
728 729
369 370
303 302
447 446
44 45
771 772
308 307
255 254
84 85
314 315
212 213
789 788
634 633
152 153
802 801
529 528
335 336
319 318
482 483
375 376
638 639
768 767
300 299
321 320
817 818
137 136
651 650
69 70
4 5
780 779
608 607
594 593
7 8
80 79
288 287
490 489
477 478
322 323
346 345
367 368
461 460
66 67
460 459
244 245
234 233
303 304
19 18
621 620
755 754
751 750
548 547
710 711
696 697
568 569
47 46
794 795
601 602
581 580
675 674
762 763
542 543
664 665
549 550
716 715
3 279
287 286
364 363
50 51
45 46
181 180
525 524
613 612
348 347
335 334
219 220
343 342
240 241
273 274
256 257
452 453
430 429
783 782
373 374
9 8
763 764
71 72
87 86
149 148
738 1 237
107 106
381 380
647 648
467 466
360 359
356 357
464 465
289 290
218 217
623 624
76 75
358 357
283 284
245 244
339 338
373 374
478 479
507 508
164 163
423 424
712 711
62 63
668 669
728 727
257 258
717 716
687 688
343 344
187 186
242 243
652 651
17 16
453 454
42 41
58 57
197 198
441 440
26 25
668 667
40 41
644 645
100 101
200 201
543 544
121 120
453 452
417 416
74 73
399 398
170 169
194 193
687 686
118 119
318 319
189 190
110 109
711 710
542 543
227 226
694 693
264 265
399 400
636 635
241 240
456 455
333 332
267 266
492 491
301 302
627 628
736 737
39 40
660 659
696 695
234 235
93 92
6 1
176 175
625 626
262 261
278 279
311 312
612 613
670 671
128 127
264 263
75 74
209 210
719 718
676 675
490 491
229 230
637 636
677 676
53 54
715 716
658 659
165 166
433 434
735 736
178 179
655 654
680 679
131 132
586 587
630 629
266 265
379 378
701 700
532 531
303 304
478 477
329 330
206 205
662 661
130 131
95 96
327 326
4 373
309 308
516 517
397 396
362 361
228 229
13 12
285 284
125 126
227 228
141 142
530 531
192 193
304 305
355 356
245 246
646 647
328 327
112 113
691 690
159 158
471 472
500 501
171 172
197 196
418 417
249 248
568 569
610 609
295 296
127 126
597 598
210 211
168 169
484 483
122 121
136 135
325 324
607 606
86 87
129 2
570 571
670 669
538 537
202 203
376 377
404 405
230 231
252 253
730 731
248 247
378 377
695 694
348 349
635 634
110 111
514 513
517 518
513 512
642 641
575 574
3 4
644 643
282 281
533 534
120 119
364 365
617 618
337 336
90 91
405 406
6 5
713 714
61 60
546 545
32 33
436 437
388 389
297 298
428 429
583 584
147 146
97 98
467 468
138 139
69 70
326 325
620 619
259 258
455 454
420 421
665 664
61 62
554 555
148 147
565 566
331 332
161 160
39 38
16 15
622 623
421 422
409 410
216 215
363 364
550 549
113 114
469 468
48 47
29 28
591 590
82 83
365 366
114 115
663 664
52 51
262 263
474 473
563 562
577 576
449 448
259 260
407 408
29 30
651 650
160 159
435 434
458 459
401 400
548 549
630 631
21 22
175 174
402 403
319 320
95 94
536 537
57 56
104 103
393 392
180 181
354 353
514 515
490 489
329 328
150 151
201 202
172 173
118 117
712 713
369 370
488 487
150 149
14 13
86 85
187 188
107 108
729 730
686 685
215 214
397 398
185 184
414 415
269 268
524 525
84 85
8 7
315 314
307 306
2 3
5 4
383 382
602 603
161 162
3 251
458 457
626 627
38 37
34 33
19 20
323 324
556 555
430 431
274 275
350 349
548 547
102 103
603 604
701 702
612 611
438 439
254 255
243 244
371 372
386 387
60 59
31 30
691 692
492 493
291 290
683 682
108 109
722 723
174 173
621 622
631 632
46 47
407 406
502 501
122 123
55 54
481 482
551 550
504 503
235 236
578 579
204 203
318 317
133 134
579 580
724 725
363 362
12 11
94 93
673 672
310 311
254 253
422 423
411 410
171 170
551 552
155 156
130 129
313 312
80 79
624 625
592 591
564 565
512 511
89 88
224 225
451 450
338 337
237 236
729 728
100 99
140 141
24 23
199 200
342 343
315 316
684 683
697 696
657 658
371 370
470 469
441 442
280 281
737 738
429 430
699 700
35 34
206 207
135 134
578 577
316 317
167 166
476 475
420 419
9 10
177 176
608 607
335 336
279 280
186 185
277 278
672 671
527 526
255 256
600 599
115 116
288 287
446 445
510 509
461 460
222 223
553 552
443 444
567 568
733 734
527 528
104 105
341 342
310 309
84 83
554 553
567 566
633 634
48 49
375 376
152 151
10 11
345 344
615 616
42 43
218 219
526 525
213 212
594 593
545 544
703 702
411 412
125 124
390 391
506 505
224 223
709 710
645 646
276 275
619 618
91 92
650 649
532 533
705 706
18 17
642 643
495 496
393 394
144 145
380 379
43 44
31 32
540 539
102 101
412 413
587 588
68 67
322 323
273 272
715 714
595 594
638 639
66 67
432 431
7 1
157 156
190 191
465 466
499 498
117 116
541 540
682 681
560 559
662 663
629 628
499 500
18 19
735 734
427 426
704 705
21 20
656 657
637 638
589 588
510 511
688 689
139 140
402 401
461 462
68 69
576 575
334 335
680 681
367 366
473 472
308 307
483 482
8 9
347 348
392 391
660 661
706 707
292 293
299 298
71 70
232 231
573 574
707 708
56 55
489 488
138 137
678 677
142 143
178 177
283 282
221 220
111 112
692 693
132 133
718 717
690 689
498 497
233 234
216 217
449 450
474 475
271 270
639 640
698 699
105 106
495 5
188 189
385 384
386 385
433 432
593 592
303 302
36 37
346 345
79 78
276 277
137 136
294 293
598 599
252 251
534 535
152 153
685 684
237 238
424 425
596 597
617 6
497 496
249 250
523 524
182 181
382 381
195 196
516 515
361 360
183 182
256 257
164 165
561 562
15 14
507 506
288 289
219 220
583 582
154 153
145 146
542 541
585 584
63 64
409 408
274 273
191 192
673 674
485 486
72 71
22 23
45 44
28 27
64 65
221 222
665 666
90 89
53 52
655 656
518 519
143 144
632 633
46 45
721 722
88 87
204 205
149 148
725 726
306 305
355 354
447 448
560 561
487 486
570 569
428 427
528 529
416 415
731 732
50 49
444 445
179 180
720 719
595 596
347 346
708 709
261 260
97 96
413 414
155 154
358 359
571 572
158 157
451 452
271 272
184 183
547 546
207 208
168 167
297 296
24 25
520 519
727 726
78 77
620 621
368 369
504 505
351 352
653 652
614 613
246 247
58 59
394 395
299 300
581 582
242 241
463 464
384 383
653 654
558 557
233 232
508 509
440 439
98 99
36 35
352 353
573 572
649 648
1 2
418 419
225 226
601 600
484 485
641 640
270 269
65 66
446 447
697 698
503 502
586 585
285 286
535 536
163 162
609 608
320 321
194 195
704 703
51 50
213 214
667 666
240 239
291 292
477 476
295 294
459 460
463 462
367 368
564 563
339 340
211 212
480 479
322 321
27 26
529 530
403 404
442 443
678 679
313 314
481 480
675 674
589 590
390 389
396 395
209 208
732 733
374 375
334 333
286 287
522 521
522 523
615 614
436 435
76 77
520 521
268 267
388 387
580 581
493 494
610 611
721 720
437 438
426 425
80 81
556 557
558 559
124 123
601 602
605 604
350 351
457 456
470 471
331 330
606 605
199 198
340 341
82 81
239 238
723 724
72 73
300 301
538 539
1186 1 776
587 588
654 653
143 142
346 347
263 264
868 869
180 179
350 349
954 955
1123 1124
1132 1133
584 583
1030 1031
822 821
566 567
5 793
117 116
101 100
1027 1028
220 221
751 750
712 711
922 921
779 778
723 724
1150 1151
948 947
803 802
1103 1102
731 732
209 208
1112 1113
532 533
82 81
780 781
663 664
417 416
150 149
420 419
871 872
815 814
718 719
963 962
450 449
573 572
1078 1077
571 572
1065 1064
23 24
856 855
1138 1137
807 808
67 66
112 111
1081 1082
170 169
646 647
689 690
515 516
541 540
860 859
52 51
416 415
567 568
626 625
952 951
491 492
930 929
1058 1057
943 942
718 717
1118 1119
188 187
523 522
604 605
468 467
356 357
232 231
770 769
527 526
945 946
1152 1151
81 80
421 420
1017 1018
924 923
231 230
213 214
342 341
255 254
536 535
621 622
1142 1141
883 884
672 673
289 288
842 841
1001 1000
960 959
206 205
864 863
348 347
996 995
244 245
182 183
311 312
958 959
563 562
445 444
817 816
336 337
476 477
669 670
147 148
736 737
1132 1131
525 524
378 377
1014 1015
960 961
1147 1148
501 500
421 422
1104 1105
379 380
209 210
613 612
130 131
570 569
979 978
939 940
1035 1034
1144 1145
114 113
382 381
987 986
91 92
854 855
112 113
851 852
932 933
2 203
188 189
94 95
989 988
538 537
858 859
291 292
1089 1088
898 897
913 912
340 341
809 810
321 322
409 408
126 127
706 707
395 394
560 561
483 482
278 279
789 788
137 136
360 361
586 587
177 176
998 999
424 425
791 792
219 218
850 851
888 887
326 327
693 694
424 423
340 339
646 645
284 285
1133 1134
443 442
630 631
493 494
615 614
284 283
712 713
785 784
346 345
874 873
39 38
297 296
589 588
1022 1021
944 945
276 277
66 65
110 111
508 507
609 610
247 248
724 725
6 990
292 293
1158 1157
632 633
728 727
676 675
753 752
1179 1180
365 366
602 603
271 272
510 509
799 800
1065 1066
211 210
1029 1030
771 772
359 360
1005 1006
804 805
667 666
494 495
711 710
531 530
1047 1046
85 86
951 950
197 198
553 552
1049 1050
699 698
1167 1168
489 488
37 36
789 790
3 4
440 441
609 608
623 622
1186 1185
240 239
377 376
437 436
629 630
756 757
129 130
771 770
744 745
1075 1076
334 335
898 899
1085 1084
624 625
281 282
759 758
918 917
1096 1095
665 664
861 862
336 335
54 55
1043 1042
169 168
29 30
453 454
21 20
480 479
24 25
964 965
573 574
592 591
838 837
694 695
234 235
44 45
190 191
293 294
301 300
601 600
1123 1122
1175 1176
1172 1173
498 499
952 953
275 274
1060 1061
1005 1004
1170 1171
353 352
767 768
754 753
543 542
2 3
241 240
4 596
802 801
581 582
465 466
79 78
1037 1036
411 410
660 661
565 564
937 936
1063 1062
550 551
701 702
456 455
1118 1117
160 159
128 127
1053 1054
483 484
375 376
834 833
121 120
842 843
271 270
804 803
260 261
252 251
554 555
715 714
114 115
1014 1013
1025 1026
838 839
186 185
578 577
620 621
800 801
1039 1038
549 548
57 58
45 46
373 374
969 970
299 300
993 994
544 545
1175 1174
385 384
142 141
506 507
854 853
162 161
12 13
1182 1181
104 105
438 439
392 391
1073 1072
995 994
59 60
332 333
481 482
610 611
857 856
199 198
97 98
101 102
749 750
1003 1002
213 212
966 967
975 974
267 266
338 337
600 599
1109 1110
222 223
834 835
1185 1184
469 470
400 401
14 15
133 134
393 392
406 407
811 810
1161 1160
461 460
256 255
523 524
823 824
94 93
983 982
124 123
601 602
273 272
126 125
720 721
165 166
10 9
617 616
815 816
513 514
650 649
437 438
613 614
409 410
367 368
426 427
144 145
1095 1094
491 490
226 227
1068 1069
773 772
17 18
931 930
925 924
970 971
504 503
871 870
1024 1025
452 451
85 84
827 826
375 374
831 830
1045 1046
83 84
36 35
468 469
181 182
1159 1158
379 378
479 478
298 299
659 660
546 547
991 992
882 883
211 212
250 251
538 539
1102 1101
752 751
893 894
99 100
1006 1007
287 288
748 747
107 108
684 685
633 634
106 107
156 157
1116 1115
310 309
39 40
986 985
598 597
554 553
331 332
122 123
730 731
399 400
785 786
862 863
826 825
934 933
144 143
448 449
696 695
54 53
504 505
929 928
282 283
413 414
93 92
913 914
356 355
430 429
996 997
6 1
1097 1096
1049 1048
757 758
173 172
484 485
845 846
642 643
178 179
650 651
393 394
464 465
29 28
798 799
48 47
963 964
246 245
739 738
1146 1145
906 907
1184 1183
755 754
219 220
869 870
458 457
747 746
790 791
704 703
547 548
57 56
241 242
1093 1094
358 357
512 513
558 557
502 501
558 559
497 496
641 640
495 496
145 146
1067 1066
519 520
599 598
315 314
722 723
700 699
42 41
958 957
1076 1077
922 923
619 620
349 348
321 320
431 432
9 8
117 118
562 561
339 338
782 783
837 836
1062 1061
277 278
434 435
698 697
323 322
627 628
552 551
648 647
227 228
50 51
628 629
265 264
27 28
362 361
1165 1166
682 681
165 164
285 286
884 885
280 279
777 778
1023 1024
25 26
736 735
555 556
667 668
1136 1135
1090 1091
1023 1022
193 194
313 312
812 811
61 62
787 786
927 928
224 225
1070 1071
411 412
915 916
238 237
386 387
34 33
812 813
612 611
280 281
708 707
895 896
155 156
832 833
59 58
178 177
998 997
740 739
1108 1109
766 767
234 233
40 41
320 319
902 901
653 652
899 900
1163 1164
961 962
78 77
887 886
397 396
454 455
68 67
70 71
540 539
825 824
480 481
197 196
775 774
1100 1099
5 4
1169 1168
1037 1038
591 590
316 315
296 295
186 187
673 674
616 615
1026 1027
918 919
761 762
433 434
319 318
691 692
692 693
580 581
89 88
214 215
95 96
1112 1111
70 69
974 973
830 829
847 846
873 872
131 132
516 517
579 578
1020 1019
774 773
831 832
849 848
1129 1128
990 991
665 666
580 579
655 654
16 15
309 308
146 147
171 172
756 755
585 586
543 544
334 333
687 688
204 205
636 635
327 328
408 407
618 617
575 574
429 428
697 696
372 373
152 153
557 556
88 87
691 690
96 97
252 253
657 658
782 781
563 564
386 385
850 849
415 414
686 685
1142 1143
652 651
62 63
1004 1003
1015 1016
8 7
656 657
881 880
624 623
17 16
262 261
160 161
679 680
1155 1154
64 63
76 75
531 532
1140 1139
1152 1153
1098 1099
243 244
597 596
35 34
1001 1002
701 700
744 743
931 932
806 805
152 151
1087 1086
325 324
879 880
1051 1052
1113 1114
181 180
978 977
471 472
314 313
120 119
175 174
517 518
457 456
260 259
1164 1165
882 881
1086 1085
1130 1129
1173 1174
326 325
1047 1048
721 722
738 737
637 636
328 329
151 150
233 232
1166 1167
980 981
73 72
258 257
1029 1028
287 286
302 303
1144 1143
934 935
1080 1079
761 760
53 52
46 47
474 473
1091 1092
987 988
174 173
896 897
243 242
383 382
1137 1136
488 487
1182 1183
5 6
827 828
904 905
134 135
717 716
631 632
1100 1101
273 274
459 458
352 351
1134 1135
1000 999
764 763
83 82
735 734
12 11
43 42
938 937
529 528
749 748
464 463
1141 1140
715 716
568 569
447 446
936 935
359 358
344 345
639 638
549 550
1161 1162
676 677
128 129
295 294
419 418
662 661
1103 1104
662 663
797 798
269 268
505 506
383 384
170 171
342 343
422 423
20 19
702 703
889 888
418 417
764 765
820 819
183 184
298 297
166 167
1082 1083
843 844
475 476
239 238
158 159
981 982
489 490
979 980
485 486
105 106
109 108
1106 1105
1050 1051
533 534
37 38
656 655
140 139
133 132
355 354
853 852
18 19
474 475
971 972
745 746
290 291
1156 1155
371 372
389 390
201 200
1126 1127
508 509
391 390
956 955
878 879
118 119
741 742
627 626
903 904
797 796
426 425
954 953
1011 1012
472 473
671 672
1131 1130
316 317
706 705
471 470
1016 1017
1156 1157
719 720
560 559
644 645
777 776
450 451
1070 1069
674 675
845 844
462 463
77 76
103 104
909 908
1171 1172
885 886
163 164
366 367
687 686
1071 1072
1160 1159
891 890
364 365
1178 1177
537 536
1181 1180
1039 1040
726 727
893 892
525 526
185 184
98 99
976 977
520 521
253 254
48 49
109 110
433 432
306 305
195 196
249 250
575 576
163 162
265 266
1036 1035
445 446
688 689
1125 1124
353 354
828 829
43 44
541 542
911 912
176 175
362 363
957 956
56 55
1018 1019
1009 1010
545 546
502 503
138 139
795 794
864 865
69 68
206 207
401 402
388 387
1043 1044
477 478
466 467
443 444
795 796
259 258
836 835
1055 1056
949 950
966 965
1170 1169
194 195
1 2
528 527
967 968
807 806
1053 1052
1013 1012
1163 1162
154 155
32 33
318 317
310 311
728 729
1097 1098
589 590
330 331
136 135
1033 1032
911 910
193 192
973 972
1031 1032
199 200
683 682
492 493
643 644
90 91
216 215
914 915
249 248
905 906
678 679
461 462
1078 1079
1111 1110
891 892
877 876
141 140
487 486
158 157
290 289
14 13
308 307
427 428
330 329
389 388
780 779
975 976
941 940
439 440
168 167
1067 1068
783 784
820 821
1007 1008
890 889
910 909
235 236
217 216
946 947
1081 1080
1089 1090
191 192
1177 1176
1064 1063
1087 1088
302 301
1059 1060
115 116
3 399
363 364
87 86
32 31
511 512
497 498
397 398
435 436
404 405
534 535
1041 1040
223 224
1074 1075
79 80
237 236
50 49
1128 1127
877 878
917 916
124 125
619 618
1010 1011
565 566
895 894
983 984
866 867
403 404
809 808
969 968
529 530
221 222
1084 1083
726 725
519 518
841 840
571 570
868 867
668 669
680 681
499 500
1108 1107
304 305
350 351
920 919
121 122
902 903
762 763
510 511
72 71
21 22
1009 1008
225 226
149 148
201 202
380 381
31 30
452 453
948 949
637 638
1056 1057
1126 1125
743 742
395 396
1115 1114
642 641
776 775
818 819
1150 1149
941 942
822 823
89 90
840 839
1034 1033
370 369
984 985
204 203
1178 1179
368 369
860 861
787 788
75 74
324 323
639 640
304 303
594 595
1117 1116
865 866
708 709
102 103
343 344
634 635
606 605
658 659
678 677
939 938
137 138
648 649
430 431
858 857
730 729
760 759
22 23
705 704
1093 1092
847 848
64 65
710 709
670 671
1054 1055
794 793
927 926
875 874
584 585
11 10
370 371
230 229
875 876
814 813
921 920
907 908
1059 1058
741 740
1107 1106
583 582
189 190
1021 1020
263 262
7 1
607 608
276 275
460 459
153 154
713 714
992 993
1074 1073
1121 1120
925 926
1045 1044
441 442
768 769
1147 1146
593 594
1154 1153
73 74
27 26
1148 1149
576 577
412 413
60 61
256 257
603 604
218 217
268 267
270 269
514 515
733 734
406 405
593 592
684 683
1120 1119
228 229
521 522
402 403
447 448
1138 1139
207 208
766 765
1121 1122
944 943
247 246
817 818
732 733
1041 1042
901 900
307 306
607 606
951 1 251
849 848
324 323
140 141
926 927
346 345
391 392
577 576
831 832
650 651
41 42
894 893
52 51
696 695
598 597
199 200
501 502
504 505
303 304
94 95
237 238
917 918
544 543
845 846
346 347
188 187
299 298
469 470
830 831
676 677
532 531
897 898
485 484
341 342
382 381
126 125
267 268
319 318
35 34
10 9
37 36
621 622
755 756
378 377
542 541
20 19
357 358
866 865
816 815
841 840
170 171
535 536
411 412
129 128
916 915
269 270
170 169
844 845
75 76
42 43
816 817
262 263
755 754
316 315
457 456
467 468
118 117
295 296
197 196
802 801
689 690
230 231
300 299
885 886
121 120
162 161
302 303
246 247
737 736
648 649
229 230
293 292
105 104
275 276
681 680
796 797
402 403
794 6
435 436
641 640
902 901
680 679
511 512
153 154
842 841
187 186
26 27
740 739
124 125
46 47
5 4
782 783
518 517
110 111
926 925
334 335
814 815
261 262
404 403
64 65
2 3
432 433
560 559
171 172
260 259
24 23
662 661
913 914
314 313
480 479
842 843
384 383
160 159
870 871
483 482
571 570
54 53
123 122
474 475
92 91
739 738
332 331
910 909
727 728
81 80
850 851
941 940
177 176
565 566
408 407
455 454
663 664
344 345
643 642
754 753
267 266
233 234
840 839
532 533
169 168
450 451
277 276
445 444
633 632
914 915
846 847
451 452
542 543
554 555
858 857
46 45
364 365
854 853
180 179
118 119
681 682
715 716
525 524
87 86
428 429
631 632
603 604
173 174
823 822
287 286
348 349
3 4
139 140
886 887
254 253
875 874
311 310
387 386
414 413
548 547
114 113
676 675
312 311
488 487
203 204
329 328
306 305
655 654
827 826
232 233
147 146
175 176
31 32
738 737
480 481
883 884
620 621
397 396
825 826
17 16
235 236
872 871
732 733
713 714
895 894
724 723
297 296
361 360
370 369
117 116
52 53
145 146
660 659
888 887
778 777
854 855
613 614
385 386
740 741
385 384
584 583
359 358
135 136
600 601
435 434
902 903
226 225
592 593
577 578
476 477
150 151
200 201
344 343
723 722
257 256
398 397
93 92
721 720
659 658
597 596
678 679
669 668
892 891
242 241
767 768
89 90
332 333
341 340
253 252
568 569
642 641
882 883
614 615
220 219
729 728
637 636
9 8
643 644
552 551
431 430
129 130
138 139
856 857
698 699
508 509
202 201
184 183
693 694
216 217
780 781
350 351
779 780
18 17
711 710
339 338
178 179
217 218
431 432
670 671
453 454
719 718
260 261
589 588
448 449
618 617
75 74
581 582
593 594
573 574
101 102
342 343
390 389
428 427
529 530
474 473
658 657
375 376
711 712
648 647
865 864
801 800
198 199
613 612
349 350
66 65
438 437
7 8
500 499
867 866
925 924
430 429
763 762
416 417
279 280
944 943
382 383
512 513
79 80
874 873
519 518
868 867
134 135
860 859
280 281
808 807
789 790
72 71
357 356
788 789
508 507
669 670
836 835
238 239
919 920
133 132
517 516
675 674
450 449
868 869
813 812
899 898
787 786
226 227
291 290
104 103
183 182
527 528
167 166
265 266
859 858
882 881
735 736
36 35
667 668
293 294
564 565
228 227
889 888
682 683
665 666
513 514
185 186
459 458
436 437
100 99
373 374
891 890
529 528
181 180
21 22
82 83
363 362
572 573
880 881
269 268
492 493
194 193
277 278
363 364
107 106
599 598
148 149
124 123
439 438
308 309
547 546
110 109
63 62
709 708
604 605
40 39
85 84
320 319
746 745
368 367
156 157
804 805
347 348
502 503
259 258
863 862
521 522
272 273
241 240
864 863
365 366
824 825
860 861
255 256
751 750
216 215
272 271
726 725
209 208
165 164
929 930
903 904
691 690
515 514
375 374
767 766
498 499
583 582
362 361
447 446
833 832
791 792
948 947
510 509
14 13
743 742
608 609
406 405
33 32
694 695
22 23
222 221
327 328
210 211
314 315
197 198
469 468
634 635
239 240
706 707
820 819
196 195
784 783
899 900
336 337
369 368
837 838
219 218
223 222
674 673
807 806
288 287
401 402
940 939
143 144
12 11
620 619
729 730
610 611
692 693
464 463
616 617
933 932
309 310
455 456
534 535
103 102
461 460
629 630
704 703
446 445
366 367
934 933
790 791
175 174
282 281
37 38
66 67
771 770
829 830
876 875
836 837
663 662
90 91
795 794
849 850
922 923
193 192
761 760
892 893
381 380
394 395
326 327
654 653
546 545
229 228
141 142
763 764
190 189
531 530
351 352
214 215
772 773
113 112
827 828
904 905
768 769
806 805
114 115
370 371
506 507
372 371
821 820
212 211
494 495
157 158
506 505
85 86
178 177
905 906
387 388
872 873
74 73
399 398
162 163
785 784
548 549
264 265
284 283
494 493
191 192
394 393
248 249
286 285
131 130
563 564
901 900
750 749
599 600
251 250
353 352
822 821
769 770
434 433
244 243
336 335
160 161
557 558
248 247
627 626
760 759
798 797
607 606
660 661
942 943
372 373
255 254
932 931
878 879
115 116
457 458
712 713
109 108
909 908
128 127
5 6
71 70
61 60
232 231
645 644
601 602
307 308
540 541
707 708
734 733
207 208
782 781
415 414
2 1
838 839
913 912
844 843
718 717
862 861
533 534
550 549
15 16
377 376
418 419
425 424
461 462
585 586
562 563
126 127
811 812
561 560
77 76
948 949
263 264
595 594
56 57
937 938
418 417
575 576
919 918
188 189
936 935
396 395
937 936
155 156
720 719
725 724
732 731
132 131
928 927
818 819
589 590
282 283
318 317
520 519
96 95
60 59
407 406
554 553
558 559
121 122
744 745
731 730
878 877
172 173
300 301
426 427
640 639
775 776
928 929
570 569
688 689
479 478
703 702
147 148
496 497
207 206
466 467
79 78
908 907
13 12
28 29
752 753
587 586
709 710
829 828
488 489
470 471
656 657
748 747
326 325
475 476
245 246
321 3
330 331
734 735
808 809
313 312
111 112
787 788
946 947
285 284
646 647
472 471
752 751
796 795
463 462
686 685
391 390
250 249
98 99
275 274
764 765
72 73
588 587
26 25
271 270
824 823
550 551
941 942
687 688
803 802
595 596
870 869
810 811
526 525
700 701
775 774
523 524
649 650
55 56
561 562
274 273
443 442
717 716
618 619
258 257
653 652
360 359
236 237
453 452
627 628
205 206
41 40
511 510
149 150
746 747
501 500
321 322
591 592
448 447
847 848
43 44
410 409
692 691
191 190
330 329
879 880
30 31
556 557
585 584
758 759
490 489
571 572
749 748
416 415
578 579
212 213
205 204
400 399
158 159
297 298
422 421
503 504
515 516
800 799
652 651
646 645
856 855
1 7
486 485
54 55
278 279
629 628
610 609
307 306
420 419
15 14
49 50
77 78
337 338
47 48
203 202
835 834
340 339
444 443
677 678
82 81
804 803
536 537
785 786
152 151
809 810
292 291
379 380
758 757
145 144
921 920
921 922
818 817
290 289
540 539
798 799
63 64
701 702
630 631
495 496
143 142
421 420
923 924
552 553
333 334
591 590
356 355
916 917
930 931
574 575
876 877
137 136
353 354
224 223
137 138
624 623
545 544
100 101
581 580
950 949
439 440
24 25
106 105
166 165
51 50
722 721
497 498
220 221
44 45
491 492
603 602
684 683
94 93
889 890
633 634
623 622
20 21
27 28
664 665
834 833
741 742
667 666
57 58
107 108
813 814
638 639
61 62
441 440
134 133
33 34
401 400
911 912
773 774
726 727
97 98
322 323
946 945
698 697
153 152
486 487
673 672
776 777
568 567
779 778
305 304
792 793
895 896
520 521
422 423
765 766
482 481
465 466
167 168
4 478
951 950
484 483
523 522
761 762
155 154
896 897
608 607
388 389
409 408
910 911
537 538
355 354
413 412
612 611
772 771
852 851
234 235
84 83
30 29
164 2
410 411
242 243
685 684
316 317
10 11
907 906
656 655
88 87
939 938
490 491
715 714
705 706
624 625
704 705
252 251
288 289
464 465
686 687
19 18
853 852
527 526
606 605
5 636
325 324
48 49
538 539
672 671
58 59
405 404
555 556
38 39
69 68
88 89
637 638
442 441
625 626
945 944
935 934
567 566
6 1
224 225
244 245
181 182
302 301
757 756
459 460
295 294
68 67
472 473
885 884
185 184
696 697
97 96
426 425
214 213
70 69
579 580
195 194
699 700
392 393
378 379
615 616
119 120
423 424
209 210
743 744
851 4 511
147 148
694 695
832 833
385 386
672 673
681 680
58 59
76 77
583 584
5 570
66 65
638 637
467 466
299 300
441 442
588 589
174 175
824 825
772 773
747 746
35 36
727 728
387 388
537 538
508 507
648 649
251 252
520 521
36 37
713 712
262 261
720 719
4 5
13 12
182 181
3 288
255 254
87 88
184 185
84 83
614 613
44 43
509 510
342 341
393 392
269 270
60 61
659 658
580 581
698 697
402 403
634 633
238 237
714 715
592 593
643 644
737 736
119 118
654 655
699 700
837 838
224 223
166 165
114 113
206 205
372 373
89 88
138 139
477 476
156 155
526 527
367 368
215 214
556 557
738 739
596 595
420 419
511 510
211 210
703 702
496 497
108 107
647 648
256 257
608 607
771 772
29 28
730 731
117 116
657 656
493 494
22 23
502 501
567 568
440 439
532 531
414 413
17 18
612 611
69 70
569 568
331 332
720 721
639 640
755 754
762 761
182 183
506 507
488 489
177 176
82 83
527 528
503 502
267 268
383 384
573 572
601 602
251 250
545 544
51 52
839 840
334 335
701 702
700 701
286 285
202 203
124 123
181 180
105 104
487 486
552 551
253 252
786 785
714 713
835 834
815 814
195 196
429 4
704 703
363 364
795 794
519 520
12 11
374 373
628 629
562 563
275 274
307 308
847 848
553 552
411 412
610 609
530 531
224 225
522 523
137 136
238 239
810 809
60 59
698 699
829 830
721 722
650 649
576 575
758 757
729 730
559 560
236 237
147 2
313 312
400 401
435 436
485 484
324 323
31 30
271 272
824 823
578 579
268 269
778 779
651 650
658 657
321 322
752 751
380 381
21 22
311 312
133 134
452 451
366 367
281 280
747 748
270 271
374 375
532 533
587 588
733 734
23 24
382 383
608 609
103 102
11 10
281 282
406 405
279 280
385 384
781 780
391 390
516 515
212 211
761 760
540 541
834 833
70 71
610 611
241 240
750 749
727 726
234 233
170 169
561 560
90 89
662 663
635 634
504 503
725 724
511 512
73 74
193 194
110 111
410 409
169 168
1 2
442 443
125 126
75 74
762 763
518 519
753 754
543 542
332 333
95 94
466 465
828 829
693 694
293 294
828 827
96 97
326 327
711 6
582 583
812 813
337 338
346 345
580 579
143 144
135 136
798 799
805 806
107 106
474 473
208 207
244 243
544 543
490 489
140 141
178 177
356 355
495 494
187 186
783 782
787 788
590 591
223 222
176 175
816 817
415 416
666 667
263 264
219 220
216 217
848 849
41 42
56 55
54 55
316 315
645 646
845 844
152 151
737 738
635 636
515 514
463 464
377 376
426 425
8 7
483 484
486 485
790 791
343 342
34 33
317 318
31 32
86 87
678 679
559 558
163 164
535 536
112 113
115 114
764 763
42 43
585 586
20 21
441 440
437 436
499 498
590 589
624 625
452 453
347 346
843 842
188 189
231 230
513 514
39 40
636 637
293 292
307 306
259 258
389 388
327 328
336 337
621 622
227 228
172 173
431 430
80 81
258 257
351 352
24 25
458 457
785 784
14 15
200 199
756 757
120 119
795 796
302 303
108 109
317 316
465 464
407 406
591 592
447 446
192 193
496 495
66 67
53 54
240 239
476 475
311 310
418 417
448 447
234 235
556 555
267 266
345 344
14 13
265 266
586 587
408 407
625 626
153 154
3 4
623 624
647 646
541 542
319 320
205 204
766 767
782 781
245 244
764 765
841 840
473 472
230 229
403 404
424 423
689 688
297 298
674 673
453 454
50 49
214 213
116 115
483 482
603 602
679 680
688 687
167 168
242 241
6 5
471 472
482 481
669 670
690 689
416 417
524 525
630 631
490 491
685 684
284 285
803 802
820 819
456 455
743 742
499 500
155 154
159 160
469 470
678 677
565 564
104 103
247 246
793 794
620 619
3 2
492 493
664 665
433 432
626 627
667 668
574 575
16 15
780 779
253 254
232 233
189 190
423 422
334 333
248 247
393 394
58 57
78 79
85 86
572 571
792 793
149 150
606 607
813 814
49 48
830 831
209 208
370 369
277 278
262 263
90 91
598 599
775 776
660 661
505 504
391 392
273 274
305 306
357 358
537 536
751 750
314 315
121 122
1 6
165 164
134 135
395 394
724 723
323 322
726 725
808 807
120 121
171 172
457 456
207 206
805 804
547 546
118 117
790 789
561 562
339 340
620 621
319 318
124 125
711 712
577 578
474 475
329 330
212 213
670 671
289 288
179 178
479 478
709 710
259 260
287 286
528 529
605 604
539 540
371 370
818 819
33 32
358 359
29 30
797 798
163 162
138 137
38 37
390 389
746 745
451 450
617 618
9 10
778 777
301 302
662 661
614 615
7 1
776 777
161 160
526 525
397 396
379 380
642 641
309 310
228 229
803 804
506 505
821 822
64 63
378 377
100 99
198 197
410 411
85 84
534 535
127 128
744 745
158 157
217 218
529 530
677 676
305 304
812 811
330 331
567 566
412 413
748 749
722 723
641 640
329 328
52 53
72 71
844 843
45 44
522 521
687 686
691 690
455 454
179 180
652 653
601 600
498 497
72 73
349 350
279 278
770 771
444 443
386 387
101 100
581 582
122 123
98 99
145 146
693 692
800 799
638 639
92 93
832 831
144 145
729 728
27 26
555 554
766 765
735 734
716 715
295 294
38 39
619 618
219 218
740 739
46 45
481 480
142 141
359 360
707 708
401 402
755 756
62 61
692 691
604 603
801 802
97 98
628 627
222 221
296 295
468 469
272 273
78 77
47 48
594 593
65 64
807 806
131 130
404 405
492 491
768 767
577 576
192 191
75 76
773 774
325 326
545 546
199 198
554 553
420 421
632 631
152 153
341 340
255 256
599 600
226 225
707 706
427 428
684 683
292 291
433 434
151 150
742 741
132 131
27 28
823 822
642 643
304 303
426 427
226 227
644 645
69 68
717 716
564 563
654 653
597 598
167 166
815 816
574 573
705 704
109 110
265 264
111 112
40 41
632 633
369 368
35 34
336 335
682 683
797 796
435 434
801 800
539 538
398 399
826 827
362 363
57 56
350 351
132 133
94 93
16 17
826 825
191 190
570 571
838 839
365 364
415 414
681 682
669 668
354 353
809 808
585 584
347 348
142 143
478 477
759 758
752 753
488 487
665 666
101 102
718 717
424 425
445 446
260 261
149 148
26 25
512 513
549 548
651 652
449 448
357 356
47 46
158 159
664 663
183 184
509 508
289 290
847 846
462 461
173 174
788 789
630 629
398 397
79 80
400 399
460 459
462 463
221 220
695 696
130 129
517 518
127 126
308 309
96 95
432 431
811 810
547 548
354 355
321 320
299 298
517 516
783 784
770 769
768 769
202 201
276 277
188 187
744 743
849 850
235 236
458 459
732 733
419 418
706 705
686 685
140 139
718 719
845 846
283 284
422 421
197 196
275 276
731 732
597 596
851 850
250 249
471 470
301 300
216 215
186 185
249 248
445 444
9 8
297 296
612 613
460 461
408 409
605 606
841 842
655 656
741 740
313 314
550 551
68 67
429 430
565 566
291 290
774 775
81 82
659 660
339 338
480 479
617 616
439 438
837 836
820 821
324 325
468 467
171 170
344 343
381 382
243 242
735 736
791 792
395 396
209 210
786 787
161 162
361 362
200 201
203 204
500 501
360 361
696 697
92 91
365 366
595 594
18 19
557 558
836 835
375 376
817 818
232 231
282 283
671 672
194 195
759 760
50 51
245 246
156 157
675 676
63 62
379 378
450 449
438 437
352 353
709 708
348 349
533 534
615 616
105 106
549 550
623 622
674 675
523 524
20 19
128 129
371 372
1027 4 641
533 532
900 899
568 567
813 812
350 351
657 656
806 805
712 711
475 474
848 847
729 728
711 710
725 724
360 359
872 873
652 651
699 698
299 300
639 640
272 271
710 709
414 413
246 245
5 4
234 233
976 977
316 315
346 345
544 545
507 506
478 477
36 35
57 56
22 21
939 938
767 768
613 612
644 645
138 139
691 692
443 444
61 60
729 730
683 682
816 817
385 386
566 567
612 611
446 445
378 377
804 803
169 168
349 348
367 366
901 902
787 788
184 183
765 766
837 836
683 684
886 885
945 946
774 773
120 119
437 438
491 492
701 700
498 497
926 925
152 153
289 290
563 562
141 142
269 268
268 267
307 306
415 416
887 886
452 451
634 635
440 439
186 187
305 306
862 861
459 458
384 385
230 229
32 31
403 404
850 851
738 739
1017 1018
247 246
829 828
75 74
400 401
334 333
732 733
847 846
262 261
301 302
86 87
751 752
471 472
84 83
34 35
519 520
46 47
911 910
571 572
190 189
952 951
470 471
522 523
209 210
123 124
797 798
102 101
72 73
178 177
910 909
13 14
1011 1010
309 308
124 125
410 411
495 496
781 782
315 314
721 720
877 876
907 906
1027 1026
4 3
277 278
457 456
673 674
207 208
113 112
979 978
476 477
393 394
44 43
575 574
400 399
317 318
11 12
284 285
660 661
143 144
336 337
943 944
855 856
197 198
558 557
109 108
107 106
32 33
801 802
404 405
172 173
541 542
222 223
937 938
703 702
489 490
878 879
843 842
81 80
239 240
829 830
989 990
672 671
74 73
132 133
752 753
160 159
287 288
852 851
801 800
20 21
504 503
547 548
890 891
54 55
953 954
638 639
250 249
884 883
232 231
258 259
726 727
827 828
658 657
920 921
641 640
906 905
104 105
307 308
848 849
613 614
903 904
894 895
904 905
898 897
89 88
228 229
631 630
549 550
10 9
93 92
605 604
236 237
55 56
34 33
292 291
102 103
671 670
666 667
395 394
902 903
233 232
592 591
44 45
291 290
993 992
771 772
741 740
343 344
900 901
891 892
908 907
288 289
259 260
455 456
586 585
1023 1024
454 453
857 858
324 325
142 143
38 37
179 180
185 184
608 607
743 742
929 930
166 165
146 145
151 150
15 16
775 774
621 620
1009 1010
227 228
998 999
505 504
293 294
659 658
286 285
278 279
709 708
966 967
91 92
326 325
760 761
324 323
149 150
409 408
680 681
720 719
807 808
345 344
825 824
597 596
241 240
880 881
425 426
26 25
453 452
351 352
101 100
499 498
263 264
6 857
593 592
353 354
429 428
190 191
674 675
540 539
956 957
328 327
925 924
696 697
668 669
43 42
899 898
873 874
367 368
599 598
586 587
13 12
538 537
178 179
1026 1025
637 636
467 468
200 199
68 67
607 606
224 225
893 894
90 91
795 796
704 703
322 321
201 202
282 281
398 397
1007 1008
559 558
357 356
205 206
423 422
563 564
994 993
81 82
669 670
311 310
803 802
816 815
158 159
883 882
779 778
284 283
735 734
489 488
391 392
221 220
866 865
638 637
515 516
914 915
339 340
578 577
98 97
992 991
579 580
760 759
878 877
785 784
314 313
424 423
391 390
854 855
840 841
916 915
858 859
798 799
748 747
1002 1001
384 383
690 691
715 716
614 615
95 94
809 810
424 425
422 421
565 566
551 552
463 464
175 176
20 19
58 59
397 396
984 983
255 256
875 874
705 706
447 446
115 116
478 479
1000 1001
182 183
386 387
403 402
352 353
518 517
433 434
118 117
297 296
1021 1022
174 175
450 451
824 823
295 294
950 949
838 837
565 564
96 95
983 982
144 145
256 257
615 616
689 690
673 672
166 167
839 838
917 918
912 913
23 24
383 382
66 65
964 963
747 746
867 866
584 583
293 292
870 869
949 948
804 805
618 617
850 849
366 365
812 811
372 371
347 3
105 106
253 252
537 536
810 811
770 769
339 338
116 117
1012 1013
699 700
113 114
653 654
530 529
863 864
630 629
980 981
865 864
323 322
759 758
945 944
493 492
187 188
999 1000
872 871
271 270
826 825
436 435
508 507
628 629
921 922
174 173
589 588
40 39
985 984
401 402
686 685
860 861
140 141
562 561
834 833
167 168
585 584
961 960
448 447
935 934
762 763
535 536
17 16
958 959
840 839
746 745
523 524
595 594
576 575
137 138
269 270
521 520
251 252
130 131
632 633
342 343
790 789
957 958
820 819
281 280
793 792
821 820
480 479
318 319
996 997
594 593
203 202
107 108
320 321
333 332
354 355
644 643
317 316
454 455
273 272
502 501
350 349
697 698
432 431
212 213
853 852
510 509
818 817
470 469
722 723
707 708
963 962
528 529
659 660
771 770
743 744
1016 1015
916 917
23 22
739 740
87 88
663 662
434 435
80 79
216 217
134 135
239 238
59 60
923 922
215 216
577 576
979 980
100 99
485 486
348 347
122 121
24 25
406 407
199 198
783 782
677 678
160 161
221 222
556 555
155 156
331 332
830 831
196 195
572 573
204 203
1021 1020
123 122
675 676
763 764
126 127
181 182
53 54
39 38
610 611
151 152
19 18
211 210
157 156
261 260
201 200
551 550
437 436
93 94
194 193
941 942
482 483
571 570
664 665
749 748
387 388
258 257
973 972
379 378
780 779
835 834
302 303
119 118
276 275
997 998
279 280
3 2
625 624
468 469
735 736
911 912
942 943
939 940
896 897
164 163
962 961
619 620
662 661
846 845
880 879
303 304
731 730
214 213
266 265
148 149
413 412
357 358
364 365
514 515
505 506
340 341
298 297
953 952
758 757
604 603
443 442
438 439
481 480
931 930
57 58
726 725
754 753
282 283
595 596
976 975
49 50
4 517
64 63
775 776
274 275
652 653
371 370
1008 1009
64 65
626 627
85 86
972 971
103 104
791 790
304 305
29 30
2 1
462 461
869 868
1006 1005
382 381
406 405
226 227
84 85
224 223
655 656
78 77
893 892
682 681
194 195
1018 1019
821 822
970 971
1019 1020
419 420
987 986
467 466
610 609
364 363
111 110
254 253
546 547
37 36
96 97
495 494
706 707
370 369
466 465
937 936
157 158
338 337
414 415
129 130
654 655
815 814
373 374
986 985
460 461
267 266
165 164
704 705
249 248
831 832
569 570
800 799
919 920
956 955
534 533
549 548
162 163
719 718
444 445
923 924
484 485
668 667
927 928
728 727
463 462
514 513
714 713
634 633
442 441
996 995
860 859
192 193
822 823
648 647
975 974
482 481
651 650
263 262
509 508
154 155
540 541
83 82
559 560
813 814
888 887
765 764
773 772
794 795
251 250
679 678
995 994
581 582
600 599
918 919
777 778
807 806
133 134
51 52
568 569
527 528
959 960
310 309
493 494
781 780
1025 1024
680 679
331 330
62 61
320 319
172 171
26 27
335 334
5 687
312 313
853 854
696 695
170 171
389 388
797 796
819 818
70 69
1 6
715 714
718 717
396 395
186 185
390 389
109 110
619 618
512 511
487 488
518 519
218 217
377 376
30 31
120 121
277 276
429 430
137 136
1023 1022
15 14
457 458
41 40
244 245
51 50
973 974
241 242
431 430
330 329
1017 1016
49 48
808 809
196 197
409 410
731 732
666 665
68 69
27 28
538 539
483 484
236 235
428 427
71 70
1003 1004
947 946
75 76
929 928
209 208
336 335
554 553
1005 1004
274 273
762 761
379 380
6 5
555 554
416 417
641 642
127 128
441 440
135 136
737 736
211 212
329 328
219 220
738 737
48 47
207 206
465 464
398 399
497 496
955 954
578 579
287 286
7 1
1007 1006
476 475
786 787
264 265
557 556
888 889
153 154
932 931
968 969
625 626
513 512
589 590
693 692
836 835
988 989
969 970
473 474
77 76
237 238
78 79
750 749
664 663
694 693
46 45
842 841
932 933
621 622
587 588
647 646
181 180
473 472
889 890
643 642
756 755
832 833
784 783
885 884
146 147
844 845
8 9
768 769
827 826
244 243
358 359
867 868
393 392
169 170
231 230
243 242
527 526
684 685
632 631
622 623
717 716
29 28
235 234
794 793
966 965
380 381
407 408
988 987
372 373
724 723
411 412
525 526
650 649
99 98
553 552
582 583
936 935
776 777
376 375
734 733
702 701
66 67
248 247
11 10
591 590
602 603
933 934
608 609
950 951
965 964
433 432
419 418
299 298
71 72
534 535
18 17
645 646
581 580
162 161
617 616
978 977
421 420
355 356
627 628
542 543
870 871
126 125
602 601
524 525
362 363
754 755
449 448
522 521
574 573
598 597
766 767
862 863
695 694
751 750
968 967
326 327
1013 1014
511 510
982 981
1014 1015
531 530
226 225
369 368
191 192
188 189
940 941
218 219
875 876
744 745
712 713
676 677
205 204
300 301
649 648
742 741
255 254
501 500
635 636
882 881
687 688
418 417
449 450
215 214
459 460
177 2
499 500
361 362
41 42
791 792
129 128
62 63
311 312
546 545
914 913
1002 1003
544 543
295 296
843 844
757 756
341 342
487 486
909 908
722 721
360 361
132 131
601 600
114 115
991 990
624 623
785 786
52 53
427 426
531 532
7 8
374 375
90 89
789 788
1011 1012
606 605
147 148
926 927
561 560
689 688
490 491
502 503
947 948
112 111
896 895
140 139
964 1 877
864 865
144 145
138 137
33 34
360 359
367 368
936 937
533 532
83 84
78 77
216 217
206 205
169 168
768 767
608 609
490 489
418 417
803 802
623 622
536 537
783 782
888 889
873 874
386 387
792 791
951 950
233 232
207 206
306 305
40 39
378 377
442 443
107 106
1 2
876 875
379 380
154 155
200 199
155 156
671 670
555 554
737 736
788 789
610 611
847 846
695 696
505 504
174 173
298 297
898 899
152 151
521 520
747 746
334 335
813 812
732 731
488 487
920 919
56 57
267 268
926 927
624 625
330 331
797 796
653 652
645 646
883 882
626 627
86 87
724 725
35 34
726 727
207 208
114 115
345 344
486 487
876 877
889 890
758 757
946 945
687 686
70 69
369 368
681 682
821 822
480 481
22 21
956 955
174 175
812 811
690 691
880 881
906 907
569 570
693 692
64 63
202 203
952 951
777 776
629 630
234 235
299 300
543 542
133 134
290 289
586 587
942 943
136 137
435 436
772 773
911 910
294 293
68 67
212 211
635 636
662 663
342 343
957 958
593 592
76 75
289 288
371 372
689 688
918 919
954 953
176 177
502 503
171 170
419 418
698 699
93 92
365 366
393 392
126 127
94 95
909 910
237 238
723 724
929 930
637 636
678 677
534 533
912 911
731 730
809 810
583 582
262 261
383 382
333 332
947 948
668 667
647 648
60 61
614 615
748 747
601 600
122 123
3 2
546 547
712 711
42 41
948 949
758 759
331 332
405 406
109 108
917 916
874 875
165 164
475 474
570 571
771 770
171 172
923 924
531 532
869 868
246 245
816 817
513 512
634 633
141 142
226 225
584 583
858 857
104 105
196 195
589 590
679 680
473 472
524 523
367 366
625 626
506 505
110 111
656 657
238 239
419 420
507 506
52 53
891 890
28 27
481 482
483 484
91 90
192 191
807 808
660 659
81 82
404 405
653 654
511 510
254 255
739 738
574 573
575 576
132 131
587 588
675 674
790 789
161 160
73 72
461 460
325 3
184 185
313 312
309 308
535 536
617 618
956 957
270 269
190 189
841 840
187 188
11 10
376 375
667 666
442 441
801 802
939 938
887 888
499 498
877 878
123 124
883 884
23 24
721 720
185 186
1 6
867 866
136 135
62 63
438 437
40 41
372 373
577 578
858 859
211 210
851 852
125 126
826 825
915 914
259 260
585 584
572 573
648 649
620 621
759 760
295 294
386 385
591 592
46 47
887 886
462 463
607 606
253 252
781 782
260 261
431 432
388 389
132 133
518 519
454 453
148 149
98 99
846 845
784 783
457 458
944 945
928 929
406 407
460 459
485 4
190 191
5 6
632 631
290 291
198 197
305 304
50 51
799 800
563 564
923 922
519 520
805 806
514 513
545 546
478 477
455 454
15 14
539 538
364 363
753 752
856 857
49 48
241 242
287 286
683 682
27 26
116 117
324 323
425 424
936 935
749 748
763 764
654 655
704 703
815 816
390 391
394 393
249 250
312 311
77 76
434 433
85 84
448 447
242 243
180 179
338 337
121 120
374 373
116 115
30 29
582 581
496 495
478 479
363 362
319 318
328 329
346 347
447 446
750 749
790 791
947 946
860 861
429 430
917 918
818 817
182 181
960 959
694 695
175 176
112 113
878 879
36 35
18 17
831 832
10 9
395 396
16 17
230 231
31 30
278 277
353 352
574 575
139 138
904 903
458 459
66 65
642 641
304 303
358 357
719 718
794 793
820 821
256 255
339 338
492 491
559 558
557 556
7 1
102 101
128 129
727 728
863 864
91 92
215 216
811 810
703 702
495 494
337 336
713 714
229 228
288 287
485 486
375 374
480 479
93 94
952 953
836 835
430 431
601 602
631 630
796 795
542 541
850 851
838 837
157 158
199 198
62 61
937 938
339 340
101 100
421 420
797 798
221 222
715 714
880 879
619 618
833 832
752 751
314 315
902 903
245 244
773 774
283 282
109 110
740 739
433 432
799 798
108 107
320 319
318 317
603 602
801 800
719 720
829 830
837 836
593 594
512 511
803 804
104 103
580 581
72 71
322 321
709 710
885 884
705 704
638 639
214 215
754 753
908 907
445 446
743 744
37 36
170 169
508 509
661 660
23 22
389 390
474 473
661 662
306 307
102 103
412 411
931 932
538 537
45 44
455 456
944 943
865 866
239 240
730 729
775 774
488 489
193 192
398 399
79 80
307 308
477 476
439 438
470 471
168 167
516 515
228 227
769 768
370 371
842 841
650 651
713 712
733 732
507 508
414 415
617 616
279 280
530 529
694 693
385 384
183 184
468 469
275 276
200 201
562 561
414 413
935 934
725 726
19 20
666 665
492 493
609 610
209 208
940 941
527 528
316 317
86 85
127 128
426 427
444 445
281 280
745 744
853 852
741 740
624 623
922 921
470 469
819 818
159 160
588 589
266 265
664 663
186 187
823 824
194 193
854 853
399 400
325 326
700 699
823 822
223 224
954 955
605 604
140 141
510 509
844 843
47 48
162 161
230 229
708 707
118 119
901 900
920 921
196 197
598 599
526 525
437 436
613 612
544 543
627 628
262 263
828 829
241 240
668 669
579 578
80 81
683 684
251 252
397 396
863 862
862 861
604 603
182 183
501 500
785 786
502 501
250 251
28 29
751 750
301 300
892 893
928 927
697 696
709 708
735 734
566 567
33 32
7 8
2 166
599 600
764 765
428 429
125 124
894 893
472 471
643 644
915 916
942 941
722 723
361 362
554 553
961 960
83 82
234 233
769 770
691 692
771 772
620 619
464 463
194 195
715 716
235 236
595 594
701 700
162 163
560 559
314 313
147 148
716 717
681 680
860 859
904 905
743 742
597 596
159 158
120 119
16 15
930 931
231 232
167 166
90 89
189 188
655 656
105 106
342 341
295 296
145 146
303 302
283 284
309 310
949 950
779 780
590 591
465 466
14 13
9 8
902 901
329 330
156 157
870 871
561 560
38 37
24 25
689 690
698 697
263 264
642 643
711 710
55 56
327 328
461 462
608 607
275 274
813 814
53 54
134 135
353 354
177 178
350 351
379 378
685 686
676 677
113 114
97 96
408 409
59 58
284 285
70 71
558 557
871 872
75 74
526 527
173 172
392 391
384 383
467 466
456 457
476 475
825 824
131 130
142 143
562 563
274 273
237 236
785 784
267 266
706 707
315 316
248 247
576 577
205 204
547 548
895 896
585 586
202 201
522 523
827 826
504 503
143 144
219 220
908 909
448 449
426 425
218 217
872 873
43 44
52 51
490 491
25 26
497 496
568 569
734 733
11 12
521 522
854 855
926 925
347 348
820 819
647 646
896 897
742 741
894 895
780 781
830 831
410 409
567 568
687 688
652 651
641 640
112 111
525 524
265 264
352 351
808 809
848 849
210 209
553 552
622 621
702 701
322 323
219 218
514 515
427 428
634 635
407 408
848 847
164 163
933 934
179 178
301 302
147 146
410 411
517 518
253 254
204 203
122 121
434 435
645 5
905 906
870 869
579 580
738 737
640 639
551 550
422 423
68 69
244 243
412 413
541 540
611 612
150 149
881 882
376 377
79 78
833 834
565 564
89 88
571 572
361 360
381 380
963 964
150 151
517 516
320 321
402 403
746 745
598 597
279 278
760 761
54 55
638 637
899 900
248 249
766 767
735 736
482 483
277 276
223 222
415 416
933 932
335 336
345 346
87 88
440 439
845 844
50 49
451 450
776 775
856 855
298 299
867 868
20 21
886 885
763 762
544 545
97 98
779 778
443 444
269 268
139 140
60 59
382 381
282 281
227 226
153 152
616 615
99 100
31 32
67 66
756 757
962 961
440 441
664 665
270 271
370 369
729 728
297 296
421 422
403 404
181 180
356 355
913 914
387 388
605 606
272 273
963 962
117 118
493 494
614 613
400 401
839 838
358 359
839 840
787 786
807 806
535 534
221 220
795 794
632 633
897 898
247 246
891 892
5 4
334 333
673 674
467 468
73 74
6 805
452 451
672 671
416 417
64 65
153 154
348 349
676 675
721 722
850 849
452 453
344 343
596 595
679 678
529 528
788 787
843 842
649 650
291 292
658 659
349 350
39 38
669 670
549 548
449 450
958 959
814 815
95 96
912 913
497 498
765 766
402 401
19 18
257 256
340 341
940 939
293 292
718 717
777 778
556 555
43 42
549 550
365 364
827 828
530 531
259 258
565 566
464 465
834 835
705 706
4 3
761 762
46 45
925 924
394 395
499 500
225 224
424 423
658 657
213 212
552 551
310 311
539 540
272 271
354 355
672 673
326 327
793 792
628 629
213 214
684 685
258 257
12 13
356 357
755 756
285 286
397 398
58 57
129 130
754 755
960 5 293
170 169
399 398
622 623
502 501
322 323
605 604
943 944
726 727
800 801
402 403
56 57
313 314
651 652
321 322
492 491
874 875
898 897
18 19
493 492
720 719
156 155
97 98
617 616
317 318
862 863
458 457
85 84
250 249
533 532
810 809
150 149
901 902
567 568
817 818
593 594
448 449
557 556
942 943
838 837
308 309
140 139
465 464
769 770
215 214
597 598
667 668
570 571
614 615
421 420
922 923
90 91
68 67
388 387
739 740
913 912
52 51
906 907
128 127
422 423
253 252
718 717
175 176
432 433
141 140
220 219
663 662
461 462
245 246
374 373
620 621
480 479
78 77
18 17
632 631
641 640
129 130
84 83
473 474
805 806
93 92
448 447
199 200
561 560
85 86
428 427
472 473
786 785
887 886
475 474
315 316
390 391
861 862
878 879
820 819
600 599
243 242
291 292
236 237
519 520
241 240
693 692
266 265
715 714
603 604
145 144
565 564
72 71
394 393
36 37
859 860
484 485
96 97
883 884
432 431
254 255
827 826
835 834
505 504
434 433
209 208
686 685
94 95
606 607
787 786
540 539
679 678
935 936
458 459
186 185
99 100
28 27
345 344
623 624
697 696
949 950
851 852
650 651
355 356
705 704
316 317
828 827
511 510
724 725
111 110
403 404
766 765
906 905
582 583
110 109
885 886
306 307
549 548
455 454
326 325
40 41
589 588
121 122
756 757
852 853
67 66
577 578
688 689
68 69
785 784
247 248
13 12
452 453
687 688
223 222
113 114
137 138
244 245
264 263
426 427
958 959
53 54
552 551
647 646
314 315
210 211
871 872
553 552
213 212
51 50
606 605
738 739
657 656
394 395
539 538
44 43
271 270
575 574
421 422
510 509
419 418
301 300
495 494
406 405
435 436
582 581
653 652
370 371
293 294
166 167
733 732
95 96
706 707
823 822
396 397
616 615
503 502
257 256
261 260
453 454
31 32
214 213
857 856
854 855
799 798
152 151
138 139
46 47
809 808
142 143
618 619
272 273
707 708
895 896
468 469
392 393
517 518
735 736
487 486
252 251
930 929
190 189
904 905
563 564
924 923
187 188
808 807
26 25
701 700
233 232
598 599
725 726
794 795
207 208
813 814
308 307
877 878
654 653
535 536
771 770
845 844
659 660
512 513
353 354
733 734
576 575
515 516
769 768
463 464
791 792
55 56
365 366
628 627
957 956
206 207
438 439
671 670
325 3
8 9
478 479
916 915
440 441
62 63
755 756
825 826
201 202
124 123
625 624
713 712
760 761
820 821
573 574
455 456
444 443
858 859
462 463
692 691
276 275
230 229
149 148
779 780
116 117
28 29
186 187
312 311
480 481
153 154
612 611
362 361
75 74
633 632
428 429
755 754
910 909
380 381
378 379
291 290
894 895
219 218
656 655
296 297
269 268
948 947
235 234
374 375
684 685
472 471
888 887
496 495
932 933
258 259
636 635
866 867
7 8
751 750
116 115
38 37
358 359
10 11
352 351
917 916
635 634
938 939
134 133
119 118
716 717
174 175
526 525
919 920
419 420
877 876
730 731
20 19
294 295
39 38
542 543
103 102
441 442
867 868
168 169
372 373
888 889
530 529
527 526
498 499
368 369
876 875
927 926
295 296
10 9
743 744
874 873
843 844
268 267
514 515
330 331
289 290
647 648
841 842
193 192
546 545
892 891
192 191
493 494
915 914
409 410
836 837
608 609
501 500
489 488
23 24
584 585
787 788
23 22
868 869
925 924
789 790
94 93
162 161
595 596
544 543
335 334
151 150
183 184
853 854
87 86
730 729
210 209
189 188
35 36
293 292
271 272
569 570
76 75
669 668
145 146
171 172
386 385
477 478
643 644
331 332
319 318
597 596
638 637
375 376
792 793
313 312
60 59
106 107
465 466
578 579
822 821
508 507
33 32
550 551
571 572
940 939
729 728
240 239
586 585
765 764
513 514
741 740
74 73
77 76
342 343
507 506
732 731
881 882
269 270
753 752
661 660
706 705
937 938
851 850
262 261
34 35
649 648
512 511
674 675
900 901
104 103
926 925
418 417
950 951
683 684
759 760
107 108
125 124
592 593
278 277
722 723
643 5
798 797
589 590
59 58
779 778
619 620
228 229
727 728
3 2
340 339
141 142
694 695
367 368
1 7
43 42
534 535
430 431
649 650
547 548
498 497
378 377
363 364
928 927
57 58
638 639
873 872
390 389
236 235
941 940
414 413
309 310
21 22
735 734
413 412
524 523
777 776
899 900
600 601
907 908
949 948
830 831
190 191
120 121
833 834
333 332
483 482
701 702
737 736
804 805
166 2
636 637
550 549
518 519
341 342
81 80
91 92
838 839
631 630
157 156
402 401
562 563
848 849
21 20
899 898
238 237
482 481
702 703
306 305
846 845
411 412
439 440
15 16
41 42
131 130
425 426
951 952
126 125
642 641
749 750
747 748
274 273
34 33
61 60
89 88
411 410
753 754
450 451
279 278
796 795
297 298
350 351
415 416
449 450
424 423
559 558
143 144
200 201
484 4
459 460
677 676
532 531
744 745
763 764
846 847
783 782
304 305
612 613
583 584
470 471
883 882
773 772
184 185
557 558
136 137
778 777
279 280
667 666
751 752
738 737
893 892
858 857
446 445
452 451
840 839
843 842
909 908
49 50
282 281
629 628
634 633
379 380
522 523
173 174
767 766
672 673
601 602
690 689
811 810
823 824
193 194
354 355
262 263
490 491
721 722
572 573
708 709
264 265
864 863
496 497
280 281
626 625
391 392
530 531
226 227
830 829
163 162
748 749
405 404
6 5
282 283
178 177
934 933
861 860
870 869
774 773
87 88
357 356
247 246
221 220
258 257
718 719
165 164
812 811
319 320
259 260
329 330
80 79
661 662
407 408
816 815
352 353
120 119
6 802
400 399
153 152
395 396
815 814
954 955
39 40
560 559
54 55
796 797
956 955
239 238
445 444
890 891
671 672
181 182
253 254
267 266
62 61
658 659
161 160
698 699
15 14
896 897
82 83
46 45
704 703
610 609
197 198
504 503
304 303
102 101
345 346
349 348
167 168
216 215
856 855
328 327
179 178
698 697
836 835
759 758
27 26
816 817
536 537
665 664
848 847
713 714
804 803
79 78
524 525
487 488
232 231
831 832
904 903
227 228
505 506
921 920
329 328
195 194
177 176
577 576
364 365
467 468
400 401
11 12
682 681
357 358
65 64
693 694
622 621
607 608
384 385
302 303
197 196
123 122
48 47
30 31
946 945
195 196
341 340
1 2
98 99
326 327
337 336
350 349
336 335
29 30
173 172
456 457
224 223
276 277
435 434
946 947
202 203
942 941
485 486
710 709
613 614
134 135
250 251
517 516
248 249
64 63
682 683
16 17
437 438
371 372
447 446
170 171
82 81
109 108
922 921
724 723
182 183
311 310
696 695
115 114
767 768
69 70
630 629
913 914
106 105
781 780
338 337
538 537
818 819
72 73
387 386
198 199
489 490
301 302
509 508
475 476
376 377
126 127
369 370
66 65
626 627
590 591
936 937
945 944
829 828
204 203
217 216
430 429
776 775
534 533
382 381
681 680
425 424
275 274
24 25
343 344
44 45
580 581
677 678
230 231
566 567
111 112
617 618
212 211
960 959
588 587
205 204
521 520
712 711
1 6
221 222
686 687
476 477
833 832
758 757
664 663
545 544
287 286
880 881
957 958
407 406
781 782
812 813
256 255
70 71
931 930
911 910
128 129
288 287
640 639
499 500
181 180
791 790
461 460
154 155
49 48
243 244
132 131
105 104
217 218
646 645
806 807
866 865
89 90
746 745
521 522
935 934
541 540
953 952
136 135
566 565
339 338
850 849
333 334
159 158
747 746
147 146
879 880
132 133
542 541
669 670
226 225
592 591
954 953
148 147
206 205
889 890
561 562
691 690
802 803
157 158
383 382
579 580
824 825
710 711
784 783
324 323
610 611
242 241
298 299
556 555
666 665
932 931
52 53
720 721
841 840
284 283
389 388
299 300
527 528
918 919
225 224
363 362
408 409
912 911
595 594
118 117
415 414
112 113
799 800
360 359
100 101
675 676
673 674
321 320
917 918
14 13
602 603
893 894
794 793
347 348
699 700
742 743
5 4
3 4
366 367
384 383
775 774
180 179
902 903
288 289
417 416
347 346
286 285
715 716
864 865
742 741
528 529
885 884
467 466
771 772
679 680
929 928
644 645
360 361
654 655
397 398
284 285
443 442
568 569
657 658
164 163
555 554
233 234
762 763
547 546
762 761
159 160
789 788
470 469
554 553
871 870
437 436
586 587
1008 4 423
142 143
499 498
7 1
473 472
972 973
262 261
1000 999
421 420
337 336
36 35
425 424
129 130
998 999
455 456
387 388
233 232
134 135
729 730
600 599
473 474
271 272
317 316
4 508
902 903
290 289
373 374
865 864
853 852
410 411
862 863
725 724
746 747
876 877
728 729
14 15
156 157
923 924
175 174
392 393
159 158
269 268
835 834
402 401
551 550
838 837
667 666
731 732
481 482
275 276
211 212
540 541
39 40
309 310
887 888
228 229
172 173
797 796
570 571
503 504
345 346
511 512
191 190
194 195
700 699
754 755
179 178
624 623
693 694
460 459
599 598
857 858
562 561
636 637
781 780
300 301
115 114
716 717
351 352
322 321
301 302
126 125
696 697
684 685
567 566
811 812
68 67
699 698
924 925
944 943
38 39
406 407
652 651
951 950
391 392
480 481
535 536
826 825
429 430
526 527
350 351
217 216
468 467
512 513
761 762
330 331
804 805
265 264
784 785
831 830
646 645
402 403
639 638
426 425
238 237
369 368
210 209
744 743
231 230
718 717
202 203
576 577
986 985
774 773
655 654
430 431
129 128
536 537
260 259
799 798
362 363
585 584
963 964
783 784
65 64
975 976
790 789
810 811
687 688
437 438
961 962
777 776
312 311
741 740
295 296
829 828
658 657
963 962
274 273
938 937
99 100
212 213
303 304
452 453
407 408
141 142
749 748
625 624
165 164
145 144
82 83
288 287
605 604
941 940
766 767
334 335
60 61
333 332
22 21
288 289
817 816
6 5
361 362
542 541
874 875
659 660
750 749
32 33
490 491
553 554
993 994
369 370
55 56
199 200
899 898
747 748
184 183
734 733
164 163
24 25
735 734
949 950
795 796
718 719
269 270
582 581
292 291
548 547
560 559
563 564
769 768
528 527
797 798
501 502
19 18
524 525
574 575
988 987
98 99
116 117
395 394
15 16
185 184
240 241
223 224
141 140
595 596
662 661
22 23
138 137
399 400
342 343
607 606
20 19
772 771
3 341
979 978
878 877
445 446
71 70
151 150
938 939
408 409
763 762
940 939
159 160
965 966
405 406
663 662
434 433
806 805
795 794
856 857
203 204
103 102
956 957
319 318
926 927
193 194
404 403
656 657
356 357
935 936
5 675
441 442
842 6
250 251
918 919
515 514
367 366
494 493
636 635
267 268
294 295
263 262
452 451
854 853
44 45
841 840
580 581
820 819
365 364
463 462
354 355
552 553
108 107
367 368
353 352
517 518
686 685
86 87
572 573
631 632
280 281
112 113
125 124
617 616
709 710
649 648
283 282
448 449
739 740
84 85
830 829
983 982
804 803
61 62
557 556
477 476
539 540
9 8
925 926
984 983
353 354
374 375
703 704
131 130
709 708
935 934
428 429
487 488
448 447
614 615
443 444
33 34
196 197
977 976
93 92
791 792
29 30
523 524
286 287
92 91
165 166
626 627
398 399
113 114
896 897
75 76
821 820
628 627
315 316
716 715
777 778
162 161
757 758
153 152
376 377
1004 1003
933 934
395 396
1001 1000
775 776
759 758
277 276
917 918
900 899
752 753
279 278
468 469
466 465
73 74
760 761
573 574
179 180
346 347
397 396
174 2
138 139
58 57
29 28
303 302
290 291
948 949
682 683
958 957
485 484
671 670
533 532
700 701
757 756
909 908
456 457
498 497
782 781
775 774
320 319
901 902
338 339
155 154
306 305
606 605
960 959
644 645
928 927
84 83
499 500
547 546
661 660
103 104
382 383
419 418
506 507
869 870
132 133
836 837
802 801
786 785
442 443
859 858
874 873
126 127
912 911
345 344
931 930
548 549
855 854
17 16
787 786
693 692
870 871
789 788
832 831
968 969
551 552
11 10
476 475
598 597
336 335
121 122
745 744
172 171
489 490
180 181
764 763
4 5
167 166
648 647
688 689
81 80
177 178
225 226
275 274
444 445
861 862
928 929
643 642
244 243
282 281
970 971
628 629
242 241
528 529
439 438
96 97
836 835
60 59
672 673
1003 1002
148 147
769 770
822 823
347 348
112 111
48 47
170 171
12 13
910 909
993 992
106 107
307 308
958 959
997 998
981 982
773 772
920 919
622 621
592 591
990 991
243 242
695 694
600 601
298 297
389 390
898 897
239 240
154 153
535 534
12 11
486 487
21 20
109 108
801 800
331 332
916 917
871 872
907 906
659 658
819 818
163 162
941 942
218 219
883 884
320 321
650 649
916 915
969 970
293 294
883 882
323 322
417 418
96 95
115 116
779 780
127 128
465 464
560 561
466 467
546 545
226 227
245 244
214 213
343 344
355 356
674 673
889 888
691 690
736 735
479 478
375 376
885 884
65 66
441 440
55 54
1005 1004
413 414
246 245
791 790
261 260
123 124
205 204
951 952
555 556
889 890
724 723
480 479
905 906
967 966
308 309
635 634
188 189
739 738
647 646
704 705
215 214
148 149
726 727
122 123
620 619
208 209
1008 1007
234 235
189 190
161 160
707 708
793 792
643 644
861 860
799 800
622 623
901 900
583 584
814 815
90 91
586 587
158 157
680 681
672 671
513 514
650 651
420 419
765 764
881 882
914 915
67 66
68 69
733 732
51 50
995 996
833 834
293 292
986 987
248 247
121 120
588 589
300 299
782 783
679 678
932 931
227 228
411 412
366 365
701 702
964 965
252 253
217 218
199 198
415 414
759 760
955 954
663 664
621 620
504 505
432 433
41 40
537 538
187 188
640 639
564 565
453 454
640 641
488 489
814 813
989 988
905 904
326 327
497 496
427 428
543 544
827 826
500 501
53 54
221 222
384 383
815 816
151 152
256 255
146 145
955 956
328 329
980 981
104 105
721 720
378 377
745 746
602 603
937 936
230 229
526 525
809 808
437 436
813 812
312 313
323 324
894 893
904 903
156 155
778 779
575 576
585 586
193 192
629 630
378 379
509 508
977 978
359 360
422 423
726 725
136 137
741 742
886 887
225 224
994 995
149 150
73 72
852 851
394 393
182 181
177 176
131 132
753 754
619 618
690 689
208 207
461 462
806 807
515 516
601 602
232 231
144 143
79 80
942 943
824 823
472 471
946 947
824 825
944 945
893 892
38 37
201 202
974 973
721 722
879 878
134 133
587 588
314 315
325 324
868 869
139 140
668 669
400 401
23 24
389 388
250 249
431 432
632 633
751 752
737 736
50 49
37 36
458 457
8 7
307 306
77 76
492 493
833 832
568 567
186 187
654 653
185 186
10 9
910 911
257 258
192 191
558 557
439 440
885 886
363 364
75 74
565 566
880 881
3 4
738 737
756 755
477 478
361 360
594 595
235 236
615 616
206 207
35 34
357 358
914 913
249 248
579 580
731 730
286 285
81 82
337 338
175 176
665 664
53 52
317 318
768 767
100 101
550 549
147 146
534 533
118 119
670 669
257 256
706 707
110 109
907 908
896 895
719 720
847 846
482 483
265 266
496 495
246 247
470 469
667 668
980 979
653 652
787 788
451 450
590 589
471 470
516 517
578 579
358 359
711 710
953 952
334 333
350 349
868 867
220 221
330 329
558 559
683 684
101 102
381 380
270 271
818 817
506 505
641 642
597 596
87 88
371 372
211 210
14 13
71 72
702 703
569 568
593 594
971 972
859 860
682 681
349 348
25 26
583 582
279 280
844 843
921 920
341 342
272 273
57 56
996 997
78 77
434 435
821 822
544 545
844 845
64 63
722 723
591 590
967 968
264 263
633 634
743 742
666 665
828 827
866 865
397 398
404 405
543 542
195 196
42 41
848 849
110 111
510 509
933 932
371 370
98 97
563 562
94 95
3 2
182 183
475 474
522 521
638 637
960 961
464 463
63 62
386 385
30 31
503 502
990 989
239 238
530 529
44 43
458 459
311 310
676 675
484 483
219 220
609 608
948 947
706 705
58 59
630 631
984 985
313 314
32 31
610 609
201 200
251 252
845 846
618 617
538 539
843 842
593 592
867 866
168 167
415 416
712 713
94 93
283 284
43 42
495 494
810 809
912 913
698 697
304 305
296 297
326 325
237 236
714 713
873 872
555 554
486 485
427 426
851 850
197 198
205 206
930 929
511 510
571 572
677 678
27 26
922 923
79 78
413 412
410 409
856 855
255 254
771 770
285 284
46 45
808 807
608 607
48 49
18 17
714 715
875 876
696 695
578 577
613 614
390 391
384 385
1001 1002
611 610
170 169
216 215
51 52
258 259
839 840
339 340
234 233
380 379
136 135
863 864
381 382
519 518
520 521
455 454
267 266
519 520
679 680
70 69
687 686
223 222
839 838
298 299
1005 1006
1 6
491 492
277 278
892 891
450 449
727 728
1006 1007
89 90
765 766
612 611
86 85
47 46
1 2
386 387
422 421
522 523
436 435
750 751
626 625
945 946
27 28
530 531
891 890
656 655
953 954
570 569
169 168
880 879
711 712
254 253
119 120
922 921
975 974
88 89
992 991
803 802
850 849
677 676
894 895
794 793
613 612
106 105
117 118
603 604
447 446
373 372
461 460
531 532
691 692
424 423
416 417
848 847
327 328
1068 3 804
439 440
823 824
352 353
702 703
102 101
695 696
790 791
203 202
879 878
853 854
373 374
809 808
276 275
694 695
841 842
571 572
284 283
347 348
892 893
788 789
638 637
726 725
52 51
996 995
135 134
1018 1019
634 633
654 655
24 23
494 493
428 427
218 219
413 412
769 768
314 313
166 167
73 74
900 899
383 382
457 456
229 230
596 597
1056 1057
550 549
252 251
1004 1005
994 995
263 264
840 839
743 744
588 587
515 516
525 524
980 979
308 307
270 269
9 10
204 205
92 91
822 823
15 16
892 6
701 702
36 37
191 192
97 98
492 491
282 283
276 277
203 204
263 262
882 881
728 729
126 125
987 988
847 846
585 584
647 646
951 950
90 91
759 760
964 963
855 856
631 630
297 298
1004 1003
804 805
993 992
925 924
436 435
281 282
949 948
497 496
324 325
580 579
193 194
723 724
698 697
738 739
945 946
552 553
749 748
648 649
289 290
384 383
644 643
93 94
416 417
330 329
266 267
103 104
277 278
153 152
601 602
1007 1006
549 548
752 753
841 840
169 170
155 154
95 96
942 943
1045 1044
362 361
850 849
732 731
442 441
958 959
1057 1058
723 722
889 890
722 721
546 545
1063 1064
990 991
48 47
226 225
285 286
608 607
529 528
422 421
779 778
920 921
593 594
597 598
781 782
1006 1005
183 182
105 104
682 683
303 302
257 258
483 482
38 37
623 624
533 534
821 820
393 394
975 974
688 689
766 767
401 402
629 628
627 626
868 869
433 434
1025 1026
586 585
880 881
294 293
933 934
944 943
13 14
155 156
127 128
138 139
736 735
642 641
93 92
89 88
235 234
234 233
681 680
421 420
164 165
49 48
354 355
123 122
803 804
652 653
361 3
429 430
514 513
1046 1047
947 948
793 794
867 868
906 907
923 922
896 895
870 871
463 462
108 107
623 622
742 741
312 313
230 231
969 970
231 232
388 389
467 466
971 972
579 578
175 176
960 961
645 646
432 431
705 704
244 243
507 508
257 256
844 843
593 592
246 247
21 20
1053 1054
206 207
258 259
433 432
941 942
678 679
113 112
727 728
858 859
852 851
135 136
39 40
819 820
558 559
671 672
705 706
764 763
360 359
849 848
929 930
323 322
50 49
235 236
346 345
737 738
805 806
720 719
70 69
897 898
65 66
989 990
828 829
478 477
933 932
983 982
447 448
609 608
662 663
749 750
691 692
306 307
42 41
499 500
31 30
32 31
405 404
624 625
343 342
56 55
451 450
831 830
420 419
124 125
358 359
244 245
1067 1066
523 522
431 430
248 249
866 867
369 370
242 243
108 109
730 731
269 268
26 27
141 140
953 954
893 894
134 133
142 141
137 136
80 79
460 459
419 418
965 966
242 241
232 233
335 334
684 683
1059 1058
658 659
156 157
725 724
802 801
512 511
248 247
472 473
857 858
1007 1008
443 444
770 769
326 327
756 757
408 407
620 621
71 72
899 898
1027 1026
915 914
3 4
484 485
641 640
272 273
34 33
532 531
556 555
578 577
562 563
33 32
799 800
717 716
189 188
309 308
584 583
410 411
4 538
389 390
287 286
280 279
764 765
56 57
833 832
670 669
989 988
249 250
498 499
45 46
120 119
460 461
305 304
720 721
449 450
924 923
187 186
634 635
587 586
758 759
476 477
452 451
833 834
379 380
807 808
500 501
265 266
59 58
635 636
666 667
521 520
140 139
765 766
209 208
201 202
687 686
1037 1036
797 798
409 408
844 845
813 814
815 814
73 72
589 590
214 215
76 75
127 126
398 399
296 295
99 98
416 415
583 582
939 938
690 689
190 191
680 679
782 783
577 576
192 193
572 573
880 879
495 494
198 197
1049 1050
713 712
174 173
645 644
324 323
982 981
447 446
918 919
651 652
475 476
774 775
591 592
894 895
688 687
734 733
381 382
926 925
870 869
428 429
754 753
828 827
785 784
65 64
1039 1040
947 946
124 123
862 863
128 129
697 696
563 564
510 509
743 742
502 503
252 253
8 7
221 222
935 934
395 394
544 543
838 839
239 238
790 789
936 937
150 149
712 711
540 541
977 976
793 792
963 962
1043 1044
53 54
1018 1017
241 240
1019 1020
1028 1027
530 529
309 310
861 862
335 336
163 164
396 395
927 928
715 716
915 916
346 347
217 216
201 200
745 744
270 271
44 45
146 145
604 603
821 822
85 84
848 847
116 115
292 291
504 503
843 842
719 718
399 400
1043 1042
365 364
751 752
350 349
397 398
872 871
850 851
612 613
746 747
837 838
310 311
776 777
532 533
245 246
403 402
594 595
94 95
707 708
118 119
502 501
909 910
223 222
172 173
633 632
959 960
1031 1030
103 102
109 110
706 707
480 481
565 564
275 274
61 62
648 647
1024 1025
566 565
60 59
566 567
714 713
224 223
519 520
35 36
729 730
538 539
574 573
601 600
974 973
555 554
1065 1066
101 100
265 264
497 498
1001 1002
74 75
82 83
142 143
372 373
11 10
600 599
986 985
254 253
718 717
1032 1033
896 897
356 357
630 629
457 458
1064 1065
772 771
329 328
474 475
4 5
1014 1015
358 357
353 354
569 568
996 997
663 664
453 454
911 910
351 352
968 967
1012 1013
1047 1048
732 733
337 336
1034 1035
1 2
891 890
710 709
237 236
337 338
561 560
292 293
632 631
853 852
438 439
920 919
938 937
547 548
68 69
546 547
390 391
524 523
678 677
255 256
664 665
685 684
149 148
467 468
788 787
973 972
77 76
340 339
210 209
174 175
43 44
366 365
17 16
727 726
106 107
927 926
1036 1035
539 540
412 411
638 639
576 575
857 856
9 8
290 291
374 375
885 886
300 299
816 817
589 588
956 955
388 387
1060 1061
651 650
181 180
505 506
111 110
168 167
551 552
470 471
660 659
288 287
396 397
903 904
434 435
81 80
318 317
799 798
376 377
747 748
281 280
423 424
825 824
487 486
755 754
90 89
763 762
912 911
774 773
905 904
401 400
622 621
1009 1008
888 887
863 864
228 227
461 462
334 333
239 240
316 317
557 556
545 544
662 661
423 422
906 905
105 106
829 830
595 596
146 147
370 371
525 526
826 827
875 876
488 489
865 866
581 580
998 997
178 177
6 5
998 999
609 610
1061 1062
903 902
944 945
289 288
801 800
62 63
570 569
952 951
356 355
882 883
1063 1062
39 38
279 278
864 865
47 46
614 615
1022 1023
1048 1049
964 965
908 909
928 929
681 682
660 661
251 250
711 710
1056 1055
84 83
872 873
147 148
966 967
468 469
984 983
860 859
78 77
528 527
150 151
845 846
1042 1041
504 505
445 446
3 2
51 50
795 794
152 151
599 598
159 160
922 921
773 772
182 181
15 14
458 459
342 341
860 861
284 285
1033 1034
22 21
611 610
655 656
650 649
758 757
740 741
426 427
495 496
262 261
26 25
559 560
626 625
166 165
746 745
415 414
340 341
668 667
704 703
161 162
628 627
490 489
87 88
1032 1031
784 783
114 115
322 321
991 992
217 218
994 993
391 392
512 513
145 144
403 404
617 616
64 63
575 574
225 224
18 17
675 676
521 522
118 117
363 364
751 750
1067 1068
473 474
129 130
940 941
961 962
452 453
875 874
1010 1009
932 931
87 86
212 213
121 120
514 515
1011 1010
639 640
328 327
616 615
171 170
1041 1040
884 885
796 797
957 956
228 229
387 386
299 298
1016 1017
792 791
198 199
796 795
479 478
957 958
908 907
692 693
901 902
691 690
380 381
481 482
780 781
809 810
66 67
178 179
406 407
325 326
567 568
1000 999
196 195
314 315
700 701
437 436
810 811
1013 1014
656 657
617 618
211 212
79 78
168 169
508 509
195 194
35 34
1055 1054
302 301
855 854
668 669
762 761
189 190
448 449
29 28
1053 1052
1030 1029
20 19
100 99
952 953
519 518
914 913
802 803
363 362
756 755
306 305
480 479
367 366
558 557
393 392
739 740
12 13
348 349
158 159
917 918
160 161
535 534
901 900
836 837
693 694
111 112
1051 1050
369 368
832 831
672 673
406 405
878 877
734 735
199 200
611 612
987 986
319 320
410 409
954 955
980 981
736 737
761 760
777 778
1060 1059
912 913
698 699
1002 1003
54 55
470 469
1039 1038
226 227
492 493
351 350
41 40
535 536
1038 1037
30 29
441 440
260 261
876 877
61 60
214 213
271 272
318 319
1029 1028
767 768
643 642
385 384
975 976
255 254
541 542
273 274
71 70
605 604
68 67
372 371
787 786
114 113
5 715
835 834
1016 1015
379 378
636 637
184 185
1021 1020
1045 1046
211 210
53 52
887 886
295 294
137 138
268 267
785 786
950 949
158 157
825 826
296 297
510 511
835 836
331 332
187 188
81 82
219 220
484 483
969 968
653 654
316 315
464 463
884 883
333 332
162 163
554 553
771 770
206 205
216 215
413 414
818 817
776 775
116 117
807 806
85 86
25 24
320 321
1052 1051
562 561
377 378
813 812
465 466
518 517
455 454
176 177
426 425
603 602
456 455
23 22
6 1
367 368
619 620
131 132
888 889
197 196
977 978
207 208
812 811
614 613
57 58
536 537
301 300
1012 1011
442 443
331 330
132 133
605 606
43 42
490 491
375 376
221 220
12 11
984 985
550 551
582 581
916 917
935 936
940 939
606 607
437 438
709 708
143 144
677 676
385 386
700 699
686 685
674 673
930 931
171 172
874 873
675 674
517 516
304 303
238 237
130 131
96 97
28 27
570 571
418 417
979 978
486 485
1023 1024
971 970
779 780
444 445
425 424
506 507
343 344
666 665
471 472
339 338
527 526
487 488
530 531
465 464
311 312
816 815
1000 1001
260 259
179 180
186 185
122 121
619 618
19 18
7 1
590 591
818 819
543 542
1021 1022
670 671
184 2
657 658
154 153
345 344
1071 2 642
961 962
781 780
539 538
963 964
188 187
761 760
460 461
625 626
4 538
85 84
419 418
71 70
291 290
491 490
823 822
789 790
935 936
860 859
421 422
138 139
350 351
812 811
471 472
949 950
928 929
239 238
369 370
108 107
806 805
631 632
586 587
792 791
462 463
1045 1046
890 889
508 509
673 674
324 323
162 161
2 184
487 488
733 734
178 179
95 94
457 458
832 831
720 719
326 325
420 419
116 115
550 549
318 317
61 60
995 996
828 827
249 248
62 63
234 235
821 820
184 185
788 787
915 914
832 833
81 82
582 581
86 87
717 716
43 44
111 112
201 202
541 540
209 208
5 4
650 649
555 556
1029 1028
307 308
487 486
399 398
327 326
283 284
896 895
279 278
819 818
859 858
796 797
338 339
874 875
895 894
562 561
228 229
37 36
213 212
884 883
994 993
783 784
306 305
387 386
779 778
1040 1041
912 911
977 976
470 469
497 496
410 411
149 148
559 558
383 382
528 527
473 474
625 624
207 206
195 196
1034 1033
984 983
460 459
58 57
411 412
505 504
1061 1062
825 824
69 68
381 382
673 672
464 465
469 468
147 148
821 822
385 384
693 694
664 665
931 932
42 43
277 278
158 157
266 265
956 957
1042 1043
171 172
550 551
576 577
640 641
764 765
571 572
703 704
75 74
165 164
1024 1023
927 926
8 9
985 984
303 302
752 751
141 140
297 298
545 544
640 639
268 269
319 320
1018 1019
1021 1020
806 807
838 839
529 530
1048 1047
1022 1021
258 259
980 979
428 429
1064 1063
864 865
332 331
56 57
930 929
701 700
904 905
723 724
1 2
1007 1008
248 247
86 85
1062 1063
261 262
662 661
980 981
796 795
768 769
430 431
567 566
781 782
691 692
513 512
876 875
322 321
28 29
5 6
179 180
1049 1050
1040 1039
102 103
423 424
160 159
328 327
196 197
568 569
611 610
208 207
551 552
804 805
200 201
633 632
1059 1058
128 129
84 83
974 975
415 416
829 830
373 374
21 22
612 613
912 913
935 934
863 864
1038 1039
738 737
502 501
431 432
879 880
803 802
966 965
740 739
113 112
816 817
192 193
218 219
398 397
530 531
288 287
727 728
320 321
916 917
919 920
301 300
236 235
518 519
481 480
92 93
746 747
1059 1060
73 74
517 516
377 376
652 651
175 174
219 220
375 374
20 19
332 333
803 804
100 101
296 295
993 992
163 162
829 828
741 742
671 670
966 967
100 99
426 425
573 572
815 814
205 206
14 15
395 394
193 194
573 574
26 27
275 276
110 109
999 998
536 535
395 396
679 678
684 683
92 91
967 968
654 653
1055 1054
362 363
688 687
1000 999
1020 1019
401 400
989 988
135 136
712 711
62 61
9 10
264 265
933 934
565 564
482 481
605 606
33 32
595 596
788 789
329 330
215 216
30 29
227 226
592 591
355 356
268 267
135 134
79 80
1004 1005
234 233
1070 1071
21 20
614 613
352 351
765 766
182 181
733 732
689 688
145 146
1010 1011
1070 1069
690 691
1008 1009
478 479
453 452
1024 1025
730 729
449 448
372 371
340 339
593 594
862 861
1043 1044
916 915
515 516
755 756
534 533
1068 1067
330 331
674 675
180 181
249 250
955 954
825 826
635 634
167 166
434 435
660 661
1035 1036
725 724
952 953
801 802
843 844
124 125
583 582
158 159
1051 1052
770 769
616 615
867 868
696 697
970 969
60 59
24 25
455 456
546 547
618 617
526 525
620 619
422 423
296 297
1044 1045
646 647
154 155
1066 1065
190 191
627 628
940 941
473 472
703 702
970 971
600 599
987 988
144 143
919 918
46 45
12 13
427 426
888 889
844 845
1003 1002
638 637
294 293
397 396
260 259
1022 1023
44 45
553 552
1033 1032
489 490
1051 1050
989 990
580 581
888 887
35 34
213 214
540 539
244 245
194 195
843 842
865 866
763 764
942 943
436 435
211 212
897 898
255 254
682 683
726 727
928 927
500 499
49 50
872 873
948 947
440 439
891 892
168 167
854 855
882 883
675 676
570 571
1064 1065
121 122
372 373
285 286
641 642
851 852
416 417
515 514
644 645
749 750
231 230
434 433
886 885
972 973
315 316
240 241
380 381
258 257
559 560
643 644
371 370
850 851
10 11
958 959
737 736
454 455
480 479
563 564
681 680
356 357
672 671
347 348
400 399
563 562
922 923
172 173
830 831
263 262
643 642
735 734
798 799
316 317
104 105
495 494
1053 1054
310 311
367 368
850 849
492 491
595 594
962 963
529 528
598 599
514 513
799 800
603 602
740 741
78 79
99 98
463 464
103 104
108 109
126 125
16 15
333 334
849 848
868 869
124 123
554 555
1061 1060
81 80
183 182
190 189
616 617
215 214
38 37
752 753
359 358
754 755
857 858
117 116
298 299
884 885
981 982
441 440
315 314
461 462
346 347
139 140
945 944
877 876
585 584
606 607
532 533
732 731
893 892
123 122
96 95
710 709
856 857
498 497
1017 1018
1007 1006
511 510
368 369
931 930
776 777
543 542
475 476
995 994
840 839
894 6
250 251
660 659
596 597
662 663
405 404
3 2
130 131
145 144
343 342
266 267
314 313
522 521
349 348
602 601
363 364
312 313
1017 1016
690 689
707 708
295 294
393 392
403 402
498 499
147 146
854 853
106 107
590 589
83 82
483 484
668 669
187 186
72 73
619 618
743 744
767 768
570 569
835 836
1034 1035
880 881
177 178
1038 1037
950 951
507 506
408 407
786 787
310 309
205 204
503 502
909 910
1015 1014
349 350
547 548
25 26
19 18
620 621
150 151
22 23
705 706
759 760
450 451
36 35
115 114
589 588
650 651
281 282
445 446
231 232
941 942
106 105
979 978
477 476
507 508
541 542
583 584
990 991
198 197
714 713
855 856
698 699
705 704
436 437
54 53
118 119
448 447
458 459
578 579
483 482
824 823
626 627
30 31
738 739
696 695
937 938
345 344
242 243
54 55
987 986
577 578
325 324
441 442
955 956
5 716
946 945
774 775
209 210
443 444
593 592
780 779
338 337
807 808
608 609
636 635
766 767
629 628
736 735
611 612
318 319
272 273
655 654
152 151
271 272
783 782
166 165
1027 1028
614 615
410 409
222 221
51 50
385 386
730 731
401 402
39 38
695 694
114 113
59 58
718 719
960 959
757 756
834 833
601 600
846 847
667 668
666 665
813 812
117 118
998 997
17 16
522 523
131 132
845 846
863 862
658 659
1006 1005
439 438
6 1
753 754
853 852
774 773
630 631
826 827
757 758
358 357
532 531
3 361
137 136
152 153
972 971
553 554
224 225
997 996
1003 1004
936 937
725 726
917 918
365 364
418 417
34 33
648 647
236 237
384 383
908 909
199 200
638 639
171 170
361 362
69 70
958 957
926 925
953 954
202 203
389 390
750 751
64 65
390 391
424 425
47 46
101 102
467 468
198 199
574 575
175 176
591 590
306 307
649 648
670 669
223 224
545 546
192 191
52 53
67 66
340 341
345 346
720 721
164 163
97 96
280 279
155 156
49 48
772 773
520 521
706 707
728 729
4 3
1042 1041
429 430
680 679
283 282
168 169
241 242
63 64
65 66
375 376
68 67
810 811
1 7
524 525
232 233
403 404
686 685
437 438
270 271
1057 1058
91 90
389 388
13 14
94 93
1048 1049
12 11
624 623
608 607
899 898
815 816
1011 1012
630 629
367 366
896 897
842 841
838 837
290 289
597 598
1026 1025
519 520
414 413
300 299
408 409
747 748
245 246
495 496
907 906
223 222
585 586
899 900
40 41
580 579
452 451
457 456
188 189
1046 1047
887 886
877 878
722 723
353 354
143 142
492 493
40 39
901 902
292 291
510 509
548 549
939 940
489 488
220 221
359 360
311 312
27 28
908 907
743 742
287 286
18 17
666 667
951 952
500 501
900 901
342 341
450 449
505 506
229 230
762 761
511 512
98 97
211 210
303 304
156 157
336 337
465 466
653 652
657 656
31 32
697 698
246 247
120 119
749 748
1009 1010
636 637
485 486
560 561
89 90
1014 1013
702 701
52 51
992 991
921 922
902 903
7 8
777 778
758 759
924 923
255 256
867 866
335 334
771 770
1031 1032
378 377
304 305
874 873
42 41
365 366
1056 1055
344 343
913 914
391 392
785 784
1000 1001
813 814
88 87
544 543
938 939
836 837
309 308
261 260
477 478
406 407
494 493
762 763
557 556
860 861
273 274
536 537
699 700
257 256
421 420
110 111
968 969
810 809
154 153
1068 1069
656 655
588 587
848 847
575 576
174 173
251 252
253 252
964 965
986 985
835 834
634 633
89 88
1030 1029
203 204
881 882
414 415
517 518
150 149
904 903
891 890
1066 1067
474 475
808 809
254 253
471 470
185 186
130 129
911 910
1057 1056
277 276
658 657
710 711
127 128
412 413
170 169
523 524
798 797
379 378
71 72
685 684
56 55
227 228
712 713
218 217
444 445
944 943
604 603
329 328
264 263
793 794
568 567
284 285
1013 1012
427 428
924 925
446 447
534 535
870 871
394 393
24 23
565 566
960 961
244 243
387 388
293 292
75 76
801 800
1001 1002
138 137
820 819
947 946
708 709
322 323
527 526
872 871
905 906
335 336
270 269
280 281
132 133
714 715
792 793
869 870
1053 1052
504 503
238 237
1027 1026
677 678
786 785
1016 1015
718 717
1036 1037
78 77
466 467
177 176
605 604
622 621
664 663
610 609
771 772
879 878
687 686
682 681
841 840
433 432
818 817
77 76
134 133
379 380
355 354
982 983
302 301
405 406
745 744
932 933
722 721
1030 1031
217 216
557 558
775 776
48 47
226 225
693 692
975 976
974 973
794 795
289 288
790 791
622 623
746 745
443 442
353 352
646 645
161 160
274 275
677 676
484 485
454 453
126 127
978 977
141 142
239 240
120 121
921 920
949 948
944 4 309
294 295
26 25
627 628
413 412
592 593
905 904
863 864
546 545
528 529
396 397
242 243
675 674
383 382
600 599
228 227
216 215
373 374
559 558
549 548
419 420
816 815
287 288
854 853
63 62
768 769
354 353
754 755
825 826
490 489
661 660
611 612
619 620
329 328
262 261
96 97
470 469
364 363
434 435
59 60
536 537
494 495
34 33
85 84
783 784
629 630
91 92
432 431
541 540
427 426
831 830
608 609
745 746
509 510
303 304
553 552
644 645
841 842
278 277
363 362
887 886
933 934
323 324
758 759
18 19
503 502
198 197
6 5
343 342
16 15
274 273
705 706
805 804
351 350
233 234
849 848
685 684
554 555
456 457
23 24
21 22
634 635
532 531
566 565
533 534
265 266
181 180
207 208
268 267
926 925
822 823
615 614
681 682
731 730
493 494
759 760
815 814
498 497
133 134
472 473
888 887
828 827
113 112
450 449
26 27
529 530
437 436
680 679
357 356
177 178
500 499
621 622
781 782
581 582
433 434
719 720
940 939
538 539
595 596
430 429
195 194
600 601
636 637
133 132
117 116
426 425
308 309
883 884
438 437
871 870
385 384
778 777
433 432
316 317
17 16
114 113
10 9
505 506
770 771
544 545
264 265
160 159
650 649
839 840
646 647
263 264
222 221
93 92
920 921
526 527
812 813
833 834
203 202
476 475
625 626
66 67
557 556
638 637
132 131
906 905
745 744
442 441
189 188
855 856
907 908
358 359
119 120
707 708
278 279
703 702
384 383
40 39
185 186
502 501
500 501
398 399
377 378
894 893
103 102
896 895
14 15
775 774
588 587
405 406
9 8
522 523
206 207
390 389
737 736
871 872
223 224
214 215
729 728
578 577
753 752
42 41
51 52
216 217
495 496
204 205
266 267
865 866
381 382
422 421
6 1
555 556
317 318
131 130
414 413
710 709
122 121
855 854
656 657
567 566
192 191
172 173
944 943
57 58
547 546
872 873
136 135
526 525
452 451
462 461
449 448
829 828
37 38
491 490
722 723
279 280
575 574
196 197
776 777
931 932
915 916
119 118
110 109
72 71
572 573
568 567
275 276
560 561
649 648
410 411
351 352
551 552
810 811
183 182
154 155
345 344
553 554
403 404
181 182
126 127
655 654
633 634
931 930
693 692
910 909
809 810
139 140
209 210
738 737
81 80
535 536
301 300
401 402
312 313
343 344
898 897
803 804
873 874
700 701
606 605
859 860
316 315
270 271
168 167
310 309
539 540
261 260
297 296
129 130
941 942
308 307
626 627
896 897
695 696
735 734
453 454
569 568
462 463
169 170
69 70
81 82
334 335
116 115
314 315
140 141
142 141
821 822
304 305
106 107
818 819
367 368
46 45
942 943
686 687
918 917
732 731
814 813
370 371
728 727
631 632
184 185
784 785
237 238
392 393
673 672
310 311
878 877
617 616
347 348
51 50
616 615
245 244
933 932
153 152
74 75
676 677
547 548
688 689
224 225
648 647
457 458
586 587
505 504
623 622
764 765
533 532
110 111
571 572
364 365
337 338
868 867
674 673
289 290
331 330
752 751
408 407
72 73
707 706
142 143
511 512
61 60
917 916
736 735
485 484
835 834
145 146
537 538
721 722
64 65
286 285
453 452
365 366
889 890
521 522
643 642
164 163
295 296
152 151
817 818
90 89
324 325
488 489
716 717
2 1
476 477
297 298
789 788
766 765
840 841
875 874
275 274
697 696
839 838
43 42
459 460
739 740
2 163
713 712
70 71
186 187
844 843
795 796
381 380
511 510
62 61
435 436
711 712
77 76
645 646
517 518
331 332
55 56
386 387
402 403
144 143
298 299
882 881
740 741
543 544
478 479
903 904
187 188
787 786
172 171
135 134
892 893
692 691
148 147
891 890
785 786
744 743
658 657
900 899
231 232
336 335
560 559
742 741
799 800
636 635
780 781
666 665
471 472
227 226
41 40
755 756
783 782
103 104
669 670
287 286
101 100
177 176
660 659
33 32
746 747
894 895
879 878
25 24
486 485
180 179
913 912
601 602
565 564
492 491
372 373
718 717
394 395
576 577
290 291
157 158
414 415
459 458
882 883
802 803
193 194
200 199
68 69
58 59
602 603
376 377
30 31
107 108
903 902
901 900
86 87
88 89
757 756
306 307
651 652
442 443
837 838
125 126
229 228
920 919
354 355
770 769
715 714
471 470
170 171
168 169
790 789
578 579
184 183
314 313
111 112
579 580
321 322
481 480
613 612
213 212
444 445
380 379
242 241
483 484
120 121
211 210
937 938
725 724
1 7
416 417
251 252
675 676
603 604
234 235
247 246
799 798
880 881
95 94
362 361
826 827
729 730
352 353
256 255
864 865
902 901
482 481
876 875
796 797
516 515
272 273
249 250
666 667
153 154
508 507
430 431
665 664
80 79
487 486
358 357
160 161
662 663
774 773
219 220
697 698
767 768
585 586
438 439
594 593
86 85
243 244
592 591
669 668
17 18
428 429
399 400
192 193
623 624
506 507
915 914
302 303
779 780
388 389
935 936
105 106
233 232
562 563
128 127
714 713
573 574
831 832
398 397
84 83
174 173
22 23
820 821
428 427
788 6
165 164
801 800
773 772
857 856
441 440
542 543
99 98
677 678
652 653
320 321
326 325
124 123
53 52
138 139
292 291
473 474
204 203
641 640
43 44
761 760
597 596
680 681
466 465
56 57
496 497
281 282
4 3
285 284
926 927
751 750
845 846
862 863
633 632
439 440
672 671
694 693
923 924
205 206
850 851
528 527
276 277
28 27
424 425
562 561
609 610
790 791
493 492
460 461
288 289
908 909
165 166
718 719
166 167
817 816
446 447
910 911
211 212
517 516
424 423
702 701
772 771
846 847
891 892
477 478
664 663
419 418
515 514
467 468
748 747
541 542
366 367
374 375
638 639
327 326
91 90
832 833
699 698
416 415
36 37
880 879
454 455
341 342
508 509
670 671
776 775
258 257
928 927
149 150
899 898
136 137
557 558
694 695
360 359
885 886
763 762
869 870
742 743
867 866
330 329
347 346
348 349
319 3
29 30
654 653
606 607
733 734
76 75
247 248
178 179
248 249
196 195
74 73
801 802
78 79
190 189
620 621
590 591
368 369
46 47
861 862
340 341
409 410
299 300
191 190
198 199
327 328
349 350
8 7
262 263
939 938
595 594
749 748
391 392
306 305
779 778
754 753
836 835
708 709
65 66
370 369
820 819
94 93
836 837
239 238
149 148
937 936
584 585
806 807
580 581
284 283
928 929
643 644
251 250
294 293
5 631
715 716
792 793
691 690
406 407
597 598
97 98
589 588
236 237
240 239
229 230
175 176
451 450
685 686
808 807
345 346
749 750
583 584
96 95
35 36
924 925
68 67
395 396
661 662
571 570
20 19
213 214
922 923
797 798
732 733
857 858
809 808
464 465
583 582
668 667
520 519
340 339
682 683
724 723
850 849
281 280
122 123
446 445
236 235
334 333
87 88
468 469
225 226
292 293
930 929
479 480
124 125
201 202
845 844
128 129
860 861
268 269
658 659
483 482
375 376
762 761
811 812
417 418
231 230
54 53
361 360
28 29
642 641
394 393
11 12
385 386
806 805
524 523
200 201
518 519
157 156
853 852
859 858
404 405
824 823
611 610
252 253
704 705
513 514
447 448
848 847
549 550
629 628
934 935
390 391
919 918
563 564
48 47
423 422
876 877
852 851
158 159
764 763
282 283
699 700
104 105
725 726
475 4
498 499
115 114
401 400
311 312
618 619
147 146
791 792
710 711
421 420
721 720
613 614
794 793
757 758
35 34
467 466
48 49
605 604
464 463
208 209
323 322
512 513
150 151
683 684
409 408
256 257
885 884
117 118
690 689
906 907
271 272
109 108
83 82
921 922
319 320
240 241
255 254
598 599
138 137
5 4
161 162
624 625
3 2
50 49
795 794
44 45
356 355
639 640
11 10
78 77
914 913
14 13
842 843
64 63
21 20
940 941
155 156
218 219
301 302
889 888
767 766
217 218
551 550
378 379
443 444
411 412
504 503
825 824
651 650
575 576
456 455
337 336
246 245
488 487
31 32
269 270
259 260
387 388
607 608
338 339
829 830
101 102
144 145
726 727
570 569
13 12
222 223
258 259
221 220
911 912
520 521
372 371
530 531
524 525
332 333
535 534
868 869
739 738
704 703
688 687
174 175
617 618
100 99
254 253
590 589
679 678
54 55
656 655
39 38
783 1 290
342 343
463 462
583 584
495 496
97 96
238 239
737 736
219 220
76 77
555 554
701 702
511 512
226 227
204 205
26 27
664 663
491 492
602 603
428 429
360 361
89 88
343 344
564 565
718 719
414 415
770 769
691 690
357 356
535 536
708 707
576 575
424 423
760 759
131 132
783 782
753 752
522 521
166 167
453 454
538 539
159 160
591 592
62 63
181 182
634 635
543 544
336 335
387 388
666 667
262 261
683 684
584 585
443 442
338 337
354 353
407 406
688 687
591 590
507 506
568 567
647 648
176 175
90 89
360 359
184 183
216 215
640 641
47 48
5 6
63 64
160 161
308 309
628 627
471 470
404 405
633 632
173 172
231 232
620 619
394 395
351 352
314 313
617 616
221 222
219 218
313 312
725 724
336 337
327 328
252 253
56 55
1 7
129 130
107 106
713 714
511 510
555 556
632 631
504 505
362 361
363 362
120 121
311 312
509 508
23 24
81 82
199 200
331 332
125 126
192 191
558 559
695 694
108 107
385 384
563 564
171 172
554 553
220 221
711 710
703 704
30 31
114 115
671 672
317 316
250 249
562 561
722 723
739 738
521 520
503 504
77 78
242 243
639 638
350 349
770 771
755 754
612 611
11 10
567 566
421 420
139 140
425 424
170 169
132 133
651 650
609 610
339 340
9 8
118 119
764 763
674 675
412 413
382 381
688 689
685 686
445 446
125 124
587 586
272 273
184 185
6 654
621 622
37 36
38 39
372 371
561 560
186 185
581 580
695 696
701 700
625 624
201 202
97 98
236 237
128 129
694 693
633 634
466 465
748 747
493 492
506 505
157 158
34 35
765 764
460 459
514 515
2 1
416 415
229 228
503 502
534 535
93 92
356 355
365 366
377 376
187 186
93 94
109 108
7 8
85 84
53 52
729 728
577 578
247 248
488 487
447 446
437 438
427 426
152 153
458 457
168 169
386 387
228 227
28 27
614 613
50 51
414 413
706 707
617 618
110 111
537 538
661 660
71 70
385 386
439 438
95 94
187 188
245 246
570 569
600 601
708 709
157 156
275 274
193 192
294 293
291 290
497 496
118 117
459 458
662 661
320 319
483 482
289 290
60 59
684 685
333 334
67 68
461 460
225 226
72 71
773 772
598 597
81 80
44 43
90 91
577 576
656 655
54 55
774 773
87 88
46 45
177 176
744 743
431 432
544 545
533 534
646 645
293 292
421 422
4 5
455 456
87 86
251 250
102 103
82 83
318 317
286 285
641 642
557 558
69 70
419 420
40 41
178 177
287 288
335 334
13 12
643 642
179 178
319 318
17 18
369 368
678 679
141 140
180 179
266 267
430 429
679 680
170 171
123 124
572 571
266 265
322 323
630 631
412 411
763 762
142 143
680 681
330 331
146 145
36 35
751 750
326 325
588 587
212 211
242 241
525 524
644 643
703 702
33 34
400 399
305 306
525 526
444 445
625 626
468 467
280 281
668 667
207 208
150 151
520 519
462 461
715 714
397 396
69 68
648 649
52 51
472 473
742 741
59 58
398 399
235 236
316 315
536 537
240 239
9 10
373 372
261 260
473 474
375 374
768 769
230 231
4 3
716 715
14 15
593 592
154 153
541 540
530 531
388 389
364 365
548 547
710 709
478 479
605 604
464 465
327 326
613 612
120 119
122 121
743 742
572 573
278 279
346 347
615 616
357 358
15 16
406 405
477 478
113 112
712 713
593 594
48 49
259 260
29 28
646 647
448 449
596 597
472 471
390 391
721 720
205 206
332 333
682 681
454 455
136 2
731 732
137 138
95 96
601 602
342 341
542 543
619 618
65 66
101 100
2 3
749 750
33 32
285 284
629 630
20 19
296 297
222 223
488 489
443 444
469 468
100 99
539 540
498 499
252 251
585 586
370 369
480 481
328 329
23 22
300 299
123 122
568 569
16 17
234 233
741 740
368 367
436 435
700 699
148 149
383 382
417 418
46 47
442 441
652 653
18 19
91 92
321 322
699 698
65 64
623 624
128 127
375 376
652 651
596 595
262 263
303 302
341 340
245 244
450 449
345 344
136 137
649 650
489 490
508 507
288 289
366 367
532 531
73 74
383 384
740 739
622 623
782 781
402 403
295 296
484 483
477 476
475 476
165 166
491 490
229 230
79 78
141 142
145 144
419 418
529 528
373 374
294 295
181 180
310 311
636 637
775 774
451 452
637 638
515 516
49 50
665 664
777 776
475 474
305 304
765 766
628 629
83 84
265 3
254 255
345 346
757 758
391 392
256 255
746 747
75 76
550 549
162 161
627 626
726 725
527 528
608 607
589 590
21 20
207 206
195 194
138 139
762 761
211 210
72 73
580 579
428 427
501 500
575 574
201 200
215 214
112 111
14 13
527 526
241 240
734 735
407 408
380 379
692 691
41 42
263 264
195 196
730 729
274 273
310 309
636 635
594 595
439 440
529 530
257 256
485 484
656 657
324 325
546 547
286 287
6 1
517 518
768 767
270 271
174 175
500 499
411 410
276 275
352 353
758 759
502 501
4 394
670 669
225 224
148 147
733 734
109 110
549 548
744 745
724 723
393 392
188 189
378 377
658 659
599 600
116 117
425 426
566 565
37 38
283 282
519 518
190 189
98 99
164 165
727 728
662 663
705 706
698 697
269 268
673 672
194 193
440 441
104 103
198 197
284 283
452 453
553 552
401 402
469 470
551 550
183 182
711 712
693 692
645 644
42 43
772 771
321 320
704 705
726 727
21 22
448 447
190 191
25 24
524 5
208 209
497 498
542 541
151 152
304 303
146 147
682 683
381 380
218 217
67 66
298 297
127 126
431 430
433 434
197 196
308 307
559 560
781 780
686 687
272 271
779 780
348 349
436 437
467 466
674 673
640 639
482 481
350 351
371 370
718 717
253 254
279 280
291 292
329 330
669 668
659 660
75 74
432 433
510 509
401 400
777 778
404 403
61 62
40 39
58 57
198 199
134 135
378 379
581 582
79 80
258 257
243 244
658 657
766 767
417 416
130 131
573 574
359 358
677 678
354 355
159 158
167 168
746 745
281 282
238 237
778 779
676 675
451 450
719 720
398 397
209 210
85 86
162 163
26 25
752 751
154 155
268 267
571 570
733 732
232 233
249 248
563 562
671 670
11 12
216 217
620 621
246 247
307 306
104 105
717 716
259 258
589 588
269 270
514 513
654 655
689 690
552 551
721 722
583 582
614 615
761 760
749 748
513 512
677 676
60 61
213 212
487 486
105 106
203 202
756 757
607 606
697 696
389 390
133 134
54 53
435 434
214 213
315 314
756 755
156 155
578 579
174 173
102 101
234 235
494 493
223 224
278 277
299 298
495 494
516 517
149 150
276 277
775 776
463 464
557 556
604 603
609 608
409 408
143 144
486 485
532 533
30 29
396 395
45 44
665 666
753 754
363 364
115 116
610 611
599 598
731 730
545 546
422 423
114 113
164 163
736 735
409 410
301 302
57 56
324 323
301 300
737 738
32 31
204 203
523 522
339 338
348 347
606 605
456 457
479 480
1066 2 114
996 995
765 764
615 616
798 799
159 160
139 140
874 875
1 6
1041 1042
493 494
473 474
676 677
738 737
1047 1046
113 112
228 229
502 503
1033 1032
1007 1006
778 779
399 398
932 933
203 204
211 210
696 695
726 727
231 230
326 327
67 66
767 766
24 23
41 42
725 726
906 907
498 497
196 195
835 834
730 731
77 78
1035 1036
497 496
773 774
216 215
660 661
316 315
684 683
940 941
990 991
2 3
28 27
912 911
610 611
155 154
588 587
969 968
1048 1047
88 89
246 245
722 723
82 81
70 71
751 752
781 780
397 396
956 955
915 916
793 794
606 607
828 827
202 201
374 373
496 495
324 325
92 93
940 939
481 482
974 975
1004 1003
192 193
234 235
23 22
847 848
884 885
583 582
470 471
886 887
916 917
873 872
74 73
263 262
701 702
431 430
240 239
461 460
870 871
983 982
467 468
629 630
401 400
107 108
116 115
54 53
367 368
1045 1046
367 366
951 950
703 704
1012 1013
105 106
778 777
480 481
361 362
313 312
772 773
627 626
511 510
1031 1030
684 685
530 529
761 762
666 667
691 692
395 396
1019 1020
469 468
174 175
139 138
617 618
898 899
1037 1036
897 896
151 150
550 551
261 262
687 688
487 488
708 709
1054 1053
1016 1017
622 621
282 283
682 683
144 145
314 313
546 545
540 541
307 308
844 845
787 786
68 67
76 77
626 625
66 65
486 487
846 847
553 552
149 150
130 129
236 235
1050 1051
935 934
447 448
988 989
622 623
162 161
125 124
756 757
518 517
673 674
158 159
380 379
81 80
866 865
770 769
973 974
754 755
707 706
337 338
859 858
65 64
345 346
26 25
292 293
571 572
13 12
32 33
661 662
580 579
978 979
679 678
891 890
1064 1065
491 492
108 109
903 904
645 646
302 303
282 281
213 214
546 547
819 820
205 206
227 226
1015 1016
921 920
851 850
720 719
43 42
1000 1001
607 608
249 248
996 997
835 836
426 427
597 596
522 521
1054 1055
89 90
457 458
792 791
347 346
567 566
868 867
228 227
203 202
98 97
466 467
842 843
944 945
696 697
743 744
357 358
1014 1013
331 330
57 58
838 839
305 304
250 251
499 498
289 290
662 663
286 285
417 416
810 811
584 585
135 134
68 69
878 879
439 440
6 890
483 482
918 917
1000 999
94 93
665 666
234 233
33 34
451 452
116 117
223 222
703 702
756 755
808 807
9 10
13 14
211 212
503 504
895 894
732 733
85 84
1040 1039
855 854
311 310
354 353
372 373
390 391
245 244
291 292
628 629
1066 1065
944 943
1038 1037
1021 1022
191 192
970 969
398 397
881 880
577 576
746 745
669 670
797 796
283 284
716 715
177 176
103 102
876 877
501 500
285 284
478 477
456 457
495 494
675 674
137 138
852 853
976 977
166 167
615 614
171 172
579 578
100 101
742 743
590 589
953 954
382 383
315 314
954 955
987 988
5 6
120 121
713 5
631 632
763 762
693 692
544 543
438 437
484 483
43 44
934 933
50 49
366 365
323 324
814 813
136 135
849 848
86 85
39 40
72 71
420 421
460 459
611 612
47 48
413 412
923 924
433 434
999 998
458 459
182 181
328 329
432 431
428 429
308 309
981 980
113 114
381 382
816 817
820 821
317 316
560 559
844 843
793 792
294 293
876 875
199 198
706 705
593 592
31 30
369 370
1020 1021
209 210
553 554
646 647
534 533
800 801
840 841
411 412
753 752
965 966
861 860
967 968
903 902
805 806
1005 1004
445 444
672 671
526 527
164 165
70 69
995 994
256 255
350 349
659 660
306 307
101 102
127 128
710 711
265 266
971 970
221 222
985 984
422 421
663 664
124 123
923 922
132 131
633 632
272 271
654 655
15 14
96 97
695 694
556 557
606 605
388 389
204 205
34 35
560 561
591 590
637 636
889 888
718 717
287 288
259 260
377 378
297 298
167 168
225 226
739 740
1045 1044
829 830
766 765
371 370
252 251
133 134
983 984
786 785
158 157
729 728
693 694
549 550
1025 1026
197 196
328 327
406 405
466 465
896 895
787 788
900 901
822 821
892 891
62 61
255 254
659 658
816 815
418 417
557 558
1018 1017
580 581
387 388
277 276
635 636
278 279
732 731
678 677
151 152
857 858
782 781
523 522
455 456
37 38
376 377
442 443
361 360
628 627
904 905
477 476
952 953
598 599
601 602
41 40
142 141
174 173
578 577
873 874
36 35
462 461
897 898
812 813
376 375
976 975
711 712
681 682
415 416
926 925
949 950
644 643
789 788
281 280
537 536
913 914
597 598
175 176
964 965
749 750
855 856
233 232
333 332
355 356
623 624
690 689
959 958
825 824
928 929
269 270
264 263
556 555
993 992
633 634
46 47
88 87
144 143
642 641
321 320
218 217
208 207
886 885
237 238
990 989
209 208
443 444
463 462
335 334
630 631
121 122
454 455
207 206
52 53
18 19
541 542
110 109
650 649
91 90
180 179
383 384
620 619
1 7
57 56
96 95
1034 1035
769 768
348 349
148 149
410 409
464 463
492 493
321 322
445 446
796 795
435 436
214 215
805 804
83 84
679 680
1024 1025
450 451
448 449
914 915
60 59
790 791
754 753
75 74
992 991
986 985
980 979
92 91
173 172
757 758
419 418
220 219
183 184
507 506
700 699
137 136
369 368
1027 1028
854 853
638 639
776 777
824 823
99 100
716 717
803 804
963 962
653 652
845 846
527 528
938 939
868 869
1049 1048
403 404
27 26
104 103
866 867
156 157
842 841
809 808
258 259
575 576
479 480
294 295
735 736
943 942
894 893
573 574
910 911
393 394
128 129
600 601
613 614
689 688
725 724
1032 1031
515 514
775 774
344 345
409 408
909 910
927 926
715 714
589 588
246 247
276 275
217 216
656 655
609 610
506 505
563 562
812 811
641 640
148 147
475 474
1059 1058
25 24
306 305
941 942
649 648
814 815
920 919
48 49
569 568
1 2
4 5
127 126
242 243
317 318
1061 1060
620 621
63 64
60 61
705 704
1055 1056
341 342
818 817
300 301
82 83
575 574
924 925
250 249
141 140
375 374
105 104
1011 1012
256 257
420 419
408 407
603 602
72 73
667 668
8 9
258 257
169 168
201 200
532 531
832 831
881 882
722 721
52 51
1002 1001
763 764
432 433
441 440
870 869
900 899
570 569
299 300
190 191
826 825
713 714
336 337
822 823
698 697
142 143
415 414
189 190
685 686
273 272
243 244
723 724
966 967
131 130
247 248
125 126
86 87
959 960
686 687
1051 1052
540 539
1003 1002
353 352
179 178
181 180
184 185
507 508
237 236
650 651
402 401
185 186
1042 1043
670 671
230 229
794 795
491 490
594 595
653 654
224 225
423 422
513 512
359 360
219 218
163 164
789 790
1062 1061
379 378
1008 1007
155 156
565 564
1041 1040
12 11
334 333
341 340
837 838
971 972
931 930
573 572
736 737
470 469
221 220
118 117
819 818
452 453
748 747
7 8
51 50
547 548
240 241
55 56
524 525
520 521
543 542
530 531
570 571
39 38
566 565
586 585
323 322
908 909
951 952
864 863
471 472
1010 1009
224 223
839 840
362 363
640 639
775 776
581 582
78 79
948 949
652 651
718 719
529 528
1057 1058
326 325
357 356
937 936
1005 1006
612 613
342 343
1011 1010
253 254
749 748
400 399
338 339
58 59
730 729
834 833
768 767
3 4
551 552
908 907
734 733
617 616
945 946
439 438
862 863
1049 1050
537 538
591 592
739 738
751 750
393 392
761 760
675 676
564 563
17 18
335 336
1043 1044
798 797
721 720
402 403
1057 1056
826 827
371 372
1018 1019
424 423
36 37
425 424
111 110
199 200
1029 1028
608 609
261 260
269 268
957 956
394 395
436 437
332 331
957 958
595 596
177 178
160 161
548 549
902 901
852 851
948 947
742 741
740 741
837 836
364 365
489 488
354 355
760 759
296 295
856 857
3 359
883 882
802 803
707 708
544 545
648 647
1034 1033
922 921
728 727
744 745
887 888
554 555
330 329
734 735
45 46
30 29
389 390
504 505
513 514
1023 1022
232 231
516 515
1064 1063
534 535
381 380
118 119
510 509
301 302
978 977
593 594
519 520
973 972
153 154
115 114
625 624
642 643
4 536
645 644
508 509
447 446
637 638
799 800
425 426
274 273
414 413
111 112
673 672
485 486
442 441
883 884
567 568
930 929
213 212
170 169
810 809
288 289
2 183
1015 1014
831 830
119 120
264 265
319 320
299 298
807 806
1059 1060
931 932
526 525
79 80
310 309
197 198
194 193
435 434
54 55
783 784
476 475
429 430
387 386
153 152
1027 1026
163 162
1029 1030
296 297
291 290
779 780
188 189
935 936
453 454
253 252
1008 1009
634 635
993 994
919 918
771 772
533 532
266 267
665 664
280 279
22 21
385 384
352 351
987 986
391 392
286 287
165 166
63 62
906 905
912 913
782 783
277 278
319 318
518 519
98 99
146 147
19 20
600 599
95 94
44 45
997 998
523 524
411 410
489 490
700 701
937 938
106 107
479 478
759 758
690 691
698 699
657 656
850 849
145 146
311 312
268 267
982 981
274 275
450 449
681 680
1053 1052
562 561
619 618
829 828
123 122
385 386
746 747
538 539
364 363
350 351
771 770
784 785
516 517
11 10
583 584
32 31
947 946
865 864
586 587
893 892
880 879
871 872
15 16
1063 1062
428 427
472 473
964 963
347 348
271 270
303 304
20 21
340 339
1023 1024
171 170
241 242
194 195
657 658
802 801
501 502
961 962
604 603
1038 1039
75 76
859 860
710 709
878 877
187 188
28 29
861 862
604 605
668 669
344 343
187 186
832 833
484 485
961 960
927 928
17 16
133 132
406 407
499 500
558 559
238 239
404 405
464 465
511 512
1072 4 424
94 95
164 163
267 268
456 457
993 994
1039 1040
1008 1009
586 587
584 585
543 542
648 649
267 266
695 694
576 575
480 479
318 319
685 684
150 149
1043 1044
754 755
910 911
551 550
939 938
738 739
770 769
914 913
819 820
868 867
347 348
812 811
1016 1015
324 323
502 501
78 77
101 102
91 92
220 219
378 377
811 810
255 254
427 428
367 366
65 64
97 96
337 336
962 963
472 473
583 584
249 250
1062 1063
517 518
724 725
103 104
1009 1010
331 330
977 976
790 791
367 368
328 329
708 707
191 192
665 664
591 592
443 442
688 687
5 4
53 52
555 556
59 58
129 130
313 312
407 408
953 954
180 179
705 706
608 607
696 695
1053 1054
369 370
57 58
906 905
205 206
48 47
981 980
309 308
214 213
796 797
324 325
731 730
70 71
430 431
575 574
304 305
824 823
10 11
873 874
362 363
404 405
622 623
332 333
359 358
286 285
131 132
395 396
621 620
308 307
912 913
305 306
671 672
768 769
917 916
542 541
624 625
951 952
906 907
352 351
146 147
781 782
502 503
307 306
312 311
278 277
245 244
657 656
21 20
961 962
109 108
284 285
260 259
442 441
137 136
848 847
98 99
768 767
676 675
137 138
639 638
479 478
574 573
298 297
909 908
625 626
334 333
652 651
406 405
598 599
375 376
421 422
126 127
474 473
788 787
883 884
228 227
401 402
807 808
613 612
287 288
156 155
782 783
777 776
167 168
873 872
240 241
1058 1059
105 106
780 781
248 249
440 439
849 848
823 822
232 233
124 125
72 73
579 580
21 22
403 404
549 548
434 433
795 796
515 516
813 812
273 272
522 521
920 921
934 935
727 726
806 807
458 459
371 372
843 842
660 661
1064 1065
339 340
993 992
268 269
552 551
1052 1051
162 163
567 568
764 765
433 432
303 304
93 94
336 335
627 626
997 998
514 515
140 141
251 252
3 2
387 388
598 597
28 27
233 234
865 866
215 214
54 53
1030 1031
481 480
128 127
729 728
420 421
197 198
834 833
468 469
674 673
374 373
997 996
93 92
136 135
645 646
1067 1066
225 226
662 661
857 856
717 5
451 452
817 816
887 886
887 888
67 66
493 492
757 756
41 40
839 840
654 653
766 765
992 991
1068 1067
851 850
417 416
210 209
674 675
881 880
653 652
735 734
809 808
195 194
501 500
121 120
734 733
618 619
240 239
150 151
471 472
394 395
463 462
563 562
518 519
46 47
793 792
475 476
164 165
1026 1025
24 25
409 408
379 378
31 32
110 111
820 821
846 847
959 958
645 644
903 904
60 61
713 712
559 560
668 669
770 771
694 693
918 917
663 662
478 477
736 735
13 14
784 783
1041 1042
837 838
1 2
537 538
772 773
805 806
487 486
898 897
528 529
5 6
441 440
680 679
649 650
157 158
330 329
804 805
394 393
450 451
792 791
222 221
488 489
760 761
980 979
1052 1053
534 533
43 44
1048 1049
386 387
326 327
34 33
1069 1070
200 201
117 118
698 699
434 435
865 864
915 914
289 288
872 871
719 720
526 527
341 342
678 677
954 955
1037 1038
884 885
831 830
18 19
6 1
565 566
186 185
592 593
238 239
892 891
743 744
444 445
758 759
460 459
34 35
122 123
414 415
314 313
414 413
231 230
743 742
981 982
893 894
396 397
700 699
154 153
535 534
65 66
230 229
615 616
995 994
876 875
928 929
628 629
423 424
350 351
226 227
448 449
720 721
252 253
897 896
600 599
284 283
142 143
182 183
368 369
1032 1033
961 960
814 815
511 510
655 656
544 543
953 952
171 172
246 247
36 37
147 148
828 827
112 111
1006 1005
383 382
561 562
572 571
169 170
354 355
204 205
851 852
292 291
402 403
911 912
60 59
889 890
483 482
794 795
679 678
594 593
785 784
634 633
292 293
35 36
899 900
272 271
181 180
43 42
755 756
376 377
861 860
192 193
476 477
889 888
321 322
741 740
207 208
799 800
667 666
577 578
1050 1049
886 885
412 411
100 101
554 553
263 262
943 944
317 316
554 555
853 852
798 797
1028 1029
673 672
399 400
531 532
764 763
832 831
1028 1027
904 905
25 26
1033 1034
1056 1057
748 747
763 762
506 505
560 561
690 689
45 44
423 422
79 78
946 945
189 188
259 258
810 809
822 821
338 337
254 253
632 631
536 535
264 265
428 429
948 949
545 544
902 901
1008 1007
342 343
929 930
619 620
1002 1003
600 601
957 958
849 850
358 357
667 668
828 829
1039 1038
817 818
128 129
221 220
286 287
270 269
710 711
683 684
470 469
489 490
681 682
637 636
156 157
438 439
384 383
742 741
144 145
231 232
415 416
876 877
900 901
676 677
355 356
293 294
966 965
314 315
295 296
748 749
197 196
1035 1034
206 207
772 771
813 814
260 261
663 664
483 484
540 539
964 965
243 244
524 523
1001 1002
655 654
357 356
881 882
234 235
1032 1031
1071 1072
118 119
353 352
890 891
774 773
956 957
390 391
757 758
49 48
931 930
132 133
845 844
932 931
385 384
715 716
212 211
858 859
455 454
448 447
243 242
1 7
236 235
800 801
173 172
974 973
711 712
107 108
572 573
686 685
361 362
750 749
165 166
547 548
524 525
331 332
936 935
42 41
631 630
1011 1012
778 777
15 16
1058 1057
927 926
762 761
1024 1025
389 388
521 520
916 915
585 586
411 410
970 971
991 990
45 46
922 923
816 815
28 29
77 76
803 804
255 256
833 832
1013 1012
919 920
419 418
187 188
640 641
142 141
681 680
299 298
213 212
161 162
731 732
300 299
178 177
134 133
465 464
485 486
40 39
978 977
168 169
139 140
987 986
429 430
436 437
23 24
723 724
531 530
949 950
57 56
837 836
87 86
346 347
202 201
215 216
13 12
319 320
658 659
86 85
264 263
570 571
1014 1015
594 595
779 778
727 728
467 468
167 166
61 62
933 934
99 100
75 74
181 182
435 436
113 114
622 621
218 217
830 829
553 552
689 688
862 861
753 754
803 802
1010 1011
862 863
379 380
643 644
701 700
705 704
564 565
6 895
948 947
216 217
537 536
343 344
126 125
322 323
870 871
425 426
199 198
1065 1066
290 289
985 986
63 64
973 972
184 2
698 697
606 605
113 112
193 194
590 589
62 63
642 643
1071 1070
15 14
178 179
273 274
88 89
697 696
124 123
604 605
338 339
219 218
596 595
159 158
75 76
225 224
786 785
719 718
104 105
258 257
856 855
666 665
257 256
922 921
203 204
779 780
208 209
858 857
98 97
613 614
161 160
737 738
855 854
1035 1036
279 280
558 559
1006 1007
686 687
20 19
863 864
567 566
419 420
392 391
721 722
1000 999
316 315
335 334
568 569
588 587
400 401
29 30
296 297
869 868
174 173
611 610
1056 1055
1061 1062
903 902
490 491
883 882
512 511
365 366
3 4
835 836
301 300
390 389
374 375
151 152
90 91
103 102
55 56
715 714
635 636
802 801
1041 1040
845 846
452 453
867 866
1051 1050
641 642
1019 1018
740 739
659 660
363 364
640 639
946 947
1014 1013
729 730
1042 1043
190 189
579 578
690 691
528 527
8 9
445 446
496 497
617 618
177 176
1029 1030
251 250
907 908
494 493
966 967
940 939
23 22
942 941
462 461
10 9
550 549
978 979
120 119
26 27
121 122
607 606
69 70
525 526
175 176
648 647
145 146
223 224
410 409
925 926
437 438
1018 1017
941 940
838 839
637 638
346 345
381 382
975 974
417 418
510 509
407 406
707 706
152 153
835 834
392 393
990 989
923 924
523 522
909 910
116 115
51 50
874 875
242 241
976 975
703 704
580 581
630 629
988 989
1063 1064
1061 1060
955 956
236 237
670 671
160 159
443 444
461 460
507 508
184 185
398 397
38 37
774 775
602 603
1022 1021
899 898
271 270
4 539
617 616
853 854
985 984
968 967
959 960
211 210
723 722
202 203
265 266
692 691
349 350
7 8
171 170
229 228
349 348
237 238
950 951
328 327
683 682
651 650
282 283
187 186
1022 1023
301 302
826 827
67 68
996 995
1023 1024
385 386
614 615
1001 1000
612 611
788 789
751 752
512 513
149 148
793 794
582 581
759 760
1069 1068
345 344
879 880
455 456
984 983
31 30
646 647
776 775
50 49
509 508
18 17
81 80
529 530
819 818
52 51
1045 1046
504 505
360 359
933 932
825 826
353 354
558 557
115 114
842 841
798 799
588 589
496 495
610 609
83 82
432 431
628 627
918 919
16 17
447 446
294 295
879 878
290 291
139 138
859 860
495 494
500 499
11 12
79 80
533 532
398 399
426 427
457 458
1059 1060
767 766
195 196
591 590
261 262
134 135
1045 1044
471 470
877 878
717 718
927 928
657 658
463 464
750 751
275 276
361 3
1021 1020
519 520
970 969
326 325
752 753
245 246
1020 1019
372 373
633 632
497 498
68 69
85 84
341 340
701 702
1004 1003
247 248
371 370
274 275
635 634
745 746
964 963
893 892
597 596
317 318
745 744
841 840
737 736
281 280
487 488
570 569
55 54
95 96
714 713
987 988
602 601
895 896
39 38
498 499
84 83
732 733
1036 1037
465 466
412 413
223 222
131 130
1027 1026
450 449
583 582
1055 1054
726 725
787 786
943 942
710 709
870 869
143 144
540 541
381 380
425 424
938 937
191 190
924 925
310 309
175 174
1004 1005
516 517
670 669
277 276
485 484
155 154
545 546
33 32
983 982
200 199
320 321
513 514
110 109
968 969
117 116
563 564
453 454
1017 1016
282 281
90 89
466 467
302 303
547 546
844 843
1047 1046
944 945
107 106
576 577
609 608
999 998
790 789
279 278
937 936
709 708
746 747
692 693
972 971
1047 1048
475 474
507 506
365 364
481 482
557 556
71 72
603 604
310 311
492 491
824 825
623 624
503 504
73 74
87 88
703 702
81 82
798 3 512
325 324
276 275
369 368
38 37
362 363
23 24
152 151
302 301
728 727
575 574
422 421
67 68
80 81
517 518
172 171
766 767
698 699
116 115
464 463
370 369
644 643
194 193
427 428
503 502
508 507
760 761
180 179
696 697
281 280
723 724
665 664
5 6
662 661
496 495
450 449
691 690
514 513
580 581
11 12
424 425
782 783
204 205
350 351
477 478
780 779
406 407
247 248
372 371
549 548
169 168
146 147
404 405
247 246
31 30
556 555
396 397
409 410
572 573
211 210
79 80
296 295
443 444
361 360
388 389
557 558
565 564
139 140
242 243
442 441
59 60
15 14
354 353
625 626
49 48
490 491
783 784
262 261
484 485
673 674
185 184
530 531
294 293
11 10
764 765
335 336
715 716
716 717
157 156
165 166
430 429
394 393
611 610
352 351
206 205
524 523
626 627
639 640
202 203
384 383
344 343
278 279
382 381
18 19
3 271
773 772
623 624
406 405
649 648
72 71
264 263
179 178
155 154
176 177
41 40
255 254
366 365
773 774
570 569
277 278
18 17
715 714
34 33
330 331
609 610
774 775
527 528
516 517
730 731
530 529
182 181
766 765
290 291
104 105
256 257
684 683
528 529
208 209
3 2
239 238
153 154
563 564
336 337
311 312
54 55
186 185
552 553
259 258
355 356
200 199
337 338
286 285
84 83
133 132
713 714
681 680
307 306
535 5
12 13
537 538
781 782
664 663
487 488
159 158
265 264
252 253
768 769
473 474
454 455
647 646
364 365
622 621
86 87
646 645
304 305
81 82
324 323
551 552
448 447
197 196
340 339
686 687
496 497
455 456
145 146
794 795
182 183
103 102
399 398
4 3
320 319
69 68
220 221
249 250
578 579
250 251
403 404
445 444
410 411
110 109
491 492
57 58
161 162
274 275
386 387
92 93
94 95
54 53
408 407
34 35
94 93
679 680
223 222
711 712
92 91
598 599
741 742
743 742
74 75
472 473
305 306
659 660
539 540
287 286
758 759
413 412
333 334
603 602
557 556
354 355
541 540
587 588
230 229
498 497
408 409
527 526
192 191
609 608
415 414
249 248
415 416
213 212
87 88
241 242
108 107
289 290
511 512
439 438
570 571
363 364
258 257
586 585
678 679
78 77
313 312
171 170
16 15
287 288
237 236
116 117
790 789
492 493
227 228
216 215
220 219
619 620
201 202
246 245
458 457
357 358
484 483
468 469
65 66
755 756
614 615
138 137
471 472
478 479
666 665
587 586
452 451
235 236
218 219
673 672
707 708
735 734
542 541
656 657
65 64
486 485
128 127
433 432
479 480
642 641
661 660
704 703
120 119
348 349
737 738
368 367
318 319
567 568
501 502
198 199
280 279
105 106
43 42
76 75
46 45
340 341
775 776
507 506
510 511
386 385
272 273
515 514
158 157
204 203
767 768
652 653
763 764
322 321
31 32
62 63
546 545
19 20
292 291
228 229
335 334
41 42
707 706
509 510
423 422
50 51
494 493
786 787
518 519
50 49
645 644
129 130
662 663
531 532
476 475
332 333
668 669
676 677
796 795
580 579
693 692
763 762
498 499
489 488
721 720
788 789
342 343
576 577
206 207
546 547
398 397
111 112
207 208
240 239
624 625
97 96
329 330
300 301
188 187
284 283
28 29
739 740
310 311
103 104
759 760
620 621
703 702
561 560
63 64
726 725
659 658
212 211
616 617
390 391
89 88
435 434
682 681
747 748
156 155
581 582
58 59
736 737
785 786
62 61
14 13
723 722
614 613
128 129
234 235
740 741
143 144
462 463
200 201
543 544
90 91
459 460
525 524
592 593
9 10
643 642
735 736
144 145
718 719
321 320
198 197
376 377
194 195
83 82
635 636
769 770
21 20
162 163
231 232
45 44
453 452
79 78
726 727
70 69
421 420
590 589
594 595
694 693
130 131
100 99
687 688
634 633
124 123
696 695
671 670
224 225
345 344
509 508
379 378
214 213
762 761
616 615
582 583
584 585
533 534
126 127
352 353
519 520
791 790
792 791
153 152
396 395
345 346
435 436
416 417
395 394
375 374
109 108
747 746
734 733
307 308
777 776
632 631
271 272
605 606
295 294
160 161
299 300
458 459
796 797
750 751
627 628
647 648
525 526
419 418
89 90
426 427
637 636
467 468
785 784
705 706
293 292
426 425
66 67
613 612
402 401
612 611
451 450
113 112
141 142
6 667
632 633
788 787
192 193
32 33
269 268
125 126
649 650
650 651
36 35
99 98
164 165
303 302
76 77
599 600
671 672
342 341
781 780
7 8
445 446
506 505
698 697
251 252
654 655
373 372
227 226
745 744
523 522
521 520
96 95
794 793
771 772
461 460
593 594
261 260
318 317
750 749
332 331
210 209
462 461
317 316
711 710
140 141
120 121
554 553
700 701
798 797
48 47
177 178
281 282
325 326
370 371
304 303
174 173
270 269
456 457
694 695
56 55
755 754
186 187
739 738
181 180
361 362
133 134
542 543
433 434
308 309
589 588
115 114
188 189
745 746
172 173
668 667
223 224
46 47
601 600
704 705
399 400
360 359
470 471
72 73
449 448
27 28
722 721
756 757
657 658
413 414
314 313
501 500
700 699
743 744
752 753
417 418
677 678
607 606
289 288
630 629
567 566
262 263
503 504
380 379
383 382
159 160
685 684
37 36
56 57
515 516
454 453
282 283
424 423
122 121
547 548
481 482
373 374
470 469
467 466
148 147
513 512
733 732
226 225
428 429
7 1
125 124
84 85
702 701
430 431
375 376
1 2
191 190
183 184
117 118
73 74
384 385
729 728
315 314
536 537
550 549
730 729
440 441
135 134
175 176
440 439
327 328
240 241
656 655
504 505
438 437
2 139
778 777
691 692
419 420
53 52
151 150
391 392
555 554
710 709
149 148
573 574
39 38
132 131
568 569
713 712
243 244
44 43
113 114
676 675
725 724
563 562
793 792
276 277
731 732
436 437
16 17
619 618
709 708
163 164
244 245
532 533
339 338
539 538
70 71
256 255
604 603
233 232
495 494
500 499
195 196
640 641
411 412
688 689
299 298
654 653
771 770
670 669
446 447
482 483
486 487
110 111
23 22
40 39
623 622
590 591
571 572
544 545
217 216
267 268
347 346
350 349
296 297
21 22
536 535
166 167
238 237
170 169
356 357
285 284
259 260
719 720
98 97
254 253
401 400
522 521
604 605
637 638
8 9
475 474
231 230
60 61
389 390
190 189
348 347
359 358
751 752
367 366
718 717
591 592
322 323
143 142
118 119
631 630
1 6
265 266
690 689
565 566
779 778
392 393
753 754
686 685
25 24
628 629
329 328
136 135
651 652
377 378
443 442
273 274
598 597
100 101
298 297
480 481
559 558
675 674
432 431
25 26
635 634
576 575
749 748
577 578
309 310
489 490
617 618
214 215
267 266
559 560
596 595
150 149
682 683
550 551
86 85
757 758
51 52
175 174
583 584
107 106
466 465
403 4
218 217
234 233
638 639
607 608
123 122
561 562
601 602
29 30
387 388
101 102
315 316
464 465
477 476
136 137
168 167
380 381
27 26
327 326
4 5
221 222
596 597
842 6 729
56 55
700 701
767 766
247 248
176 177
60 61
824 825
223 222
366 365
671 670
36 35
267 266
272 271
328 327
176 175
790 791
665 664
627 626
413 412
53 54
148 149
729 730
482 483
827 826
499 500
786 785
257 258
417 416
109 110
39 38
199 200
63 64
178 179
594 593
838 837
141 142
11 10
312 311
604 603
140 139
566 565
549 550
403 402
307 306
526 525
242 243
418 419
329 328
382 383
663 662
524 523
239 240
710 711
29 28
746 747
590 591
123 124
725 726
175 174
164 163
752 751
250 249
304 303
621 620
435 436
452 451
660 661
781 780
634 633
617 616
52 53
90 91
41 40
719 720
651 652
155 156
470 469
530 529
805 806
183 184
375 376
377 376
560 559
637 638
201 200
425 424
2 3
98 97
172 173
188 189
809 810
601 602
555 554
32 33
832 831
583 582
450 451
531 530
212 211
475 474
71 70
49 48
58 59
131 132
452 453
146 147
195 194
554 553
165 164
548 549
740 741
15 14
425 426
253 252
500 501
42 41
272 273
819 818
694 695
75 76
352 353
112 113
2 146
745 746
610 611
615 614
125 126
632 633
254 253
5 6
136 135
317 316
163 162
473 474
768 769
280 279
332 333
355 356
113 114
63 62
603 602
659 658
788 789
401 402
40 39
401 400
455 456
298 299
282 283
378 377
198 197
736 735
208 209
504 503
669 670
347 348
475 476
727 728
800 799
612 611
789 790
707 708
582 581
639 640
221 222
336 337
212 213
324 323
712 713
783 782
386 385
101 100
503 502
528 529
527 526
508 509
154 153
159 158
231 230
174 173
389 390
365 364
220 219
397 398
17 18
271 270
74 75
542 541
653 654
704 703
30 29
597 596
698 699
326 327
311 310
337 338
499 498
7 8
579 578
237 236
92 91
448 447
17 16
132 133
679 680
433 434
153 152
770 771
381 382
397 396
292 293
568 569
204 205
263 262
166 167
622 621
676 677
286 285
391 390
600 601
349 348
84 83
613 614
385 384
34 33
297 296
127 128
125 124
99 98
122 121
644 645
27 28
576 577
505 504
459 460
832 833
296 295
821 820
792 793
609 610
802 803
206 205
674 673
458 459
223 224
362 361
260 261
760 759
287 288
360 359
372 371
494 495
192 191
207 208
560 561
289 290
404 403
45 44
326 325
781 782
488 489
246 247
108 107
733 734
721 722
672 673
282 281
828 827
431 430
316 315
51 50
548 547
31 30
399 400
652 653
631 632
221 220
322 323
295 294
171 170
169 168
394 395
278 277
493 492
669 668
450 449
705 704
304 305
806 807
728 729
276 277
829 828
739 740
598 597
722 723
742 743
807 808
519 520
606 605
748 747
372 373
79 78
35 34
759 758
215 216
318 319
241 242
813 814
24 23
293 294
686 687
618 617
691 692
59 60
473 472
254 255
625 626
358 357
588 587
511 510
367 368
681 682
363 362
270 269
783 784
631 630
821 822
309 310
262 261
773 772
181 180
68 69
47 46
321 320
148 147
596 595
238 237
182 181
135 134
635 636
587 586
51 52
370 369
516 517
535 536
157 158
421 422
70 69
505 506
811 812
96 95
710 709
816 815
117 118
787 788
76 77
655 654
765 764
536 537
492 491
65 64
315 314
199 198
741 742
745 744
111 112
802 801
411 410
573 572
804 803
764 763
396 395
130 129
50 49
265 266
833 834
455 454
251 252
651 650
532 531
462 461
618 619
235 234
172 171
298 297
438 437
324 325
439 438
22 23
693 694
465 464
706 705
339 338
646 647
732 733
489 490
660 659
678 677
757 756
20 21
111 110
558 559
599 598
479 478
539 540
840 841
227 228
238 239
590 589
330 329
194 193
765 766
103 102
374 373
77 78
726 727
187 186
355 354
335 334
206 207
769 770
115 116
461 460
687 688
736 737
584 585
101 102
775 776
515 516
248 249
14 13
37 38
391 392
607 608
542 543
302 303
83 82
477 478
369 368
613 612
201 202
61 62
761 762
449 448
225 224
131 130
187 188
300 301
760 761
794 793
609 608
350 349
522 523
344 343
481 480
487 488
521 522
615 616
586 585
407 408
688 689
339 340
487 486
139 138
428 429
444 445
286 287
407 406
128 129
446 447
643 644
7 1
100 99
196 195
1 6
308 309
773 774
830 831
25 24
204 203
498 497
437 436
84 85
538 539
89 88
431 432
161 162
718 719
817 816
571 572
157 156
322 321
73 74
555 556
360 361
43 44
192 193
336 335
283 284
4 3
352 351
779 780
341 340
696 695
750 749
250 251
421 420
423 422
696 697
183 182
627 628
114 115
798 799
724 725
518 517
230 229
226 227
144 145
622 623
836 837
578 577
656 655
486 485
817 818
667 668
387 388
215 214
179 180
301 302
217 216
646 645
73 72
255 256
268 267
528 527
791 792
830 829
509 510
184 185
641 640
657 656
484 483
753 752
834 835
772 771
167 168
754 755
723 724
805 804
48 47
54 55
409 408
605 604
275 274
203 202
26 25
506 507
465 466
532 533
826 825
235 236
544 545
123 122
641 642
318 317
630 629
3 285
699 700
384 383
521 520
798 797
715 716
197 196
551 552
150 149
442 443
552 553
453 454
415 414
672 671
432 433
333 334
31 32
357 356
213 214
666 667
12 11
257 256
82 81
6 703
547 546
89 90
819 820
94 93
841 842
45 46
259 260
534 533
152 151
558 557
692 693
814 815
567 568
637 636
86 85
5 563
576 575
681 680
638 639
306 305
259 258
468 469
21 22
571 570
178 177
714 715
228 229
836 835
417 418
813 812
808 809
394 393
513 514
154 155
43 42
280 281
546 545
243 244
755 756
758 757
839 840
593 592
217 218
375 374
665 666
392 393
142 143
276 275
541 540
738 739
120 119
320 319
472 471
467 468
269 268
732 731
313 314
117 116
574 575
104 105
557 556
404 405
574 573
564 565
444 443
140 141
624 625
445 446
707 706
685 684
291 292
15 16
811 810
795 794
346 345
366 367
787 786
649 650
80 81
103 104
628 629
120 121
427 426
134 133
264 265
66 65
690 689
544 543
58 57
107 106
234 233
753 754
777 776
231 232
838 839
9 10
127 126
161 160
211 210
413 414
515 514
566 567
419 420
169 170
619 620
56 57
274 273
663 664
702 701
551 550
823 824
5 4
290 291
19 18
749 748
512 511
456 457
457 458
405 406
711 712
143 144
777 778
462 463
698 697
471 470
589 588
412 411
415 416
79 80
86 87
584 583
643 642
592 591
485 484
624 623
118 119
9 8
330 331
658 657
716 717
370 371
264 263
191 190
476 477
512 513
12 13
66 67
797 796
579 580
661 662
424 4
823 822
381 380
635 634
595 594
218 219
342 341
410 409
387 386
785 784
299 300
67 68
464 463
313 312
244 245
683 682
440 439
767 768
137 136
731 730
501 502
685 686
20 19
466 467
649 648
137 138
735 734
507 508
714 713
482 481
600 599
97 96
561 562
233 232
389 388
427 428
430 429
778 779
674 675
535 534
691 690
737 738
185 186
347 346
342 343
750 751
36 37
518 519
564 563
490 491
278 279
399 398
226 225
495 496
331 332
647 648
718 717
345 344
525 524
105 106
607 606
581 580
308 307
246 245
774 775
150 151
379 380
95 94
570 569
72 71
359 358
209 210
2 1
26 27
743 744
108 109
721 720
801 800
289 288
441 442
434 435
240 241
165 166
87 88
679 678
480 479
189 190
159 160
379 378
683 684
353 354
440 441
93 92
537 538
350 351
676 675
796 795
497 496
364 363
493 494
708 709
763 762
845 4 295
605 606
347 348
697 696
370 371
306 305
290 289
615 616
749 750
766 767
507 508
836 835
541 542
464 463
419 418
730 731
676 677
776 777
103 104
80 79
545 544
666 665
266 265
543 542
729 730
198 199
461 462
666 667
681 680
638 639
643 642
523 522
585 586
616 617
707 708
329 330
781 782
539 540
435 434
564 563
686 687
121 120
340 339
684 683
485 486
436 435
221 220
359 360
621 622
241 240
433 434
179 180
821 822
623 624
375 374
809 810
693 692
308 307
36 37
636 635
628 629
510 509
130 129
503 504
54 53
44 45
109 110
335 336
46 45
731 732
674 675
218 217
467 468
625 624
650 651
163 162
279 280
244 243
553 552
723 722
432 433
797 798
613 612
671 672
515 516
261 260
88 89
138 137
209 210
51 52
751 750
155 154
487 486
644 643
67 68
382 383
505 506
469 470
359 358
732 733
472 473
249 248
209 208
756 755
326 325
244 245
720 719
829 830
105 104
630 629
283 284
110 111
716 717
156 155
133 132
662 663
423 424
388 387
354 353
246 245
628 627
714 713
494 493
33 32
362 363
739 738
830 831
837 838
28 29
297 296
423 422
511 512
597 598
637 636
369 370
833 834
653 652
762 763
268 269
764 763
395 396
626 625
822 823
580 579
706 6
577 578
454 453
599 600
547 548
310 311
477 478
714 715
350 349
561 560
74 73
412 413
687 688
123 122
35 36
536 535
213 212
482 481
524 525
743 744
325 324
31 30
558 559
241 242
355 354
476 477
102 101
369 368
86 85
366 365
66 65
389 388
147 146
239 240
701 702
189 188
382 381
140 141
579 578
446 447
13 14
789 790
779 778
491 490
4 426
494 495
53 52
452 451
62 63
521 522
842 841
820 821
227 226
30 29
352 351
158 157
544 543
775 774
172 171
772 773
519 520
770 771
678 679
22 23
480 479
568 567
424 425
124 125
694 695
230 231
607 608
200 201
254 255
69 68
57 56
182 183
3 4
154 153
586 587
719 718
441 442
372 371
115 114
741 740
726 725
216 217
817 816
168 167
562 563
602 603
296 295
339 338
773 774
575 576
409 410
380 379
467 466
713 712
608 609
273 274
812 813
844 843
641 640
106 107
668 667
642 641
125 126
26 27
664 665
654 653
428 429
582 583
97 98
319 318
604 605
233 232
297 298
760 761
707 706
376 377
841 840
87 86
195 194
183 184
146 2
819 820
663 664
238 239
836 837
310 309
292 291
249 250
141 142
264 265
7 1
646 645
534 535
782 783
81 80
82 81
826 825
814 815
795 794
278 279
407 408
614 615
256 257
342 341
689 690
340 341
378 377
331 330
387 386
768 769
784 783
565 564
460 459
585 584
324 323
448 447
198 197
162 161
11 10
229 230
492 493
450 451
728 727
75 74
88 87
25 24
780 781
492 491
498 497
287 288
648 649
136 135
356 355
601 602
298 299
689 688
683 682
336 337
171 170
322 321
263 264
501 502
342 343
313 312
594 593
406 405
745 746
538 537
160 159
533 534
747 746
676 675
320 319
473 474
101 100
143 144
82 83
192 191
503 502
411 410
212 211
252 251
839 840
655 656
514 515
92 93
70 69
11 12
295 294
169 170
757 756
373 372
537 536
190 191
708 709
457 456
130 131
39 40
177 178
401 400
284 285
792 793
446 445
344 345
454 455
597 596
699 700
725 724
601 600
443 444
744 745
571 570
140 139
137 136
57 58
259 258
575 574
691 692
22 21
196 197
139 138
529 530
417 418
211 210
287 286
455 456
219 220
404 403
652 651
443 442
438 437
495 496
620 621
470 471
752 751
222 223
532 531
58 59
270 271
548 549
50 49
659 658
47 48
591 592
181 182
669 668
135 134
233 234
480 481
121 122
770 769
291 290
448 449
3 2
274 275
656 657
366 367
94 93
308 309
758 757
119 120
789 788
405 404
127 126
793 794
698 697
792 791
251 250
618 619
206 207
185 184
48 49
644 645
649 650
199 200
499 498
282 281
468 469
422 421
247 246
172 173
617 618
611 610
811 812
2 1
307 306
99 100
381 380
334 335
704 703
43 44
91 92
83 84
6 1
118 117
758 759
401 402
7 8
90 91
27 28
724 723
808 809
132 131
215 216
609 610
547 546
368 367
21 20
682 681
60 59
796 797
175 174
775 776
489 490
639 640
400 399
190 189
328 327
376 375
798 799
277 278
56 55
613 614
633 634
221 222
41 40
698 699
95 96
540 541
194 193
801 800
671 670
465 466
31 32
259 260
588 587
84 85
148 147
737 738
566 567
787 788
499 500
457 458
710 711
647 648
807 808
113 114
71 72
771 772
803 802
224 223
361 362
167 166
202 201
518 519
440 441
163 164
160 161
304 305
549 550
63 64
529 528
149 150
819 818
497 496
94 95
761 762
526 527
187 188
42 41
218 219
176 177
747 748
351 350
700 701
231 232
513 512
694 693
406 407
438 439
766 765
272 271
51 50
227 228
571 572
5 6
583 584
705 704
323 322
832 833
531 530
720 721
269 270
304 303
108 109
10 9
149 148
755 754
513 514
333 332
518 517
662 661
784 785
397 398
489 488
293 292
572 573
805 804
116 117
301 302
19 20
185 186
709 710
205 206
235 236
119 118
576 577
678 677
696 695
337 338
428 427
156 157
5 566
176 175
173 174
599 598
282 283
825 824
430 429
331 332
546 545
77 76
824 823
414 413
414 415
778 777
228 229
392 393
329 328
14 15
472 471
96 97
737 736
795 796
302 303
623 622
313 314
363 364
555 556
345 346
439 440
242 243
247 248
635 634
526 525
573 574
759 760
168 169
427 426
437 436
234 235
317 318
236 237
112 113
153 152
810 811
164 165
263 262
61 60
787 786
510 511
826 827
739 740
669 670
802 801
123 124
736 735
679 680
431 432
452 453
478 479
19 18
419 420
569 568
289 288
395 394
800 799
807 806
321 320
327 326
107 108
159 158
374 373
213 214
266 267
831 832
392 391
557 558
715 716
75 76
203 204
89 90
816 815
77 78
207 208
658 657
562 561
152 151
475 476
34 33
805 806
286 3
551 550
293 294
500 501
397 396
347 346
186 187
685 684
42 43
103 102
46 47
142 143
753 752
402 403
690 691
785 786
334 333
256 255
712 711
390 391
727 726
112 111
9 8
196 195
409 408
24 23
166 165
685 686
412 411
557 556
555 554
718 717
588 589
364 365
356 357
17 16
673 672
591 590
570 569
508 509
465 464
580 581
734 735
516 517
431 430
445 444
582 581
357 358
484 483
835 834
528 527
483 482
390 389
179 178
65 64
589 590
105 106
742 741
254 253
506 507
620 619
61 62
767 768
828 827
552 551
702 703
749 748
729 728
26 25
630 631
646 647
281 280
39 38
813 814
66 67
203 202
361 360
34 35
225 224
420 421
317 316
842 843
70 71
415 416
742 743
128 129
637 638
4 5
144 145
790 791
487 488
818 817
603 604
462 463
55 54
606 607
524 523
559 560
18 17
734 733
764 765
416 417
484 485
533 532
272 273
193 192
386 385
300 299
300 301
252 253
594 595
73 72
655 654
128 127
659 660
276 275
804 803
611 612
539 538
383 384
596 595
660 661
838 839
520 521
225 226
458 459
261 262
393 394
15 16
631 632
460 461
134 133
12 13
316 315
828 829
215 214
277 276
267 268
150 151
385 384
632 633
78 79
180 181
312 311
116 115
349 348
99 98
721 722
674 673
593 592
257 258
398 399
378 379
450 449
626 627
553 554
780 779
474 475
504 505
204 205
753 754
845 844
37 38
353 352
315 314
237 238
344 343
620 4 605
610 609
583 584
113 112
511 510
295 294
165 166
477 476
147 146
332 331
513 514
316 315
245 244
191 190
327 328
490 491
36 35
504 503
121 120
535 536
475 474
514 515
198 199
450 451
542 543
561 562
536 537
225 226
414 413
320 321
258 257
377 376
180 179
546 545
135 136
587 586
95 94
217 218
182 181
169 170
176 177
405 406
500 501
102 103
531 532
604 605
179 178
124 123
108 107
151 152
418 419
560 559
452 451
363 364
571 570
80 81
473 472
323 322
323 324
388 389
199 200
283 282
480 481
72 73
473 474
368 367
389 390
26 27
483 482
453 454
479 478
497 496
142 141
105 104
275 274
449 448
266 265
407 406
437 438
116 115
445 446
186 185
171 172
342 341
296 295
120 119
178 177
402 401
619 618
275 276
531 530
151 150
400 399
415 416
246 247
260 259
471 472
259 258
40 41
338 337
218 219
67 66
580 579
144 143
103 104
519 520
590 591
318 319
351 352
97 96
127 126
485 484
509 508
333 332
167 166
249 248
155 154
145 146
416 417
401 400
164 165
331 330
366 365
140 139
11 10
605 606
423 424
278 277
287 286
548 549
181 180
76 77
485 486
42 41
498 499
383 382
426 425
237 236
563 564
436 435
282 281
453 452
189 188
209 210
444 443
489 490
37 36
431 430
574 573
468 467
415 5
399 398
1 6
25 24
432 433
348 349
190 189
226 227
443 442
441 442
611 612
265 264
381 382
254 255
4 5
526 525
13 12
339 340
411 410
250 251
291 292
348 347
134 133
365 364
422 423
562 563
203 202
35 34
311 312
593 594
566 567
538 539
70 69
497 498
487 488
238 237
602 603
29 28
511 512
109 110
88 89
338 339
380 381
99 100
234 235
168 167
371 372
281 280
293 294
268 267
480 479
106 107
301 302
49 48
550 551
342 343
494 495
153 154
143 142
602 601
541 540
168 169
231 230
528 529
612 613
117 116
50 49
262 261
243 242
214 213
422 421
482 481
464 465
586 585
2 109
98 97
526 527
98 99
573 572
240 239
170 171
322 321
375 376
577 578
1 2
283 284
360 359
160 159
380 379
356 355
297 296
465 466
593 592
547 546
418 417
461 460
18 19
402 403
549 550
71 70
300 299
60 59
500 499
341 340
588 589
136 137
186 187
128 127
446 447
523 524
43 42
458 459
217 216
246 245
53 54
193 192
289 290
207 206
4 313
430 429
46 47
68 69
471 470
63 62
297 298
54 55
194 193
344 345
254 253
496 495
198 197
233 232
527 528
112 111
565 564
614 615
377 378
211 3
285 284
435 434
269 270
617 616
440 439
555 556
433 434
329 330
620 619
373 372
212 211
76 75
232 231
114 113
66 65
395 396
208 207
608 609
577 576
86 85
195 196
3 2
85 84
394 393
29 30
156 157
91 92
409 410
604 603
129 130
152 153
89 90
403 404
220 219
347 346
614 613
273 274
424 425
398 397
463 464
439 438
228 227
95 96
6 5
553 552
447 448
132 131
22 21
368 369
538 537
183 182
80 79
468 469
139 138
329 328
383 384
309 310
352 353
308 307
510 509
437 436
561 560
337 336
324 325
277 276
334 333
571 572
325 326
470 469
607 608
502 501
494 493
385 386
225 224
429 428
587 588
600 601
476 475
350 351
156 155
272 273
45 44
286 285
582 583
522 521
385 384
106 105
579 578
50 51
242 241
590 589
462 463
51 52
576 575
183 184
150 149
65 64
308 309
228 229
17 18
540 539
90 91
67 68
504 505
213 212
304 305
158 157
14 15
74 73
63 64
595 596
27 28
10 9
507 508
467 466
420 419
484 483
412 413
408 409
71 72
240 241
379 378
268 269
279 278
6 518
48 47
82 81
57 58
303 302
59 58
221 220
392 391
175 174
16 17
255 256
554 555
132 133
37 38
487 486
291 290
615 616
503 502
114 115
224 223
386 387
215 216
125 124
553 554
247 248
349 350
197 196
457 458
60 61
456 455
313 314
34 33
23 24
55 56
440 441
396 397
264 263
493 492
9 8
205 204
393 392
173 172
369 370
88 87
173 174
8 7
83 82
518 519
33 32
570 569
405 404
122 121
598 597
78 79
306 305
566 565
569 568
86 87
100 101
52 53
543 544
516 515
522 523
266 267
202 201
164 163
195 194
311 310
20 19
192 191
128 129
358 357
346 345
316 317
363 362
235 236
23 22
506 507
118 119
428 427
557 558
407 408
292 293
244 243
388 387
7 1
62 61
512 513
533 532
137 138
574 575
581 580
600 599
357 356
118 117
159 158
148 149
318 317
488 489
355 354
163 162
184 185
176 175
261 260
45 46
39 40
300 301
395 394
288 289
303 304
299 298
160 161
188 187
361 360
75 74
233 234
93 92
252 251
462 461
31 32
336 335
411 412
25 26
307 306
454 455
221 222
374 375
272 271
506 505
288 287
445 444
83 84
230 229
43 44
31 30
595 594
238 239
320 319
547 548
326 327
102 101
201 200
344 343
584 585
431 432
262 263
359 358
334 335
541 542
529 530
517 516
373 374
557 556
252 253
161 162
551 552
361 362
110 111
250 249
4 3
147 148
525 524
279 280
256 257
545 544
391 390
20 21
367 366
478 477
617 618
421 420
16 15
12 11
520 521
315 314
450 449
206 205
94 93
123 122
598 599
223 222
126 125
457 456
371 370
270 271
460 459
140 141
208 209
534 533
354 353
558 559
57 56
214 215
567 568
38 39
145 144
606 607
78 77
596 597
203 204
134 135
491 492
534 535
14 13
591 592
582 581
610 611
130 131
426 427
818 3 651
36 37
165 166
600 599
58 57
446 447
294 293
612 613
287 286
664 663
58 59
457 456
88 89
526 525
709 708
782 781
133 134
358 357
647 646
601 602
135 134
757 756
221 220
372 371
492 493
811 810
466 465
643 642
5 547
107 108
137 136
310 309
10 9
274 273
511 510
324 325
743 744
257 256
138 137
791 792
327 328
97 98
728 727
97 96
187 188
754 753
620 621
796 797
806 807
260 259
755 756
516 517
31 32
748 749
243 242
816 817
133 132
408 407
208 207
405 406
738 737
450 451
430 431
461 460
325 326
777 776
87 86
431 432
442 443
705 706
18 19
375 376
40 41
138 139
550 551
501 502
702 703
241 242
147 148
287 288
146 145
304 305
106 107
470 469
47 46
191 190
591 592
34 33
661 660
346 347
628 627
373 374
163 162
111 110
147 146
15 16
527 526
206 207
484 485
154 155
162 161
129 130
781 780
689 688
386 385
21 20
202 201
311 310
383 382
398 399
1 2
301 302
246 247
173 174
659 658
662 663
814 815
143 144
398 397
654 655
575 576
80 79
345 344
340 341
175 174
318 317
104 105
775 774
634 635
510 509
253 254
128 129
479 480
334 333
198 199
265 266
644 645
400 401
21 22
141 140
530 529
262 261
430 429
577 576
365 366
775 776
413 414
666 665
26 27
537 536
349 350
370 369
291 292
743 742
773 772
160 159
93 92
384 383
83 84
762 763
169 168
496 497
718 717
191 192
304 303
713 712
244 245
208 209
74 73
186 185
793 792
704 703
339 338
809 810
605 604
698 697
358 359
363 362
804 805
438 437
798 799
200 201
546 545
746 745
144 145
695 696
584 585
43 42
726 727
193 192
12 11
447 448
559 560
14 15
85 84
562 563
9 8
491 492
262 263
4 3
367 366
205 204
289 290
203 202
248 247
548 547
68 67
696 697
79 78
734 735
456 455
652 651
3 277
321 320
233 232
101 100
259 258
219 218
758 757
610 611
716 715
268 269
255 256
729 730
623 622
457 458
318 319
347 348
176 175
615 616
558 557
338 337
190 189
322 323
750 751
734 733
316 317
634 633
788 789
16 17
507 508
778 779
632 631
624 623
587 588
804 803
650 651
795 794
694 693
542 541
4 5
230 231
514 513
266 267
267 268
217 218
454 455
176 177
121 120
428 429
113 114
136 135
179 180
487 488
344 343
337 336
275 274
196 195
178 179
387 388
500 499
753 752
300 299
636 635
106 105
385 384
229 228
223 222
115 114
725 726
28 27
85 86
118 119
163 164
617 618
225 226
489 490
694 695
422 421
638 637
103 104
390 389
583 582
2 142
350 351
589 590
25 26
29 28
441 442
764 763
67 66
149 150
112 113
418 419
458 459
748 747
573 572
148 149
425 424
395 394
732 731
254 255
6 5
370 371
817 818
227 228
54 55
656 657
793 794
427 426
388 389
802 801
505 506
566 565
59 60
75 76
720 721
462 463
335 336
3 2
220 219
739 738
639 638
569 568
674 675
765 764
643 644
575 574
723 722
760 761
369 368
312 313
736 737
155 156
771 772
505 504
33 32
68 69
62 63
72 71
655 656
263 264
566 567
71 70
586 585
501 500
654 653
535 534
665 664
409 410
165 164
131 132
377 378
341 342
779 780
22 23
523 524
10 11
6 683
7 8
518 519
628 629
507 506
360 361
51 52
711 712
53 54
52 53
217 216
489 488
312 311
445 444
719 718
416 415
56 55
483 484
131 130
486 487
326 327
23 24
800 801
499 498
390 391
730 731
435 436
452 453
402 401
412 413
555 554
306 307
534 533
387 386
368 367
272 273
787 788
39 38
556 557
578 577
92 91
293 292
211 210
678 677
549 550
69 70
481 482
230 229
306 305
676 675
400 399
118 117
704 705
701 700
123 124
707 706
514 515
265 264
649 650
605 606
420 421
379 378
397 396
65 64
57 56
404 405
308 307
677 676
802 803
196 197
478 479
112 111
599 598
296 295
43 44
101 102
690 691
740 739
152 151
528 527
469 468
537 538
361 362
122 121
816 815
662 661
778 777
186 187
460 459
601 600
448 449
497 498
73 72
355 356
522 523
673 672
252 253
452 451
222 221
722 721
700 699
667 668
560 561
685 686
771 770
698 699
691 692
593 592
298 297
586 587
481 480
673 674
604 603
35 36
746 747
324 323
185 184
570 569
440 441
319 320
683 684
809 808
465 464
538 539
1 7
559 558
245 246
572 571
283 284
752 751
316 315
472 471
625 624
235 236
710 711
168 167
294 295
125 126
227 226
443 444
645 646
83 82
606 607
454 453
282 283
103 102
183 182
29 30
12 13
309 308
724 725
41 42
701 702
412 4
238 237
724 723
213 212
439 438
159 158
782 783
116 115
183 184
279 280
243 244
90 91
495 494
744 745
161 160
239 238
364 363
786 785
81 82
51 50
269 270
261 260
314 315
87 88
608 607
332 331
279 278
682 681
402 403
795 796
234 233
671 672
381 382
78 77
571 570
799 800
194 193
678 679
157 158
790 791
109 108
710 709
18 17
249 250
686 687
554 553
494 493
545 544
535 536
473 474
687 688
539 540
529 528
684 685
313 314
630 629
755 754
172 173
563 564
590 591
195 194
298 299
257 258
380 379
625 626
290 291
636 637
281 282
608 609
474 475
440 439
237 236
483 482
61 60
614 615
100 99
475 476
297 296
214 215
49 50
617 616
240 239
391 392
741 742
95 96
284 285
276 275
767 768
471 470
435 434
272 271
94 93
321 322
77 76
214 213
211 212
271 270
44 45
30 31
477 478
342 343
770 769
642 641
354 353
495 496
798 797
490 491
140 139
556 555
732 733
167 166
598 597
749 750
761 762
633 632
180 181
789 790
119 120
542 543
128 127
64 63
622 621
653 652
170 171
808 807
95 94
525 524
49 48
620 619
360 359
670 669
513 512
353 352
426 425
224 223
766 767
116 117
477 476
34 35
25 24
332 333
668 669
348 349
519 520
720 719
216 215
81 80
602 603
812 811
517 518
98 99
345 346
485 486
729 728
612 611
502 503
574 573
595 594
589 588
530 531
188 189
508 509
393 392
250 251
351 352
61 62
760 759
581 582
301 300
436 437
355 354
90 89
741 740
551 552
520 521
375 374
640 639
783 784
596 595
278 277
503 504
231 232
75 74
151 150
177 178
472 473
170 169
660 659
667 666
468 467
564 565
20 19
812 813
381 380
182 181
408 409
690 689
13 14
466 467
450 449
364 365
613 614
679 680
814 813
579 578
427 428
765 766
206 205
627 626
521 522
248 249
210 209
561 562
122 123
568 567
433 434
340 339
446 445
47 48
549 548
171 172
512 511
461 462
785 784
681 680
234 235
768 769
420 419
403 404
414 415
334 335
692 693
65 66
204 203
581 580
708 707
714 715
618 619
407 406
289 288
786 787
648 649
631 630
200 199
531 532
424 423
109 110
396 395
240 241
393 394
596 597
356 357
225 224
372 373
593 594
515 516
303 302
197 198
157 156
153 154
533 532
331 330
736 735
251 252
584 583
541 540
328 329
410 411
657 658
774 773
1 6
39 40
417 416
330 329
126 127
806 805
553 552
422 423
285 286
417 418
543 544
376 377
153 152
432 433
46 45
758 759
37 38
641 640
579 580
142 143
713 714
647 648
125 124
280 281
670 671
464 463
610 609
717 716
924 2 476
579 580
173 172
792 793
836 835
739 738
711 712
380 381
812 811
288 289
225 224
45 44
487 486
401 400
201 202
259 260
115 116
44 43
303 304
466 4
425 426
587 586
445 444
441 440
763 762
598 599
196 197
724 725
818 819
551 552
326 325
851 852
758 759
374 373
415 416
662 661
782 783
813 814
689 688
454 455
751 752
68 67
911 910
168 167
35 34
117 116
635 636
746 747
898 897
5 619
243 244
534 535
29 30
450 451
119 120
845 844
827 828
409 410
553 552
877 876
358 357
127 128
716 715
151 150
301 302
506 507
281 280
732 733
887 886
874 875
676 677
814 815
317 316
19 20
323 324
863 864
95 94
374 375
691 692
70 71
89 90
449 450
318 317
285 284
447 446
863 862
541 542
87 88
687 686
344 345
37 36
246 245
146 145
713 712
222 223
801 802
255 256
268 269
583 582
646 647
658 659
502 503
655 656
175 176
843 844
261 260
385 384
31 30
775 776
53 52
774 775
225 226
95 96
896 897
152 151
99 98
637 636
111 112
427 428
800 799
184 183
148 147
717 716
448 449
120 121
124 123
656 657
630 631
398 397
419 418
625 624
822 821
384 383
874 873
81 82
821 820
729 730
764 763
101 100
457 458
83 84
492 493
708 707
280 279
318 319
611 610
673 674
135 136
283 284
688 687
846 847
835 834
361 360
296 295
772 773
875 876
882 883
564 563
428 429
881 880
14 15
231 230
548 547
629 630
808 809
18 17
402 401
576 575
729 728
324 325
153 154
52 51
367 368
434 435
195 196
538 537
8 7
906 907
265 264
850 849
856 857
174 173
765 766
103 102
639 638
290 291
593 594
539 538
735 736
257 256
819 820
504 505
734 733
214 213
310 309
685 686
343 344
489 488
106 105
313 3
847 848
455 456
884 883
135 134
516 517
519 520
640 639
718 719
690 691
514 515
205 204
277 278
402 403
742 743
351 350
697 698
364 365
719 720
371 372
770 769
559 560
252 253
451 452
204 203
463 464
628 629
199 200
908 907
652 651
789 788
592 591
553 554
905 904
372 373
694 695
842 841
786 785
543 542
741 742
140 139
46 47
509 510
94 93
839 840
2 160
738 737
55 54
677 678
387 388
307 308
353 354
882 881
871 872
149 150
522 523
869 870
411 410
58 57
386 387
285 286
680 681
337 336
221 222
524 523
899 900
219 220
60 59
366 365
505 506
475 476
603 604
369 368
614 615
626 627
440 439
494 495
477 478
515 516
802 803
80 79
404 405
781 780
861 862
326 327
622 621
178 177
218 219
190 189
136 137
158 159
436 435
884 885
799 798
833 834
169 168
833 832
900 901
71 72
102 101
663 664
274 273
778 779
386 385
279 278
527 526
459 458
495 496
468 467
646 645
740 739
370 369
320 321
633 632
126 127
194 193
377 378
859 858
852 853
771 770
652 653
692 693
752 753
408 409
194 195
879 880
462 463
829 830
251 250
664 665
605 606
497 498
830 831
473 472
241 242
66 65
609 608
213 212
611 612
745 746
49 48
129 128
361 362
556 557
602 601
806 807
345 346
74 75
465 464
470 471
422 421
917 918
376 377
608 607
805 804
760 761
424 425
525 526
293 294
90 91
473 474
577 576
501 500
276 275
348 349
492 491
83 82
713 714
62 61
541 540
144 145
25 26
63 64
565 564
332 333
21 22
48 47
281 282
182 183
796 795
568 567
262 263
701 700
707 706
237 236
152 153
177 176
97 96
678 679
706 705
245 244
860 859
157 158
287 288
628 627
393 394
186 187
590 591
486 485
113 112
360 359
247 246
266 267
306 307
111 110
923 924
699 700
589 590
702 701
482 481
891 892
211 212
533 534
391 390
28 29
472 471
432 433
6 5
558 557
118 117
77 78
422 423
124 125
352 351
230 229
689 690
743 744
333 334
793 794
838 837
314 315
911 912
174 175
922 921
38 39
588 587
57 56
31 32
382 381
481 480
395 394
521 520
810 811
170 171
316 315
626 625
238 239
26 27
13 12
584 585
108 109
634 635
613 612
143 144
653 654
726 727
784 783
889 890
185 186
123 122
734 735
826 827
683 684
350 349
191 192
438 439
923 922
895 896
782 781
616 615
330 329
784 785
209 208
786 787
34 33
73 74
532 533
698 699
555 556
23 24
800 801
905 906
740 741
286 287
56 55
829 828
248 247
555 554
483 482
674 675
310 311
9 10
913 912
396 397
12 11
215 216
490 489
444 443
864 865
722 723
427 426
147 146
580 581
114 113
412 413
919 920
596 597
321 322
396 395
670 669
218 217
340 341
292 291
777 776
642 641
562 563
356 357
459 460
618 617
543 544
817 818
104 105
521 522
10 11
544 545
616 617
915 914
202 203
888 889
107 106
561 562
456 457
295 294
769 768
24 25
619 620
877 878
49 50
45 46
705 704
14 13
853 854
536 537
644 643
226 227
166 165
714 715
76 77
407 406
509 508
490 491
797 798
237 238
477 476
797 796
119 118
571 572
1 7
198 199
484 485
681 682
469 470
737 736
892 893
887 888
512 511
919 918
399 400
331 330
132 133
297 298
16 15
816 815
720 721
535 536
250 249
53 54
710 711
134 133
210 211
504 503
430 429
696 697
424 423
561 560
650 651
292 293
585 586
403 404
547 546
266 265
843 842
353 352
114 115
791 790
790 789
854 855
59 58
270 269
32 33
757 756
475 474
673 672
86 87
531 532
571 570
137 138
514 513
233 234
376 375
566 567
755 754
162 163
529 528
703 702
299 300
872 873
546 545
598 597
157 156
903 904
443 442
758 757
19 18
631 632
232 231
840 841
848 849
768 767
185 184
518 519
76 75
502 501
434 433
666 665
254 253
496 497
97 98
20 21
121 122
72 73
806 805
178 179
893 894
671 670
755 756
908 909
91 92
257 258
85 86
60 61
551 550
724 723
297 296
131 130
600 599
583 584
242 243
549 548
268 267
355 354
35 36
234 235
99 100
139 138
379 380
263 264
596 595
283 282
348 347
622 623
110 109
389 388
588 589
69 68
51 50
236 235
437 436
813 812
759 760
221 220
667 668
302 303
289 290
483 484
921 920
432 431
382 383
831 832
17 16
658 657
871 870
356 355
67 66
252 251
823 824
215 214
171 172
909 910
524 525
416 417
454 453
314 313
660 659
915 916
605 604
188 187
745 744
461 460
337 338
2 1
641 640
732 731
371 370
845 846
582 581
531 530
777 778
379 378
836 837
320 319
84 85
148 149
867 866
70 69
271 270
607 606
662 663
823 822
169 170
623 624
621 620
42 41
749 750
461 462
574 573
466 467
405 406
761 762
335 336
129 130
510 511
180 181
274 275
342 343
65 64
193 192
764 765
179 180
655 654
38 37
479 480
419 420
414 415
895 894
507 508
262 261
730 731
408 407
412 411
328 329
773 774
420 421
125 126
156 155
902 901
795 794
103 104
298 299
558 559
528 527
676 675
500 499
272 273
40 39
816 817
311 312
917 916
751 750
322 323
722 721
726 725
3 4
392 393
132 131
142 143
207 208
166 167
1 6
693 694
41 40
565 566
3 2
43 42
868 867
4 5
748 749
413 414
305 306
807 808
223 224
865 866
679 680
228 227
6 772
610 609
878 879
682 683
327 328
164 163
804 803
578 577
346 347
305 304
513 512
341 342
209 210
188 189
9 8
332 331
453 452
255 254
792 791
898 899
301 300
164 165
93 92
487 488
359 358
709 710
696 695
441 442
207 206
717 718
448 447
469 468
593 592
913 914
672 671
22 23
140 141
437 438
362 363
539 540
162 161
568 569
494 493
217 216
747 748
575 574
648 649
206 205
63 62
229 228
685 684
248 249
549 550
80 81
478 479
869 868
335 334
182 181
154 155
518 517
704 703
141 142
856 855
339 340
780 779
107 108
572 573
902 903
810 809
79 78
88 89
649 650
838 839
886 885
197 198
602 603
499 498
708 709
241 240
860 861
826 825
201 200
276 277
271 272
613 614
430 431
240 239
825 824
634 633
728 727
767 766
366 367
530 529
258 259
600 601
594 595
338 339
417 418
399 398
391 392
579 578
190 191
233 232
445 446
27 28
890 891
647 648
363 364
308 309
666 667
161 160
754 753
569 570
644 645
669 668
850 851
661 660
857 858
638 637
390 389
643 642
788 787
884 1 724
272 271
695 696
291 292
258 259
766 767
79 78
328 327
383 384
129 128
282 283
624 623
783 784
768 767
363 362
522 521
719 720
156 155
507 506
195 194
851 852
135 136
553 552
514 515
827 828
380 381
663 662
408 407
774 775
610 611
403 402
7 8
710 709
364 365
495 496
265 264
173 172
728 729
646 647
797 798
128 127
49 50
549 550
361 360
476 477
643 642
739 740
295 296
838 839
754 755
244 243
732 731
616 617
873 874
603 604
85 84
189 188
245 244
871 872
335 336
336 337
443 444
73 74
517 518
187 188
677 678
851 850
11 10
735 736
165 164
493 492
126 125
661 662
435 436
102 101
355 356
741 740
138 139
34 35
804 803
309 310
382 381
694 695
573 574
287 288
718 719
458 457
720 721
432 433
541 540
492 491
324 323
775 776
109 110
379 380
858 857
297 298
417 416
771 770
429 428
257 256
527 528
604 605
422 423
595 596
79 80
636 635
271 270
679 680
69 70
109 108
651 650
477 478
652 653
859 860
414 415
572 573
409 410
481 480
516 517
457 456
690 689
373 372
854 855
71 70
38 37
328 329
3 4
207 206
856 855
213 212
104 103
3 299
860 861
88 87
71 72
300 299
245 246
232 231
141 140
569 568
268 267
672 673
1 7
744 745
861 862
605 606
53 54
844 843
848 847
535 536
624 625
60 59
725 724
157 158
560 559
377 378
174 175
637 636
748 749
87 86
33 34
234 233
607 608
746 745
734 733
798 799
769 768
462 461
681 680
479 480
418 417
64 65
746 747
561 560
682 683
587 586
709 708
802 801
619 620
698 697
713 714
831 830
513 512
120 121
470 469
499 498
107 108
758 759
841 840
656 657
484 483
870 869
141 142
359 358
616 615
795 796
214 215
394 393
497 498
494 495
637 638
627 628
218 219
823 824
341 340
332 331
475 476
834 835
425 424
676 677
413 412
822 821
201 200
171 170
635 634
544 543
837 836
369 370
442 443
173 174
113 112
47 48
295 294
531 532
822 823
482 481
548 547
647 648
449 450
570 569
363 364
59 58
876 875
441 440
518 519
597 596
399 400
169 170
526 525
302 301
712 713
172 171
550 551
466 465
830 829
686 685
106 107
795 794
716 717
503 504
76 77
401 400
368 369
183 184
347 346
706 707
659 658
829 828
367 368
329 330
319 318
554 553
320 321
866 865
794 793
418 419
182 183
489 488
511 512
193 194
803 802
149 148
511 510
144 145
137 138
489 490
273 272
852 853
391 390
473 474
142 143
192 193
729 730
742 743
217 218
705 704
558 557
702 701
197 198
281 280
371 372
246 247
353 354
868 869
613 612
625 626
549 548
412 411
807 806
599 600
93 94
464 463
373 374
280 279
63 62
303 302
875 874
809 810
229 228
130 131
421 420
693 694
215 216
761 760
610 609
33 32
293 294
366 365
641 642
214 213
423 424
43 44
739 738
397 398
367 366
535 534
351 350
338 337
133 132
651 652
836 835
731 730
248 249
143 144
49 48
124 125
509 510
256 255
348 349
668 667
156 157
765 764
168 167
736 737
238 239
591 592
879 878
335 334
501 500
29 28
45 44
387 386
55 54
220 219
90 89
796 797
883 884
538 539
119 118
516 515
464 465
301 300
63 64
455 454
506 505
810 811
32 31
618 617
239 240
491 490
226 225
751 750
812 811
565 566
228 227
96 97
700 699
583 584
601 600
593 594
452 453
528 529
582 583
257 258
825 826
324 325
4 445
374 375
819 818
67 68
718 717
627 626
777 776
556 555
310 311
787 786
407 406
290 289
437 438
870 871
152 151
73 72
413 414
290 291
255 254
81 80
780 779
711 712
833 834
640 639
853 854
690 691
131 132
527 526
846 847
764 763
820 821
181 182
112 111
117 116
99 98
533 534
598 597
427 428
640 641
466 467
279 278
151 150
531 530
577 576
273 274
345 344
485 484
807 808
13 12
536 537
389 390
722 721
135 134
252 253
770 769
530 529
657 658
129 130
675 676
691 692
179 178
574 575
260 261
216 217
29 30
761 762
831 832
585 586
791 790
744 743
687 688
430 431
15 16
792 793
817 818
288 289
524 523
859 858
460 461
522 523
166 165
483 482
176 175
259 260
312 311
638 639
102 103
319 320
472 471
51 52
198 199
192 191
545 544
95 94
282 281
115 116
399 398
396 397
383 382
753 752
754 753
236 237
763 762
1 6
463 462
493 494
561 562
12 11
543 542
2 3
88 89
683 684
609 608
882 881
587 588
267 266
537 538
436 437
556 557
251 250
287 286
296 297
191 190
308 309
715 714
101 100
675 674
816 817
212 211
599 598
842 841
40 41
304 303
699 698
749 750
134 133
563 562
46 45
404 405
186 185
655 656
77 78
838 837
275 274
613 614
10 9
308 307
663 664
434 433
825 824
801 800
159 160
395 396
539 540
469 468
359 360
254 253
878 877
668 669
664 665
665 666
158 159
411 410
565 564
46 47
406 405
394 395
487 488
388 389
1 2
371 370
575 576
386 385
748 747
385 384
115 114
285 284
772 773
35 36
883 882
149 150
789 790
354 355
81 82
450 451
408 409
454 453
785 786
392 393
20 21
701 700
643 644
447 448
670 671
508 509
703 702
648 649
789 788
725 726
704 703
478 479
403 404
777 778
313 314
378 379
69 68
169 168
224 223
312 313
181 180
13 14
809 808
16 17
251 252
38 39
673 674
545 546
578 577
66 67
146 145
307 306
508 507
660 659
766 765
799 800
688 689
197 196
146 147
580 581
264 263
497 496
22 21
813 812
261 262
868 867
601 602
179 180
91 90
104 105
25 26
176 177
154 153
343 344
819 820
554 555
653 654
618 619
843 842
56 57
815 814
249 250
630 631
349 350
755 756
334 333
784 785
306 305
30 31
240 241
226 227
474 475
525 524
660 661
121 122
106 105
277 276
514 513
672 671
501 502
315 314
570 571
346 345
123 124
607 606
232 233
113 114
222 223
236 235
614 615
468 467
43 42
52 53
684 685
6 5
589 588
206 205
248 247
649 650
375 376
392 391
732 733
503 502
500 499
98 97
15 14
231 230
669 670
323 322
338 339
122 123
140 139
326 325
581 582
787 788
91 92
185 184
446 447
341 342
18 19
471 470
727 726
161 162
292 293
585 584
864 863
402 401
815 816
327 326
222 221
566 567
243 242
339 340
844 845
148 147
846 845
263 262
85 86
519 520
6 738
119 120
230 229
741 742
628 629
873 872
268 269
448 449
681 682
687 686
5 591
558 559
224 225
679 678
456 455
201 202
353 352
211 210
351 352
275 276
432 431
438 439
863 862
876 877
622 621
415 416
278 277
667 666
166 167
715 716
177 178
164 163
814 813
266 265
580 579
441 442
756 757
629 630
2 153
782 781
779 778
458 459
866 867
759 760
602 603
24 25
840 839
100 99
286 285
435 434
377 376
446 445
486 487
186 187
620 621
27 26
36 37
117 118
137 136
472 473
126 127
23 24
8 9
486 485
542 541
579 578
110 111
65 66
505 504
322 321
632 633
752 751
708 707
422 421
4 5
220 221
623 622
196 195
420 419
827 826
572 571
611 612
22 23
631 632
429 430
200 199
209 210
711 710
856 857
521 520
92 93
39 40
773 774
189 190
805 806
848 849
75 74
780 781
460 459
864 865
18 17
50 51
204 203
451 452
234 235
705 706
439 440
57 58
879 880
317 316
792 791
318 317
28 27
163 162
880 881
284 283
209 208
315 316
19 20
269 270
590 589
84 83
735 734
83 82
427 426
849 850
567 568
204 205
330 331
358 357
645 646
757 758
242 241
207 208
154 155
697 696
60 61
347 348
832 833
55 56
563 564
361 362
782 783
333 332
724 723
552 551
645 644
202 203
61 62
532 533
238 237
634 633
305 304
388 387
592 593
426 425
95 96
342 343
772 771
356 357
727 728
41 42
693 692
161 160
654 655
804 805
594 595
723 722
547 546
76 75
1171 2 548
494 495
193 194
401 400
417 416
528 529
949 950
793 794
669 670
833 832
895 894
963 962
666 667
1119 1120
672 673
524 523
1171 1170
873 872
869 870
599 600
116 115
579 578
558 559
575 576
301 300
181 182
569 570
922 923
1150 1151
696 695
500 499
1122 1121
674 675
1090 1091
686 687
657 656
441 442
1117 1116
701 702
1031 1030
286 287
552 553
331 330
382 381
1023 1024
282 283
1144 1145
247 246
255 254
655 656
1027 1026
756 757
465 464
852 853
694 693
479 478
1075 1074
275 276
466 467
122 123
604 605
800 801
113 114
145 144
20 19
1086 1085
1035 1036
944 943
659 660
326 327
1084 1085
432 433
795 794
172 173
961 962
30 29
1169 1170
874 873
79 80
772 771
707 708
6 977
425 426
272 273
397 398
108 107
720 719
429 430
384 383
292 291
420 421
312 311
406 407
180 179
607 608
1132 1133
198 199
996 995
328 327
14 15
44 43
856 857
580 581
1062 1063
1127 1126
521 520
738 739
75 74
228 227
427 426
169 168
586 587
1017 1016
650 649
845 846
387 388
953 954
1091 1092
463 464
804 805
760 759
671 672
1031 1032
501 500
731 732
378 379
482 483
126 125
536 535
393 394
1073 1072
637 636
1123 1124
459 460
777 776
298 297
1028 1029
808 809
74 73
90 91
138 137
627 626
1134 1133
390 389
881 882
959 960
852 851
662 663
361 362
439 440
808 807
980 981
574 573
314 313
25 24
595 596
315 316
201 2
592 591
234 235
730 729
419 420
186 185
117 116
797 798
480 479
440 441
736 735
335 334
370 369
453 454
163 162
184 185
722 723
187 188
785 784
563 564
906 905
268 267
43 42
812 811
41 40
379 380
2 3
619 620
842 841
526 525
1123 1122
515 514
1163 1162
66 67
606 605
877 876
967 968
562 563
544 545
472 473
104 105
1095 1094
413 412
519 518
645 646
884 885
3 4
741 740
628 629
265 266
135 136
831 832
828 827
709 710
161 160
822 823
571 572
1132 1131
220 219
351 352
1154 1155
451 452
390 391
1115 1114
696 697
802 801
1096 1097
257 258
87 86
1014 1015
71 70
114 115
804 803
849 848
555 554
1083 1084
719 718
969 968
551 552
1072 1071
386 387
837 838
37 36
26 25
538 537
203 202
941 942
414 413
746 747
257 256
71 72
774 775
840 839
945 946
146 147
174 175
297 296
1028 1027
791 792
106 107
853 854
929 928
278 277
1039 1038
112 111
652 653
898 897
836 835
513 514
306 305
650 651
905 904
972 973
1063 1064
1016 1015
755 754
31 32
865 864
899 898
939 938
1051 1052
753 754
546 547
952 953
783 5
502 503
14 13
13 12
101 100
1 2
389 388
104 103
992 993
1048 1047
577 578
105 106
948 947
177 176
417 418
897 896
703 702
473 474
965 966
609 610
680 681
1113 1112
751 752
1145 1146
1013 1014
674 673
5 6
561 560
1152 1151
594 595
846 847
222 221
817 818
878 877
1153 1152
751 750
1033 1032
211 212
1157 1156
133 134
10 9
809 810
512 513
671 670
53 52
340 341
844 843
249 248
698 699
190 189
736 737
455 454
169 170
741 742
350 349
760 761
18 19
840 841
400 399
1135 1134
733 732
1001 1000
509 510
902 901
1129 1128
1062 1061
127 128
501 502
461 462
1142 1143
1052 1053
677 676
100 99
309 308
356 357
1071 1070
296 295
614 613
486 487
764 763
1044 1045
631 632
157 158
1093 1094
814 815
675 676
645 644
1156 1155
896 895
556 555
255 256
579 580
129 130
522 521
96 95
268 269
881 880
828 829
402 403
868 867
1087 1088
59 60
731 730
152 153
228 229
460 461
1099 1098
468 469
749 750
913 914
540 541
932 931
1140 1141
1007 1008
970 971
883 882
770 769
527 526
793 792
337 338
133 132
466 465
145 146
1087 1086
325 324
151 152
668 667
371 372
1146 1147
443 444
641 640
1149 1150
875 874
764 765
928 927
443 442
749 748
777 778
991 992
1077 1076
112 113
663 664
1019 1020
815 816
545 546
630 629
357 358
831 830
462 463
490 489
979 978
999 1000
868 869
262 263
196 197
248 247
734 735
63 64
49 50
353 352
575 574
68 69
456 455
599 598
725 724
194 195
1022 1023
56 57
915 916
263 264
565 566
403 404
135 134
355 354
543 544
934 935
231 230
889 888
392 391
488 487
1044 1043
287 288
436 437
1141 1142
834 833
975 976
251 252
744 743
190 191
410 409
304 303
363 364
634 633
414 415
1069 1068
562 561
960 961
930 929
1101 1102
241 242
503 504
342 341
183 184
1161 1162
539 538
925 926
1054 1053
483 484
981 982
638 639
1160 1161
46 45
274 275
753 752
160 159
38 39
890 891
412 411
567 568
550 551
987 986
427 428
524 525
286 285
471 470
1067 1068
879 878
330 329
609 608
823 824
615 616
328 329
315 314
1102 1103
830 829
246 245
964 963
536 537
1157 1158
102 103
1165 1164
892 893
1020 1021
409 408
356 355
779 778
836 837
692 693
345 346
492 493
310 309
264 265
87 88
80 81
1050 1049
1040 1041
406 405
975 974
912 913
919 918
239 238
217 218
531 532
994 993
988 989
798 799
250 251
4 589
320 319
534 535
506 505
723 724
697 698
773 772
224 225
79 78
583 584
944 945
713 712
924 925
926 927
214 213
4 5
93 94
906 907
633 632
60 61
797 796
618 617
1148 1147
768 767
727 726
1119 1118
131 130
350 351
402 401
429 428
358 359
149 148
623 622
706 707
108 109
900 899
422 421
124 125
666 665
508 507
965 964
166 165
957 958
1111 1112
1056 1057
585 584
252 253
842 843
170 171
203 204
818 819
861 862
69 70
209 208
178 177
685 684
218 219
29 28
1138 1139
858 859
542 541
594 593
909 910
291 290
1049 1048
661 660
638 637
923 924
810 811
9 8
457 458
1007 1006
183 182
459 458
582 583
434 433
1168 1167
615 614
11 10
639 640
757 758
705 704
744 745
919 920
748 747
867 866
949 948
787 786
122 121
311 310
1004 1003
76 75
768 769
64 65
845 844
83 82
208 207
154 153
1100 1099
825 824
35 34
780 779
630 631
699 700
606 607
848 847
624 625
223 222
517 518
711 712
737 738
601 602
449 448
908 909
89 90
280 281
947 946
872 871
12 11
862 863
109 110
229 230
481 480
1034 1033
295 294
716 715
770 771
885 886
635 636
1098 1097
711 710
360 359
54 55
1165 1166
1058 1057
452 453
237 236
21 22
621 622
783 784
481 482
661 662
888 887
149 150
557 556
1140 1139
111 110
178 179
398 399
641 642
377 376
1144 1143
788 789
270 271
682 683
1008 1009
1135 1136
1095 1096
343 342
42 41
790 791
76 77
617 616
1077 1078
573 572
533 534
167 166
235 236
550 549
204 205
139 138
96 97
1076 1075
121 120
709 708
729 728
678 677
654 655
1010 1011
935 936
366 367
425 424
334 333
560 559
322 321
496 497
1110 1109
539 540
175 176
408 407
530 529
289 290
418 419
813 814
548 549
158 159
283 284
34 33
1070 1069
985 986
826 825
1137 1138
1105 1106
445 446
457 456
920 921
17 16
936 937
438 439
243 242
67 68
1078 1079
921 922
725 726
335 336
861 860
1159 1160
249 250
396 397
323 324
796 795
238 237
143 144
590 591
142 141
450 449
1108 1107
1114 1113
272 271
812 813
154 155
1 6
172 171
201 202
1005 1006
781 780
84 85
520 519
494 493
790 789
497 498
889 890
512 511
887 886
903 904
381 380
395 396
891 892
181 180
73 72
340 339
690 689
681 682
517 516
570 571
688 687
279 280
785 786
22 23
336 337
821 820
52 51
758 759
302 303
974 973
989 990
55 56
956 957
1116 1115
126 127
649 648
942 943
277 276
307 306
299 300
211 210
1108 1109
958 959
717 718
17 18
715 714
273 274
1104 1105
30 31
1104 1103
226 227
192 191
91 92
262 261
1159 1158
610 611
1074 1073
266 267
124 123
911 910
938 937
569 568
371 370
1124 1125
600 601
911 912
1164 1163
155 156
471 472
475 476
1042 1041
1110 1111
508 509
347 346
209 210
1029 1030
438 437
781 782
220 221
95 94
690 691
701 700
903 902
1131 1130
683 684
173 174
982 983
316 317
1025 1024
516 515
317 318
368 369
492 491
883 884
835 834
376 375
347 348
1093 1092
1011 1012
120 119
1034 1035
803 802
197 198
694 695
422 423
301 302
807 806
118 117
240 239
308 307
128 129
37 38
602 603
32 33
58 57
435 434
375 374
826 827
373 372
444 445
490 491
728 727
1080 1079
244 243
997 996
450 451
373 374
240 241
333 332
313 312
918 917
383 382
679 680
59 58
647 646
1101 1100
344 345
270 269
140 139
84 83
820 819
1046 1045
1136 1137
293 294
987 988
89 88
385 386
216 217
933 932
644 643
142 143
233 232
54 53
496 495
119 118
260 261
164 163
894 893
416 415
354 353
62 63
547 548
756 755
259 260
997 998
1054 1055
532 533
469 470
1106 1107
597 596
880 879
81 82
585 586
1002 1003
1169 1168
136 137
931 930
392 393
850 851
542 543
761 762
740 739
1060 1061
1067 1066
1018 1019
331 332
231 232
299 298
284 285
721 720
664 665
597 598
774 773
365 366
424 423
582 581
156 157
305 304
1056 1055
432 431
995 994
593 592
318 319
654 653
323 322
1022 1021
344 343
98 99
1148 1149
48 49
326 325
140 141
691 692
447 448
966 967
634 635
1025 1026
970 969
278 279
916 917
476 477
1127 1128
206 205
1002 1001
288 289
446 447
951 952
1089 1088
1058 1059
589 590
787 788
187 186
1154 1153
1017 1018
1130 1129
604 603
620 621
934 933
554 553
854 855
167 168
234 233
734 733
624 623
504 505
1060 1059
27 28
93 92
765 766
940 939
714 713
1081 1080
131 132
1166 1167
983 984
192 193
763 762
612 611
775 776
226 225
224 223
1126 1125
44 45
50 51
528 527
40 39
722 721
16 15
378 377
530 531
254 253
485 484
36 35
567 566
900 901
498 499
1047 1046
212 213
657 658
20 21
704 703
1010 1009
384 385
816 817
506 507
245 244
431 430
686 685
405 404
436 435
870 871
1082 1081
717 716
642 643
705 706
980 979
865 866
951 950
1065 1066
860 859
991 990
875 876
488 489
956 955
658 659
576 577
259 258
48 47
954 955
511 510
625 626
3 395
1004 1005
648 647
669 668
858 857
282 281
475 474
102 101
1118 1117
321 320
766 767
1051 1050
821 822
486 485
189 188
348 349
364 365
940 941
61 62
363 362
77 78
688 689
206 207
984 985
215 214
914 915
1036 1037
679 678
1012 1013
998 999
98 97
148 147
800 799
587 588
46 47
745 746
215 216
361 360
7 8
613 612
1 7
165 164
564 565
162 161
1083 1082
855 856
478 477
850 849
151 150
651 652
199 200
978 977
628 627
1043 1042
66 65
619 618
1038 1037
467 468
1120 1121
195 196
1089 1090
743 742
863 864
558 557
839 838
805 806
23 24
85 86
293 292
971 972
1039 1040
907 908
410 411
522 523
368 367
338 339
1064 1065
27 26
627 3 213
150 151
485 484
328 329
281 282
294 295
255 256
404 405
558 559
370 371
434 433
87 86
181 180
249 250
137 138
183 182
287 288
101 100
421 420
125 124
74 73
377 378
187 186
454 453
245 246
68 67
13 12
258 257
117 118
451 452
216 215
286 285
544 543
332 331
436 435
596 595
591 592
149 148
20 19
342 341
409 410
56 57
47 48
243 242
25 24
364 363
210 209
381 380
81 82
199 198
530 531
314 315
92 91
312 313
603 602
614 615
443 442
563 562
516 517
231 232
512 513
271 270
622 621
451 450
34 33
544 545
411 410
221 220
541 540
305 304
375 374
455 456
228 229
109 108
86 85
373 374
135 134
183 184
405 406
412 411
43 44
328 327
72 71
213 214
28 27
3 4
350 351
293 294
561 560
358 359
148 147
179 180
398 399
146 147
130 129
7 1
423 422
406 407
490 489
34 35
472 471
495 496
620 619
236 237
469 468
353 352
233 232
201 202
546 545
104 105
74 75
585 586
499 498
30 29
199 200
220 219
205 206
325 324
252 251
348 349
609 610
483 482
23 24
606 607
589 588
484 483
263 262
19 18
426 425
160 159
577 578
101 102
509 510
257 256
610 611
79 80
366 365
110 111
556 557
75 76
511 512
227 228
230 231
459 458
375 376
300 301
260 259
391 390
613 612
524 525
242 241
486 485
549 548
131 130
500 501
197 196
509 508
9 10
3 213
416 415
372 373
223 222
77 76
458 457
507 508
235 234
129 128
562 561
440 441
303 304
493 492
518 519
524 6
429 428
9 8
529 530
40 41
409 408
277 276
533 532
72 73
311 310
165 166
312 311
379 378
88 87
31 30
59 60
56 55
68 69
537 538
200 201
557 558
107 106
157 158
154 153
368 367
206 207
339 340
335 336
466 465
174 175
276 275
464 463
98 97
281 280
492 491
345 346
226 225
157 156
309 308
172 173
428 427
62 63
327 326
297 298
43 42
439 440
265 264
65 66
299 298
467 468
38 37
593 592
100 99
475 476
363 362
174 173
389 390
626 625
566 565
481 482
58 57
107 108
391 392
569 570
167 166
453 452
154 155
535 534
70 69
286 287
48 49
522 523
572 571
151 152
292 293
62 61
187 188
141 140
474 475
283 282
289 288
547 548
244 243
299 300
370 369
576 575
351 352
140 139
491 490
161 160
600 599
624 625
53 52
264 263
469 470
397 398
553 554
307 306
426 427
584 583
45 46
138 139
439 438
1 2
227 226
550 549
32 31
250 251
162 161
97 96
574 575
596 597
510 511
574 573
617 616
579 580
335 334
296 295
361 360
401 400
465 464
622 623
436 437
340 341
394 393
577 576
177 178
211 212
26 25
359 360
205 204
50 51
529 528
624 623
61 60
355 354
132 133
326 325
185 184
310 309
336 337
601 600
438 437
536 537
190 191
239 240
14 15
539 540
133 134
606 605
568 567
604 603
211 210
480 479
348 347
321 320
120 121
435 434
78 77
417 418
460 461
120 119
261 260
254 255
88 89
566 567
11 10
127 126
619 618
164 163
555 556
225 224
188 189
53 54
195 194
320 319
118 119
307 308
273 274
32 33
381 382
343 344
599 598
432 433
504 503
358 357
40 39
7 8
372 371
121 122
268 267
197 198
179 178
272 271
388 387
531 532
116 115
515 514
116 117
246 247
319 318
245 244
528 527
337 338
462 461
42 41
479 478
222 221
364 365
55 54
290 291
598 597
217 218
168 167
455 454
415 414
583 582
17 16
131 132
275 274
444 443
339 338
208 207
473 472
99 98
345 344
324 323
356 357
526 527
202 203
447 446
554 555
64 63
284 285
431 430
587 586
266 267
499 500
385 386
272 273
456 457
330 329
269 268
20 21
487 488
85 84
229 230
425 424
22 23
506 507
487 486
601 602
547 546
122 123
471 470
90 91
590 589
618 617
36 37
356 355
92 93
15 16
466 467
612 611
565 564
247 248
399 400
52 51
249 248
520 521
501 502
153 152
480 481
83 82
111 112
123 124
385 384
313 314
196 195
27 26
401 402
384 383
616 615
29 28
620 621
403 402
65 64
12 11
442 441
539 538
38 39
571 570
578 579
126 125
155 156
421 422
376 377
431 432
169 170
505 504
89 90
219 218
367 366
21 22
95 96
450 449
168 169
519 520
280 279
588 587
502 503
521 522
506 505
44 45
386 387
607 608
585 584
261 262
473 474
277 278
498 497
536 535
350 349
591 590
70 71
4 5
462 463
269 270
526 525
396 397
253 254
416 417
419 418
216 217
330 331
476 477
95 94
382 383
241 240
379 380
306 305
494 493
49 50
235 236
445 446
181 182
162 163
353 354
185 186
551 550
303 302
114 115
497 496
301 302
316 317
560 559
449 448
413 412
552 553
291 292
5 420
104 103
423 424
128 127
141 142
149 150
388 389
542 543
258 259
582 581
542 541
614 613
143 142
460 459
204 203
164 165
81 80
290 289
223 224
112 113
533 534
605 604
395 394
136 135
66 67
78 79
158 159
430 429
145 144
36 35
105 106
3 2
552 551
190 189
563 564
518 517
608 609
333 332
495 494
4 316
393 392
238 239
266 265
209 208
488 489
177 176
192 193
396 395
2 110
171 172
368 369
321 322
342 343
362 361
83 84
569 568
170 171
234 233
346 347
448 447
626 627
175 176
1 6
58 59
6 5
296 297
403 404
413 414
114 113
322 323
47 46
573 572
580 581
513 514
214 215
237 238
192 191
94 93
102 103
146 145
445 444
279 278
283 284
194 193
17 18
137 136
515 516
594 595
13 14
144 143
407 408
252 253
594 593
318 317
477 478
333 334
996 2 14
669 668
901 902
797 796
475 476
384 383
105 106
757 756
512 511
252 253
140 139
715 714
986 987
877 876
567 568
807 808
502 503
482 483
559 560
964 963
73 72
793 792
211 210
552 551
218 219
742 743
588 587
103 104
151 150
498 497
455 454
696 697
580 581
526 525
771 772
897 896
843 844
435 434
665 664
493 494
319 318
774 775
496 497
342 341
815 816
619 620
695 694
885 884
230 231
640 641
867 868
863 864
132 133
729 730
832 833
230 229
53 52
875 874
872 873
281 280
920 921
521 522
307 308
835 836
74 73
672 671
129 128
306 307
329 328
424 423
814 813
756 755
939 940
115 116
992 993
571 570
403 404
362 363
786 785
267 266
555 556
243 242
826 827
32 31
296 297
764 763
929 928
421 422
713 712
151 152
823 822
628 629
966 967
440 439
239 238
911 912
16 15
477 478
785 784
736 735
648 649
498 499
616 617
27 26
416 415
767 768
378 377
908 909
49 50
278 279
5 4
170 171
142 143
745 746
518 519
318 317
474 475
662 663
822 821
810 811
988 989
757 758
433 432
489 490
946 947
527 528
859 860
241 240
734 733
393 392
235 234
388 389
907 906
16 17
291 292
804 805
177 176
309 310
281 282
841 842
358 359
170 169
179 178
4 502
546 545
108 107
891 890
739 738
351 350
191 190
692 693
848 849
15 14
445 446
473 472
82 83
515 514
847 848
438 437
222 221
600 599
777 778
385 384
546 547
560 561
50 51
18 19
78 79
359 360
563 562
780 779
609 608
154 155
879 878
576 577
581 582
609 610
241 242
883 884
520 519
981 980
423 422
524 523
327 326
603 602
200 201
774 773
918 919
504 503
240 239
6 5
121 120
765 764
155 156
214 215
261 260
862 863
579 578
557 558
379 378
114 113
303 304
354 353
917 918
793 794
285 286
748 747
527 526
554 555
586 587
854 855
386 387
333 334
2 1
355 356
540 541
61 60
600 601
959 958
925 926
974 975
905 906
973 972
916 917
875 876
509 508
78 77
129 130
604 603
331 330
203 204
708 707
57 58
443 444
9 8
325 326
388 387
978 977
64 65
678 679
277 278
344 345
621 620
574 575
98 97
217 216
747 746
421 420
842 843
898 899
338 337
228 227
94 95
994 993
293 294
346 345
885 886
69 70
717 718
110 109
430 431
271 270
563 564
361 362
204 205
766 765
880 881
415 414
807 806
740 741
14 13
630 629
797 798
301 300
352 351
46 47
636 637
90 91
9 10
84 85
624 625
284 285
85 86
583 582
520 521
145 144
900 901
572 571
149 148
165 166
158 157
42 43
853 852
689 688
534 533
844 845
896 895
474 473
174 173
791 792
87 86
371 372
531 530
91 92
374 375
148 147
63 64
334 335
125 124
575 576
579 580
596 597
655 656
138 139
525 524
102 101
702 701
403 402
703 704
871 870
846 845
970 969
891 892
981 982
40 39
566 567
183 182
595 596
510 509
305 306
607 606
610 611
820 819
87 88
717 716
650 649
710 711
412 413
963 962
811 812
915 914
711 712
606 605
651 652
370 371
167 168
667 668
99 100
410 411
989 990
33 32
189 188
236 237
839 838
887 888
279 280
256 257
676 675
2 172
661 662
437 436
119 120
865 864
926 927
374 373
93 94
892 893
522 523
941 942
847 846
332 331
945 944
153 152
577 578
317 316
673 672
507 506
365 364
911 910
633 632
426 425
652 653
130 131
47 48
159 160
835 834
984 983
312 311
394 395
263 264
996 995
406 405
7 8
142 141
195 194
821 820
336 335
483 484
221 220
944 943
214 213
548 549
915 916
357 356
987 988
799 798
132 131
314 313
794 795
761 762
769 768
268 269
968 967
234 233
690 689
231 232
930 931
246 245
76 77
88 89
937 938
514 513
289 288
92 93
377 376
881 882
274 273
700 699
418 419
979 978
154 153
97 96
851 852
158 159
627 628
114 115
276 275
784 783
428 429
685 686
589 588
184 185
713 714
795 796
327 328
627 626
349 348
84 83
180 179
316 315
752 753
49 48
393 394
886 887
192 191
56 55
935 936
390 391
778 779
404 405
385 386
303 302
851 850
675 674
66 65
590 589
933 934
206 205
895 894
232 233
4 3
200 199
67 68
866 865
828 829
368 367
147 146
184 183
443 442
192 193
985 986
29 28
565 564
67 66
570 569
366 365
861 862
632 631
512 513
177 178
264 265
389 390
585 586
99 98
222 223
465 466
913 912
776 775
11 12
613 612
255 256
682 683
594 593
486 487
800 801
452 451
659 660
249 250
810 809
223 224
181 180
219 220
803 802
949 950
623 622
850 849
635 634
982 983
189 190
250 251
44 43
22 21
369 370
258 257
414 413
504 505
320 319
212 213
505 506
706 707
169 168
744 745
549 550
186 185
46 45
631 630
313 312
518 517
608 607
511 510
719 718
656 657
697 698
788 789
58 59
260 259
21 20
489 488
670 671
265 266
543 542
417 418
674 673
947 948
540 539
507 508
681 680
105 104
547 548
615 616
429 430
323 324
126 125
254 253
480 479
683 684
367 366
202 201
691 692
782 783
677 676
647 646
647 648
135 136
38 37
724 723
321 320
247 246
729 728
126 127
788 787
150 149
269 270
165 164
44 45
645 644
545 544
685 684
777 776
824 823
971 972
860 861
703 702
903 904
323 322
701 700
194 193
790 789
447 446
412 411
921 922
681 682
932 931
933 932
903 902
124 123
287 286
726 725
538 537
138 137
262 261
347 346
453 452
899 900
897 898
879 880
922 923
34 33
804 803
441 440
653 654
60 59
218 217
467 468
136 137
259 258
146 145
840 839
227 226
731 730
721 722
960 959
613 614
979 980
472 471
162 161
542 541
964 965
61 62
728 727
432 431
909 910
709 708
619 618
459 460
478 479
573 574
961 960
532 531
536 537
831 830
466 467
758 759
329 330
490 491
63 62
935 934
342 343
311 310
966 965
817 818
618 617
24 25
957 956
300 299
462 463
128 127
882 883
755 754
3 337
368 369
565 566
870 869
294 295
42 41
57 56
924 923
290 291
529 528
198 199
753 754
614 615
96 95
37 36
268 267
381 380
991 992
244 245
376 375
735 734
181 182
750 751
248 249
829 830
2 3
426 427
890 889
229 228
80 79
457 458
719 720
904 905
494 495
529 530
767 766
382 381
304 305
638 639
297 298
781 782
162 163
942 943
857 858
167 166
664 663
18 17
770 769
723 722
495 496
592 593
299 298
500 499
464 463
399 400
101 100
465 464
488 487
634 633
727 726
976 975
940 941
134 135
6 832
481 480
492 493
55 54
456 457
41 40
639 640
338 339
477 476
392 391
642 641
31 30
840 841
340 339
645 646
733 732
517 516
13 12
543 544
25 26
605 604
704 705
449 450
301 302
107 106
828 827
693 694
216 215
951 950
919 920
748 749
974 973
441 442
855 856
961 962
956 955
360 361
353 352
456 455
592 591
30 29
263 262
695 696
939 938
485 486
760 759
819 818
791 790
874 873
401 402
71 72
445 444
108 109
433 434
651 650
75 76
243 244
659 658
438 439
737 736
176 175
878 877
591 590
621 622
595 594
122 121
397 398
995 994
401 400
853 854
225 226
332 333
35 36
308 309
276 277
680 679
141 140
160 161
741 742
354 355
427 428
207 208
424 425
838 837
946 945
598 599
252 251
808 809
893 894
28 27
408 407
705 706
991 990
53 54
686 687
643 642
800 799
643 644
341 340
372 373
709 710
951 952
396 397
435 436
288 287
348 347
10 11
206 207
24 23
721 720
725 724
462 461
562 561
447 448
469 468
357 358
197 198
408 409
569 568
786 787
955 954
760 761
111 112
743 744
952 953
936 937
212 211
551 550
750 749
763 762
602 601
70 71
970 971
175 174
410 409
458 459
117 118
290 289
957 958
534 535
248 247
677 678
119 118
914 913
869 868
7 1
399 398
737 738
889 888
469 470
89 90
552 553
669 670
448 449
283 282
235 236
637 638
283 284
636 635
187 188
274 275
907 908
731 732
210 209
52 51
687 688
816 817
611 612
949 948
623 624
81 82
583 584
80 81
969 968
255 254
383 382
395 396
492 491
699 698
501 500
977 976
38 39
867 866
133 134
585 584
172 173
812 813
859 858
74 75
34 35
556 557
272 271
536 535
573 572
661 660
416 417
273 272
780 781
225 224
558 559
103 102
238 237
123 122
322 321
806 805
665 666
19 20
667 5
654 655
716 715
195 196
112 113
984 985
770 771
144 143
453 454
481 482
772 773
484 485
203 202
164 163
658 657
598 597
419 420
928 927
450 451
834 833
815 814
363 364
953 954
292 293
825 824
186 187
857 856
872 871
460 461
295 296
470 471
532 533
350 349
538 539
516 515
209 208
68 69
802 801
116 117
740 739
825 826
157 156
554 553
314 315
837 836
752 751
325 324
23 22
344 343
924 925
379 380
691 690
625 626
197 196
110 111
407 406
930 929
6 1
905 1 692
133 132
224 223
479 480
463 462
330 331
120 121
864 865
444 443
1 6
52 53
238 239
844 845
63 62
30 29
735 734
876 875
429 430
624 623
826 827
334 333
874 875
198 197
725 726
388 387
419 418
548 547
261 260
302 301
240 241
195 194
182 183
243 242
407 408
49 48
778 779
701 700
103 102
831 830
282 283
258 257
71 70
887 886
112 113
678 677
271 270
150 149
266 265
863 864
635 634
882 881
677 676
566 567
833 834
381 380
852 853
891 890
135 136
424 425
208 207
538 539
300 299
451 450
168 167
858 857
655 656
198 199
538 537
89 88
760 761
512 511
321 320
704 703
498 499
312 313
816 817
123 124
681 680
4 456
229 230
738 737
360 359
184 183
573 572
768 767
713 714
903 902
225 226
413 412
250 249
185 186
783 784
126 127
734 733
472 473
78 79
392 393
811 812
721 722
104 103
860 861
31 32
77 76
26 27
595 596
41 40
787 788
481 480
854 853
1 7
274 273
324 325
351 350
122 123
885 884
206 205
459 458
752 751
541 542
762 761
771 770
467 466
611 612
833 832
781 780
143 142
60 59
633 632
697 698
264 263
836 835
200 199
332 331
323 324
860 859
378 379
11 12
647 646
602 601
386 387
773 772
500 501
109 108
210 209
759 760
840 839
134 133
375 374
97 98
851 852
502 503
563 564
561 560
544 545
271 272
347 346
420 419
402 401
474 473
570 571
399 398
555 556
885 886
603 604
507 506
726 727
59 58
784 785
830 829
173 172
537 536
435 436
616 617
404 403
13 14
600 599
729 728
153 154
843 842
79 80
664 663
749 748
246 247
315 314
276 275
252 251
733 732
131 130
720 719
715 714
99 100
849 850
449 448
854 855
744 745
468 469
88 87
245 246
581 580
116 115
221 220
161 160
489 490
146 147
222 223
897 896
209 208
336 337
202 203
107 106
491 492
365 364
712 713
137 138
742 741
403 402
804 803
459 460
744 743
212 213
33 32
178 177
814 813
800 799
35 36
418 417
125 126
867 868
809 810
384 383
679 680
576 575
873 872
227 226
597 598
490 491
113 114
175 174
370 371
746 747
177 176
568 567
253 252
870 869
298 299
2 3
74 75
281 280
894 895
240 239
428 429
340 341
568 569
194 193
166 165
56 57
179 178
158 157
394 395
189 188
91 90
628 629
93 92
85 84
191 192
277 276
709 708
342 341
768 769
742 743
582 581
793 792
64 63
805 806
893 892
163 164
10 9
303 304
236 237
688 689
186 187
847 848
725 724
348 349
518 519
643 642
425 426
358 357
15 16
587 586
234 233
638 639
85 86
211 212
620 619
235 236
707 706
130 129
828 829
110 109
64 65
539 540
513 512
42 43
326 327
189 190
415 414
213 214
54 55
708 707
83 82
201 202
709 710
899 900
413 414
691 692
703 702
192 193
842 841
22 23
592 591
450 449
303 302
876 877
439 438
810 811
590 589
144 145
662 663
552 553
494 493
90 89
18 17
671 670
646 645
382 381
470 469
801 802
510 511
898 897
723 724
867 866
518 517
224 225
615 616
288 289
572 571
817 818
215 214
565 566
564 565
532 533
242 241
754 753
584 585
170 169
335 334
825 826
771 772
606 607
648 647
520 521
667 666
584 583
610 611
67 66
406 407
19 20
290 291
36 37
643 644
706 705
148 147
807 808
342 343
267 266
705 704
219 218
238 237
653 652
117 116
718 719
39 38
437 436
218 217
570 569
573 574
318 317
96 97
695 696
134 135
427 426
181 182
136 137
737 736
354 353
509 510
432 431
29 28
355 354
300 301
882 883
386 385
730 731
345 346
559 558
546 545
460 461
901 900
551 552
843 844
666 665
515 516
439 440
497 498
338 339
895 896
618 619
531 532
700 699
874 873
486 487
773 774
696 697
497 496
442 443
702 701
167 166
652 651
757 756
86 87
219 220
376 377
430 431
3 306
476 477
67 68
668 669
210 211
261 262
250 251
556 557
601 600
54 53
765 764
478 479
540 541
388 389
610 609
262 263
649 648
505 504
37 38
148 149
92 91
367 366
118 117
903 904
318 319
689 690
740 741
871 870
447 448
559 560
711 712
200 201
797 796
835 834
478 477
370 369
140 141
763 764
410 411
81 82
676 675
662 661
322 323
57 58
668 667
503 504
665 664
574 575
25 26
111 112
373 374
94 93
55 56
185 184
805 804
39 40
635 636
396 397
769 770
102 101
359 358
206 207
329 330
452 451
794 793
65 66
179 180
119 120
52 51
287 288
823 822
5 6
626 625
446 445
500 499
416 417
474 475
142 141
789 790
493 492
118 119
654 653
640 639
145 146
762 763
549 548
630 629
139 140
879 878
165 164
685 686
905 904
660 659
865 866
615 614
716 717
335 336
758 759
519 520
671 672
397 398
649 650
472 471
24 23
524 525
282 281
274 275
15 14
488 487
50 51
191 190
94 95
894 893
296 297
438 437
466 465
723 722
888 887
630 631
892 891
710 711
739 740
181 180
717 718
355 356
172 171
108 107
674 673
290 289
286 285
308 307
457 456
755 754
125 124
31 30
244 243
332 333
363 364
681 682
216 217
880 879
750 749
684 685
100 101
530 531
482 483
255 256
377 378
536 535
821 822
162 163
861 862
389 390
188 187
588 589
590 591
715 716
8 9
350 349
781 782
409 410
901 902
561 562
69 68
824 825
525 526
489 488
380 379
785 786
687 688
857 856
157 156
738 739
468 467
750 751
306 307
632 631
50 49
654 655
21 20
286 287
686 687
81 80
626 627
621 620
159 158
2 156
815 814
496 495
344 345
317 316
11 10
800 801
595 594
521 522
420 421
22 21
390 391
856 855
483 484
35 34
171 170
203 204
69 70
898 899
232 231
270 269
508 509
735 736
442 441
551 550
382 383
279 278
554 553
526 527
580 579
322 321
790 791
641 640
284 285
577 578
268 269
678 679
452 453
766 767
658 659
614 613
578 579
162 161
557 558
534 535
61 60
606 5
328 329
693 694
72 71
748 747
268 267
850 851
841 840
588 587
283 284
311 310
628 627
547 546
153 152
694 695
175 176
44 45
837 836
816 815
25 24
463 464
792 791
44 43
795 794
7 8
227 228
216 215
803 802
593 594
385 384
265 264
13 12
670 669
47 48
658 657
745 746
316 315
320 319
248 249
362 361
777 776
368 367
62 61
597 596
433 432
428 427
780 779
786 787
603 602
312 311
462 461
447 446
757 758
827 828
6 756
115 114
17 16
292 291
73 72
395 396
660 661
481 482
845 846
656 657
74 73
144 143
4 5
859 858
150 151
84 83
27 28
411 412
362 363
789 788
585 586
609 608
776 775
799 798
121 122
464 465
542 543
470 471
813 812
766 765
278 277
783 782
684 683
698 699
338 337
280 279
883 884
824 823
820 821
77 78
523 522
258 259
554 555
890 889
230 231
777 778
327 328
440 441
229 228
128 127
353 352
524 523
409 408
361 360
245 244
475 476
232 233
168 169
406 405
549 550
309 308
248 247
502 501
641 642
104 105
515 514
292 293
731 732
424 423
221 222
528 529
534 533
393 394
356 357
543 544
730 729
798 797
138 139
197 196
434 433
196 195
98 99
577 576
849 848
309 310
434 435
529 530
404 405
682 683
369 368
95 96
871 872
691 690
753 752
313 314
372 371
796 795
110 111
155 154
514 513
365 366
508 507
372 373
75 76
622 621
272 273
304 305
638 637
831 832
105 106
806 807
634 633
375 376
484 485
485 486
454 453
2 1
454 455
644 645
583 582
625 624
651 650
618 617
727 728
445 444
421 422
527 528
174 173
152 151
819 818
339 340
672 673
326 325
599 598
506 505
293 294
869 868
254 255
612 613
348 347
415 416
877 878
881 880
774 775
234 235
863 862
516 517
400 401
297 298
391 392
46 45
257 256
623 622
400 399
847 846
839 838
4 3
295 294
808 809
19 18
131 132
720 721
254 253
604 605
494 495
457 458
34 33
423 422
820 819
129 128
592 593
888 889
838 837
343 344
563 562
260 259
46 47
295 296
608 607
204 205
352 351
637 636
692 693
675 674
41 42
159 160
879 4 421
392 391
169 168
555 554
529 528
160 159
110 111
293 294
609 610
769 770
574 573
814 813
56 57
385 386
803 804
215 216
806 807
12 11
809 810
113 112
349 350
856 855
845 844
693 692
480 481
874 873
852 853
684 683
873 872
407 406
3 2
219 220
218 217
858 857
147 148
285 286
703 702
261 260
158 159
436 435
690 691
478 479
622 621
162 163
513 512
764 763
584 585
311 310
113 114
196 195
267 268
510 511
617 618
613 614
331 332
376 377
202 201
699 698
580 579
19 18
798 797
560 559
116 117
718 717
535 534
245 244
626 625
533 532
519 520
367 368
593 594
596 597
648 647
839 840
360 359
536 537
118 119
332 333
42 43
451 452
359 358
675 674
132 131
111 112
761 762
505 504
534 533
531 530
478 477
822 823
846 845
55 56
825 824
395 394
676 677
701 702
719 718
775 774
692 691
10 11
439 440
565 566
786 787
712 713
719 720
412 411
36 35
241 240
250 249
258 259
705 706
345 344
28 27
330 329
640 639
624 625
189 188
610 611
731 732
538 539
231 232
43 44
782 781
492 491
411 410
82 83
166 165
387 386
799 800
38 37
820 819
305 304
669 670
723 722
701 700
550 549
271 270
524 525
366 367
570 571
129 128
841 840
572 573
535 536
432 431
765 766
86 85
749 750
449 448
72 71
263 262
15 16
489 488
468 469
806 805
696 697
713 714
87 88
860 861
708 709
258 257
40 39
628 627
209 208
428 427
530 529
875 874
126 127
373 374
78 77
63 64
700 699
587 586
415 416
471 470
303 302
388 387
114 115
493 494
872 871
10 9
504 503
602 601
195 194
705 704
815 816
663 662
243 242
446 447
507 508
298 299
826 827
75 74
369 368
325 324
863 862
280 281
409 410
867 868
591 590
778 779
241 242
193 194
437 436
734 735
682 681
668 669
754 753
665 666
342 343
482 481
380 379
734 6
445 444
835 834
212 213
200 199
450 449
225 226
124 125
274 273
599 598
731 730
664 665
475 476
768 767
717 716
263 264
639 638
51 50
466 465
733 732
340 339
58 57
461 460
90 89
214 215
597 598
833 832
170 169
142 141
115 116
637 636
641 642
93 94
232 233
8 7
33 34
844 843
145 144
53 54
446 445
652 651
463 464
517 518
288 289
766 767
790 791
456 455
204 205
48 49
552 551
106 105
346 345
773 772
322 323
337 338
831 830
634 633
50 49
171 172
760 759
274 275
789 790
604 603
564 563
42 41
90 91
173 174
343 344
581 580
279 278
654 653
80 81
266 265
203 202
95 94
137 136
415 414
538 537
141 140
458 457
441 440
847 846
655 656
69 70
743 742
627 626
604 605
795 796
619 618
600 601
212 211
630 631
632 633
486 487
877 878
338 339
313 314
759 758
683 682
391 390
624 623
612 613
13 14
213 214
408 409
664 663
685 684
784 783
78 79
635 636
514 515
120 121
21 20
68 69
1 2
243 244
88 89
180 179
834 833
442 4
24 23
562 561
706 707
611 612
832 831
103 102
794 795
821 822
645 644
854 855
653 652
276 275
650 651
472 471
744 743
38 39
402 401
173 172
551 550
17 16
484 485
673 672
155 154
357 356
509 510
808 807
23 22
828 827
248 249
444 443
281 282
102 101
1 7
585 586
291 292
724 723
98 97
72 73
599 600
434 435
262 261
689 688
155 156
615 614
842 841
192 191
858 859
246 247
432 433
9 8
462 463
309 310
477 476
781 780
29 30
668 667
764 765
848 847
108 109
777 778
105 104
84 85
216 217
285 284
333 334
393 394
736 737
643 642
270 269
448 447
228 229
498 497
758 757
207 206
621 620
749 748
245 246
380 381
160 161
465 464
838 839
413 412
353 352
205 206
871 870
849 848
301 300
272 273
540 539
362 361
467 468
341 340
817 818
644 643
321 322
158 157
306 307
486 485
378 377
318 317
603 602
755 754
589 588
425 426
877 876
452 453
592 593
519 518
200 201
659 660
544 543
473 472
5 6
479 480
727 726
178 179
581 582
364 363
853 854
272 271
385 384
234 233
75 76
77 76
97 96
695 694
328 329
876 875
321 320
41 40
836 837
785 786
495 496
66 65
635 634
491 490
142 143
865 866
541 542
251 250
235 234
609 608
685 686
502 501
553 552
688 687
139 140
422 423
307 308
67 66
364 365
365 366
674 673
506 507
197 196
393 392
104 103
829 828
428 429
63 62
697 698
408 407
591 592
381 382
101 100
153 152
789 788
289 290
152 2
21 22
575 574
716 715
725 726
350 351
122 121
762 763
52 51
547 546
239 240
646 647
238 239
354 353
720 721
741 740
583 582
815 814
187 186
20 19
355 356
108 107
866 867
68 67
773 774
123 122
752 753
442 443
267 266
498 499
227 228
776 775
838 837
405 404
405 406
193 192
379 378
53 52
681 680
230 231
304 303
596 595
712 711
282 283
283 284
290 291
605 606
370 369
401 400
693 694
277 278
309 308
418 419
616 615
181 182
569 568
355 354
402 403
655 654
174 175
32 31
60 59
566 567
420 419
499 500
670 671
770 771
287 288
95 96
557 558
224 223
425 424
739 738
516 517
548 549
35 34
656 657
184 185
527 528
28 29
414 413
4 5
123 124
617 616
134 133
396 395
577 578
12 13
503 502
632 631
337 336
746 747
119 120
513 514
418 417
862 861
171 170
317 316
868 869
645 646
661 660
424 423
163 164
186 185
662 661
325 326
584 583
495 494
46 45
397 398
489 490
81 82
800 801
363 362
556 555
207 208
296 295
710 711
238 237
150 151
130 129
153 154
703 704
315 316
30 31
787 788
26 25
324 323
849 850
15 14
820 821
541 540
1 6
804 805
523 524
229 230
92 91
143 144
474 475
44 45
166 167
521 522
680 679
300 299
751 752
227 226
515 516
26 27
197 198
843 842
375 376
295 294
327 326
492 493
370 371
785 784
162 161
756 757
808 809
360 361
149 148
545 546
358 357
559 558
456 457
572 571
389 388
825 826
127 128
484 483
3 297
856 857
138 139
738 737
218 219
724 725
280 279
622 623
311 312
130 131
252 253
306 305
557 556
342 341
352 351
488 487
641 640
149 150
864 865
135 134
177 176
793 792
349 348
453 454
256 257
496 497
607 606
293 292
802 801
204 203
460 459
455 454
297 298
221 220
36 37
253 254
628 629
545 544
287 286
183 182
562 563
190 191
741 742
589 590
374 375
760 761
776 777
347 346
650 649
666 667
416 417
198 199
523 522
794 793
3 4
61 60
64 65
47 48
109 110
255 254
434 433
810 811
851 852
576 577
630 629
747 748
505 506
462 461
824 823
830 829
180 181
313 312
17 18
746 745
864 863
482 483
348 347
816 817
318 319
427 426
783 782
398 399
100 99
547 548
859 860
878 879
803 802
252 251
32 33
389 390
553 554
450 451
469 470
384 383
331 330
335 336
648 649
175 176
156 157
659 658
224 225
301 302
739 740
138 137
772 771
714 715
429 430
382 383
576 575
851 850
334 335
438 439
561 560
135 136
750 751
811 812
578 579
256 255
710 709
276 277
372 371
567 568
458 459
188 187
260 259
399 400
744 745
728 727
870 869
420 421
25 24
791 792
247 248
314 315
799 798
147 146
236 235
126 125
564 565
678 679
168 167
526 525
62 61
93 92
521 520
79 80
373 372
264 265
59 58
184 183
689 690
320 319
146 145
55 54
570 569
796 797
779 780
512 511
619 620
430 431
190 189
595 594
672 671
46 47
211 210
500 501
677 678
509 508
404 403
608 607
107 106
736 735
397 396
467 466
74 73
221 222
728 729
223 222
730 729
99 98
71 70
526 527
696 695
178 177
813 812
236 237
474 473
268 269
687 686
638 637
658 657
87 86
133 132
438 437
542 543
721 722
756 755
117 118
675 676
165 164
708 707
327 328
818 819
836 835
209 210
588 5
422 421
769 768
83 84
531 532
828 1 117
136 135
722 723
186 187
277 278
397 398
693 692
216 215
609 610
719 718
488 487
7 1
605 606
765 764
284 285
783 782
411 410
733 734
457 456
444 443
206 205
727 726
409 408
536 535
689 690
92 91
794 795
597 598
141 140
745 744
61 62
67 66
210 209
302 303
524 525
735 734
79 78
629 628
520 521
399 398
615 616
84 83
3 2
786 787
548 549
537 536
738 737
611 610
373 372
116 117
213 214
651 652
393 392
655 656
580 581
562 563
811 810
769 770
627 626
193 192
452 451
331 332
250 249
736 737
220 219
58 57
356 357
432 431
330 331
305 304
58 59
527 526
446 447
381 380
711 710
778 779
574 575
631 632
106 105
412 413
47 46
358 359
631 630
436 435
689 688
672 671
705 706
715 714
352 351
82 81
804 805
268 267
305 306
104 105
234 233
383 384
65 64
259 258
53 52
248 249
369 368
762 763
30 31
685 686
750 749
18 19
203 202
160 159
296 295
44 43
34 35
776 777
767 768
530 529
513 514
648 647
404 405
46 45
735 736
622 623
242 243
314 313
793 792
204 203
430 431
692 6
741 742
518 517
426 425
18 17
534 533
732 733
16 15
802 801
758 757
539 538
78 77
42 43
108 107
92 93
501 502
355 354
150 151
809 810
483 482
817 816
112 111
476 475
803 804
488 489
204 205
584 583
100 101
126 127
348 349
94 93
578 577
251 252
755 756
444 445
700 701
793 794
248 247
60 59
571 572
175 174
164 165
124 125
753 754
3 4
467 468
134 135
728 727
53 54
491 490
48 47
194 193
228 227
110 111
542 543
599 600
757 756
33 34
783 784
579 578
541 542
328 327
376 377
392 391
134 133
1 2
625 626
537 538
592 591
594 595
257 256
673 674
40 39
591 590
123 122
824 825
505 506
560 561
772 773
691 690
394 393
49 50
31 32
406 405
418 4
166 167
157 158
710 709
790 789
659 658
614 613
19 20
752 753
806 807
178 177
721 722
791 792
339 338
693 694
633 634
637 638
740 739
644 643
650 651
89 88
378 379
221 222
646 647
646 645
263 264
309 308
143 142
798 799
313 312
480 481
366 367
463 464
160 161
462 461
38 37
752 751
704 703
409 410
180 179
29 30
386 387
527 528
194 195
242 241
308 307
462 463
656 657
400 399
593 594
72 73
598 599
144 2
498 499
184 183
163 162
702 703
655 654
577 576
552 553
687 686
732 731
474 475
661 662
715 716
820 819
41 40
231 230
56 57
545 546
721 720
633 632
739 738
276 277
453 452
411 412
121 120
407 408
478 479
534 535
808 807
131 132
192 191
814 815
275 274
270 269
779 780
569 568
668 667
658 657
504 503
115 116
615 614
52 51
442 441
459 460
708 707
56 55
283 282
557 558
201 200
437 438
139 138
373 374
544 543
436 437
390 391
124 123
716 717
822 821
766 767
529 528
711 712
341 342
86 85
423 422
320 321
606 607
531 530
379 380
138 137
96 97
363 362
817 818
176 175
597 596
107 106
329 328
440 439
685 684
190 191
12 13
586 587
707 706
458 459
781 780
81 80
683 682
345 344
465 464
80 79
334 335
9 8
131 130
281 3
268 269
130 129
370 369
479 480
602 603
585 584
84 85
207 208
118 117
38 39
350 349
641 642
260 261
680 679
329 330
294 293
188 187
547 546
532 531
663 664
36 35
382 383
466 465
429 428
420 421
121 122
353 352
22 21
210 211
636 635
178 179
419 418
75 74
60 61
319 320
470 469
1 6
262 261
381 382
346 345
172 173
360 359
602 601
216 217
366 365
765 766
474 473
434 433
620 619
588 587
28 27
246 245
414 415
596 595
513 512
250 251
140 139
484 483
24 25
185 186
289 290
212 211
428 427
322 321
301 302
607 608
570 569
653 654
660 661
11 12
698 697
622 621
224 223
169 168
799 800
507 508
630 629
168 167
246 247
748 749
324 325
55 54
555 556
551 552
353 354
180 181
451 450
760 761
95 96
76 75
271 272
470 471
746 747
49 48
241 240
466 467
676 677
750 751
263 262
296 297
170 169
14 13
583 582
490 489
823 822
743 744
769 768
154 155
747 748
97 98
153 152
318 319
63 62
447 448
36 37
136 137
472 473
219 218
562 561
782 781
589 590
486 487
255 256
454 453
112 113
740 741
806 805
343 344
550 551
485 484
14 15
541 540
705 704
16 17
198 199
523 522
567 568
151 152
397 396
415 416
172 171
244 245
346 347
83 82
356 355
28 29
4 5
8 7
334 333
772 771
524 523
212 213
533 532
51 50
628 627
754 755
678 677
90 91
108 109
68 69
664 665
777 778
684 683
259 260
317 318
387 388
171 170
427 426
668 669
695 696
497 496
564 563
126 125
244 243
476 477
198 197
825 826
323 324
66 65
802 803
670 671
385 386
240 239
253 252
400 401
402 401
617 618
87 88
559 558
173 174
287 288
184 185
510 511
788 789
539 540
556 557
149 148
665 666
423 424
526 525
572 573
5 6
32 33
560 559
235 234
725 726
335 336
506 507
620 621
676 675
745 746
573 574
72 71
555 5
445 446
364 365
638 639
823 824
516 515
254 253
388 389
455 454
580 579
571 570
592 593
157 156
554 553
588 589
520 519
645 644
69 70
200 199
472 471
581 582
609 608
702 701
455 456
435 434
378 377
26 25
450 449
385 384
544 545
299 298
759 758
713 712
604 605
699 698
663 662
433 432
576 575
505 504
430 429
155 156
266 267
421 422
165 166
337 338
10 9
142 141
103 104
22 23
202 201
811 812
206 207
336 337
416 417
403 404
221 220
231 232
189 190
44 45
270 271
301 300
230 229
150 149
438 439
99 98
566 565
94 95
407 406
700 699
448 449
492 493
129 128
669 670
491 492
762 761
148 147
145 144
24 23
347 348
189 188
286 285
10 11
71 70
76 77
226 225
237 236
709 708
814 813
791 790
119 118
132 133
101 102
264 265
813 812
819 818
362 361
419 420
786 785
682 681
215 214
42 41
209 208
74 73
128 127
713 714
795 796
666 667
729 728
114 115
515 514
396 395
342 343
642 643
119 120
827 828
265 266
679 678
232 233
375 376
182 181
100 99
217 218
494 493
494 495
274 273
282 281
350 351
114 113
238 239
763 764
288 289
340 341
798 797
87 86
364 363
760 759
775 774
292 291
278 279
481 482
238 237
368 367
196 197
102 103
673 672
585 586
21 20
299 300
315 314
371 370
659 660
403 402
273 272
784 785
287 286
306 307
619 618
717 718
375 374
310 309
634 635
485 486
340 339
549 550
652 653
389 390
235 236
730 731
425 424
808 809
64 63
649 648
360 361
564 565
442 443
725 724
255 254
517 516
303 304
228 229
469 468
458 457
787 788
326 325
372 371
688 687
508 509
820 821
612 613
612 611
501 500
680 681
316 317
624 623
567 566
640 641
826 827
512 511
357 358
327 326
26 27
800 801
548 547
312 311
290 291
224 225
600 601
730 729
521 522
153 154
724 723
460 461
797 796
695 694
223 222
395 394
499 500
258 257
176 177
89 90
617 616
280 279
226 227
498 497
297 298
333 332
510 509
675 674
68 67
146 147
696 697
496 495
503 502
719 720
145 146
294 295
164 163
815 816
477 478
275 276
109 110
604 603
771 770
639 640
636 637
414 413
183 182
773 774
315 316
323 322
284 283
649 650
441 440
196 195
518 519
159 158
624 625
310 311
742 743
292 293
776 775
162 161
1079 3 50
632 631
73 74
506 507
989 990
601 602
815 814
159 160
86 87
304 303
1072 1073
768 767
624 625
893 892
237 236
16 17
771 772
976 977
29 28
736 737
47 46
180 179
786 785
217 216
798 797
1064 1065
277 276
715 714
292 291
397 396
588 587
1018 1017
647 646
366 367
681 680
406 407
657 656
52 51
993 994
814 813
85 86
961 962
895 894
951 952
934 935
682 681
353 354
649 648
400 399
1026 1025
476 477
76 77
536 537
933 932
261 260
39 40
713 714
530 529
544 543
950 949
413 414
127 126
258 257
559 558
730 729
293 294
54 53
956 955
143 142
986 985
409 410
978 979
104 105
539 540
473 474
635 634
842 843
176 177
402 403
523 522
1038 1039
343 344
609 610
545 546
1063 1062
259 260
811 812
797 796
50 49
617 616
451 452
552 553
137 136
125 126
498 497
962 963
975 974
855 854
792 793
288 287
863 864
264 265
359 358
847 846
580 579
1021 1020
238 239
526 525
662 661
860 859
6 1
1050 1049
1074 1075
770 769
1005 1006
30 31
1040 1039
582 583
878 879
395 394
352 353
606 605
378 379
330 331
899 900
219 220
735 734
575 574
947 948
960 959
677 676
435 436
187 188
921 920
1015 1016
660 661
38 39
853 852
430 431
643 642
718 717
614 615
78 77
418 419
568 567
684 683
152 151
609 608
911 910
277 278
431 432
983 982
560 561
675 676
447 446
194 195
139 140
548 549
774 773
701 700
964 965
622 623
795 794
627 628
979 980
623 624
120 119
1012 1011
555 556
421 420
965 966
699 698
868 869
851 852
1070 1071
858 857
1021 1022
67 66
266 267
527 526
1027 1028
375 374
778 779
348 349
705 706
41 40
64 63
208 209
62 61
850 851
418 417
60 61
788 789
493 494
190 191
148 149
1 2
446 445
955 954
269 270
178 179
598 597
1035 1034
324 323
492 493
1078 1077
213 214
197 196
500 501
141 140
846 845
611 612
58 59
529 528
24 25
836 837
33 32
84 85
326 327
1066 1065
292 293
357 356
1033 1032
473 472
1004 1003
808 807
1016 1017
939 940
248 249
1051 1050
870 869
1010 1009
813 812
752 751
465 466
549 550
449 450
217 218
115 114
945 946
106 107
372 373
205 206
45 44
966 967
319 318
830 831
35 36
1040 1041
98 99
895 896
1068 1069
365 364
280 279
26 27
1024 1025
14 13
290 289
271 270
636 637
111 110
890 889
1048 1049
615 616
308 309
382 383
1061 1060
1041 1042
174 173
71 72
288 289
567 566
808 809
188 189
710 711
62 63
602 603
824 825
1023 1022
94 95
521 522
862 863
638 639
443 444
108 109
741 742
502 503
192 191
161 162
385 384
970 971
131 130
785 784
66 65
330 329
127 128
242 243
92 91
621 620
638 637
221 220
934 933
1023 1024
823 824
1053 1052
380 381
762 763
866 865
775 776
167 166
468 469
641 640
880 881
143 144
673 674
486 487
924 923
541 542
906 907
380 379
918 919
131 132
88 87
834 833
780 781
504 503
147 148
341 342
630 631
1004 1005
358 357
311 310
12 13
252 251
1070 1069
622 621
67 68
25 26
931 930
200 199
69 68
555 554
753 752
563 564
449 448
508 507
535 536
46 45
679 678
735 736
1045 1044
651 650
802 803
10 9
54 55
203 202
569 570
123 122
820 819
958 959
166 165
1014 1013
298 299
783 782
388 389
437 438
335 336
872 873
777 778
618 619
310 309
1054 1053
618 617
203 204
415 416
988 987
1057 1058
19 18
420 419
155 156
703 702
653 654
234 233
333 334
937 938
22 21
65 64
790 789
105 106
485 486
456 455
766 765
235 234
973 974
843 844
470 471
56 55
844 845
388 387
3 4
769 768
411 410
719 720
745 744
197 198
491 492
645 644
1074 1073
510 509
37 36
611 610
679 680
186 187
927 928
840 839
544 545
320 321
608 607
207 206
606 607
695 694
118 119
660 659
888 887
210 211
614 613
495 494
944 945
226 225
953 952
279 278
690 691
764 765
90 89
200 201
620 619
632 633
19 20
884 883
341 340
690 689
535 534
3 2
70 71
491 490
612 613
957 956
295 294
238 237
594 595
671 670
686 687
442 443
1055 1054
154 153
133 134
368 367
856 855
764 763
651 652
596 595
921 922
665 664
281 282
644 643
874 873
666 667
538 539
165 164
585 586
132 133
350 351
509 508
1042 1043
7 1
177 178
533 532
848 847
897 896
635 636
586 587
129 128
553 554
427 426
1036 1035
355 356
775 774
825 826
894 893
901 6
670 669
365 366
547 546
397 398
1002 1003
320 319
745 746
823 822
751 750
256 255
252 253
761 760
244 243
318 317
198 199
44 43
346 345
212 213
282 283
1000 1001
454 455
326 325
29 30
766 767
875 876
97 98
514 515
171 172
626 625
208 207
232 233
917 918
914 913
942 943
75 74
479 478
139 138
510 511
478 477
992 993
262 263
649 650
223 224
81 80
1000 999
351 352
916 917
886 887
627 626
704 705
712 711
262 261
877 878
560 559
109 110
570 571
581 582
800 799
583 584
578 577
907 908
307 306
532 531
182 181
871 872
230 231
1056 1057
903 902
725 726
267 268
803 804
394 393
707 706
475 476
247 246
1020 1019
517 516
175 174
361 362
215 216
387 386
757 756
56 57
274 275
689 688
828 827
809 810
214 215
112 111
467 468
673 672
120 121
244 245
101 100
461 460
348 347
170 169
47 48
691 692
953 954
1059 1060
936 937
145 146
603 604
59 60
781 782
998 997
1015 1014
124 125
990 991
1007 1008
943 944
402 401
791 790
716 715
727 728
701 702
142 141
889 888
370 371
984 985
879 880
469 470
102 101
1047 1046
171 170
393 392
37 38
784 783
733 734
412 411
518 517
750 749
246 245
412 413
684 685
890 891
1001 1002
323 322
1030 1031
562 561
987 986
940 941
906 905
980 981
655 656
22 23
916 915
972 971
950 951
404 405
182 183
991 992
512 513
871 870
190 189
253 254
205 204
920 919
407 408
386 385
11 12
793 794
81 82
400 401
830 829
31 32
429 428
876 877
800 801
811 810
801 802
17 18
1077 1076
996 995
1031 1032
337 336
305 306
169 168
678 677
452 453
629 630
490 489
285 284
901 902
84 83
301 302
861 862
984 983
739 740
747 746
693 692
434 435
11 10
730 731
850 849
968 969
773 772
686 685
103 102
453 454
523 524
975 976
565 566
162 163
497 496
930 929
375 376
442 441
464 465
475 474
994 995
458 457
1048 1047
7 8
82 83
961 960
859 858
729 728
225 224
471 472
70 69
280 281
416 417
159 158
153 152
381 382
854 853
437 436
1009 1008
865 864
760 759
882 883
584 585
240 239
590 591
1043 1044
305 304
363 362
183 184
576 577
725 724
648 647
771 770
997 996
378 377
723 724
35 34
135 134
1058 1059
150 151
361 360
667 668
272 271
874 875
259 258
448 447
787 788
316 315
219 218
342 343
316 317
427 428
756 755
527 528
8 9
441 440
337 338
423 422
754 755
970 969
482 481
569 568
488 487
817 818
669 668
235 236
499 500
982 981
659 658
463 462
565 564
1071 1072
798 799
897 898
1076 1075
722 5
646 645
297 296
658 657
97 96
457 456
335 334
4 5
49 48
481 480
787 786
1064 1063
818 819
180 181
629 628
717 716
223 222
461 462
286 287
641 642
815 816
145 144
935 936
266 265
123 124
589 590
731 732
861 860
575 576
911 912
556 557
325 324
1078 1079
683 682
761 762
551 552
909 908
406 405
347 346
327 328
175 176
525 524
662 663
302 303
519 518
926 927
999 998
359 360
540 541
374 373
548 547
250 251
94 93
538 537
634 633
130 129
241 240
424 425
15 16
459 458
857 856
817 816
694 693
460 459
1051 1052
231 232
390 389
574 573
315 314
483 484
14 15
227 228
498 499
806 805
828 829
703 704
1029 1028
721 720
697 696
408 409
489 488
464 463
664 663
732 733
695 696
112 113
597 596
392 391
740 741
230 229
1061 1062
581 580
914 915
723 722
754 753
520 519
269 268
421 422
796 795
173 172
167 168
122 121
593 592
1013 1012
909 910
482 483
885 884
671 672
404 403
821 820
1010 1011
113 114
276 275
588 589
804 805
924 925
156 157
5 6
941 942
1066 1067
709 710
33 34
932 931
3 364
973 972
157 158
88 89
759 758
558 557
137 138
257 256
571 572
439 438
653 652
550 551
308 307
912 913
193 192
331 332
949 948
28 27
466 467
333 332
116 117
748 747
484 485
938 939
211 212
371 372
291 290
1046 1045
51 50
272 273
727 726
313 312
515 516
136 135
892 891
227 226
978 977
592 591
867 868
396 395
90 91
368 369
758 757
161 160
398 399
520 521
688 687
506 505
882 881
826 827
20 21
79 78
314 313
250 249
52 53
284 283
432 433
957 958
639 640
147 146
964 963
929 928
297 298
835 836
301 300
841 842
748 749
922 923
806 807
384 383
899 898
654 655
80 79
744 743
201 202
75 76
58 57
285 286
390 391
434 433
835 834
601 600
444 445
107 108
832 833
1007 1006
531 530
329 328
312 311
572 573
838 837
742 743
968 967
295 296
41 42
155 154
450 451
377 376
210 209
821 822
150 149
1056 1055
43 42
512 511
1030 1029
737 738
1038 1037
598 599
430 429
370 369
354 355
185 2
164 163
605 604
1027 1026
1037 1036
926 925
118 117
707 708
100 99
504 505
414 415
479 480
1019 1018
792 791
700 699
903 904
543 4
255 254
195 196
340 339
350 349
115 116
426 425
501 502
95 96
241 242
831 832
988 989
712 713
300 299
274 273
849 848
533 534
675 674
345 344
562 563
439 440
1033 1034
840 841
496 495
718 719
322 321
247 248
709 708
738 739
777 776
424 423
194 193
222 221
600 599
593 594
73 72
867 866
513 514
1067 1068
839 838
24 23
666 665
779 780
185 186
946 947
264 263
92 93
698 697
103 104
885 886
228 229
578 579
904 905
338 339
1188 4 329
538 539
75 74
850 851
1043 1044
1054 1055
346 345
889 890
118 119
387 388
614 613
976 977
592 593
405 406
31 32
682 683
702 701
353 354
756 755
23 24
661 660
982 983
434 433
654 653
813 812
1131 1132
769 770
41 40
1079 1080
981 982
792 791
492 491
867 866
869 870
795 796
656 655
888 889
796 797
1123 1124
423 422
518 517
455 454
676 675
998 997
898 899
779 780
286 287
1159 1160
917 918
34 33
73 72
342 343
431 430
726 725
916 915
1179 1178
267 266
1167 1168
185 186
1048 1047
695 696
948 947
639 638
23 22
996 995
522 523
191 192
1119 1118
1048 1049
1055 1056
975 976
17 18
98 99
511 512
303 302
316 317
1116 1115
1047 1046
396 395
868 869
376 377
155 154
333 334
650 649
973 972
48 49
986 987
196 195
366 367
275 274
507 508
434 435
647 648
1041 1042
289 288
239 238
598 599
849 848
1081 1082
56 55
968 967
614 615
1064 1063
782 783
125 124
527 528
583 582
190 191
148 147
78 77
54 53
52 51
1105 1106
609 608
622 623
282 281
935 936
581 582
630 629
1124 1125
635 636
206 207
713 714
38 39
441 442
1142 1143
537 538
277 278
684 683
101 100
480 481
235 234
308 309
83 82
356 355
518 519
127 126
306 307
1094 1095
702 703
373 372
958 959
898 897
381 382
999 998
680 681
447 446
385 386
750 749
349 350
1109 1108
713 712
1098 1097
263 262
226 225
431 432
432 433
970 971
348 347
1016 1015
1001 1002
979 980
1152 1153
488 487
320 319
219 220
662 663
445 444
14 15
849 850
1018 1019
1033 1032
767 768
882 881
1182 1183
183 182
245 246
1112 1111
778 779
1 2
485 486
100 99
851 852
790 789
1143 1144
133 134
304 303
49 50
1097 1096
4 598
579 578
480 479
798 799
437 436
652 653
283 282
355 354
154 153
740 739
10 9
22 21
336 337
1176 1177
821 820
273 272
1014 1013
1002 1003
775 774
374 375
499 498
325 324
264 263
6 1
855 854
345 344
233 234
1089 1088
3 2
113 112
399 398
896 895
1031 1030
1113 1114
663 664
257 256
718 717
1075 1076
953 952
694 693
535 536
585 586
752 753
153 152
129 128
855 856
828 829
928 929
857 856
539 540
298 299
975 974
804 805
1103 1104
384 385
1064 1065
647 646
781 782
738 737
807 806
830 829
162 161
145 146
787 788
558 559
692 693
925 926
43 44
340 341
391 392
256 255
691 692
747 746
547 548
885 886
440 441
479 478
397 398
105 106
451 450
601 600
64 65
884 883
28 27
1130 1131
734 733
818 817
708 709
725 724
826 827
605 604
1001 1000
67 68
560 561
1187 1188
1089 1090
46 47
482 481
420 421
510 511
823 824
114 113
307 308
145 144
822 823
1117 1116
294 295
645 644
1173 1172
251 250
805 806
1023 1024
415 414
408 409
809 810
878 877
883 882
121 122
1059 1060
164 165
701 700
711 710
353 352
969 970
512 513
637 638
731 730
493 494
312 311
516 515
886 887
224 225
1050 1049
1135 1136
217 218
580 579
515 514
615 616
588 589
159 158
340 339
758 757
526 527
1036 1035
1091 1090
841 840
198 197
545 546
735 734
29 30
464 465
800 799
1178 1177
994 995
389 388
544 545
452 451
862 863
363 362
812 811
162 163
473 474
1171 1172
489 490
957 956
16 17
416 417
586 587
142 141
1148 1149
244 245
727 728
956 955
590 591
706 705
1063 1062
91 90
29 28
632 633
605 606
357 356
484 485
26 27
576 575
1015 1014
43 42
84 83
760 761
166 165
466 465
443 442
1183 1184
797 798
305 306
949 948
905 904
1077 1076
590 589
204 2
859 858
613 612
728 729
1114 1115
383 382
1167 1166
120 121
133 132
558 557
923 924
784 785
966 967
565 566
897 896
641 640
8 7
108 107
1120 1119
1099 1100
513 514
873 874
399 400
19 18
444 443
1163 1164
504 503
295 296
1170 1171
330 331
362 361
1101 1102
34 35
1071 1070
428 427
1185 1184
270 269
1168 1169
872 871
1036 1037
903 902
630 631
1101 1100
751 750
792 793
1073 1072
942 943
60 61
72 71
352 351
287 288
135 134
876 875
456 457
555 554
633 634
836 835
189 190
712 711
787 786
1044 1045
665 666
670 671
688 689
45 46
168 169
899 900
76 75
92 93
175 176
378 377
802 803
922 923
764 763
5 6
834 833
315 314
62 63
102 103
1102 1103
214 215
92 91
268 267
874 875
853 852
117 118
603 602
268 269
530 531
1043 1042
1023 1022
1086 1085
499 500
391 390
449 448
387 386
41 42
1123 1122
668 667
519 520
1154 1153
905 906
50 51
227 226
394 393
389 390
139 140
1073 1074
505 504
843 842
695 694
1165 1164
152 151
943 944
1134 1133
530 529
1046 1045
411 412
704 705
1138 1137
1083 1084
1052 1053
844 843
498 497
532 531
1175 1174
212 213
533 532
150 149
1146 1145
808 807
999 1000
937 936
624 623
231 230
555 556
601 602
320 321
119 120
411 410
659 658
116 115
335 336
424 425
244 243
297 296
85 86
737 736
1166 1165
58 57
471 472
253 254
949 950
1004 1005
477 478
766 765
233 232
1057 1058
160 161
348 349
210 211
777 778
674 675
977 978
715 714
248 247
567 566
838 837
1024 1025
106 107
283 284
53 52
820 819
157 158
252 251
131 130
489 488
888 887
438 437
1054 1053
525 524
739 738
1140 1141
1110 1109
704 703
77 76
208 207
483 484
971 972
606 607
720 719
4 5
379 380
543 544
89 88
178 179
818 819
628 629
59 58
1120 1121
569 568
1148 1147
414 413
194 193
649 648
1130 1129
1006 1005
958 957
610 609
918 919
621 622
497 496
174 175
502 501
1022 1021
104 105
556 557
1091 1092
732 731
645 646
326 325
116 117
1070 1069
620 619
893 894
978 979
1146 1147
863 864
316 315
466 467
470 471
543 542
771 772
784 783
962 963
836 837
1017 1018
66 65
181 182
913 914
114 115
981 980
945 944
319 318
1128 1129
164 163
879 880
685 686
172 173
757 756
495 494
200 201
1093 1094
913 912
290 289
988 989
716 717
860 859
237 238
528 529
174 173
285 284
13 12
786 785
681 682
506 505
196 197
740 741
151 150
302 301
460 461
815 814
847 846
625 626
383 384
209 210
727 726
903 904
699 700
881 880
814 813
156 157
136 135
261 260
1031 1032
1154 1155
426 427
815 816
102 101
563 564
537 536
68 69
428 429
369 368
292 293
908 907
922 921
564 565
715 716
344 343
666 667
945 946
1009 1008
294 293
95 94
853 854
1040 1041
643 644
66 67
463 464
552 553
436 435
300 299
1187 1186
641 642
1127 1128
569 570
476 477
831 830
994 993
546 547
205 206
1083 1082
801 800
640 639
773 772
801 802
64 63
688 687
260 259
364 363
80 79
523 524
509 510
1125 1126
729 730
768 769
1152 1151
927 926
985 986
380 381
689 690
468 467
221 220
127 128
1126 1127
125 126
637 636
754 755
664 665
526 525
1074 1075
291 290
5 795
540 541
669 668
748 747
169 170
1034 1035
108 109
1038 1039
894 895
989 990
365 364
522 521
258 257
195 194
25 26
137 136
255 254
408 407
604 603
634 635
458 457
395 394
1037 1038
240 239
997 996
929 930
370 371
1142 1141
745 744
332 333
553 554
111 110
448 447
933 932
1133 1132
1185 1186
953 954
857 858
628 627
202 203
304 305
940 941
678 679
137 138
891 890
780 781
1181 1182
1106 1107
1009 1010
208 209
825 824
328 327
1084 1085
934 933
188 187
279 278
1007 1008
1088 1087
708 707
35 36
501 500
1156 1157
534 535
1050 1051
60 59
422 421
1057 1056
1003 1004
371 372
12 11
1079 1078
1156 1155
1051 1052
143 142
931 930
281 280
563 562
313 312
326 327
1007 1006
264 265
573 572
460 459
761 762
1139 1140
698 699
753 754
835 834
313 314
550 551
617 616
1159 1158
370 369
983 984
78 79
1066 1065
491 490
932 931
920 919
722 723
475 474
297 298
775 776
198 199
1033 1034
909 908
1176 1175
1066 1067
917 916
266 265
200 199
236 237
292 291
938 937
865 866
924 925
184 185
912 911
155 156
366 365
1095 1096
1108 1107
350 351
37 38
146 147
475 476
576 577
1110 1111
776 777
401 3
914 915
31 30
560 559
584 583
410 409
184 183
222 223
1072 1071
89 90
235 236
180 179
1030 1029
230 229
97 96
229 228
570 571
771 770
227 228
171 170
249 250
403 402
240 241
791 790
461 462
216 215
697 698
446 445
1086 1087
334 335
816 817
274 273
176 177
7 1
847 848
470 469
743 744
826 825
167 166
1016 1017
840 839
759 760
610 611
877 876
1058 1059
1173 1174
642 643
946 947
1160 1161
811 810
657 658
759 758
144 143
939 938
592 591
966 965
541 542
844 845
749 748
310 311
584 585
493 492
1011 1012
822 821
1080 1081
867 868
763 762
14 13
337 338
709 710
941 942
180 181
204 205
1068 1069
167 168
686 687
964 963
697 696
968 969
571 572
618 617
9 8
253 252
672 671
242 241
684 685
392 393
219 218
1029 1028
141 140
280 279
789 788
964 965
96 95
549 550
767 766
440 439
19 20
902 901
189 188
676 677
597 596
1104 1105
323 324
347 346
1025 1026
301 300
656 657
61 62
873 872
808 809
1040 1039
721 720
599 600
879 878
285 286
138 139
1019 1020
746 745
379 378
247 246
430 429
56 57
677 678
84 85
607 608
1161 1162
112 111
1179 1180
719 718
232 231
419 418
652 651
959 960
449 450
1028 1027
722 721
396 397
417 418
992 993
1150 1151
549 548
148 149
961 960
261 262
985 984
1099 1098
213 214
991 990
690 691
1027 1026
906 907
216 217
954 955
426 425
33 32
124 123
74 73
358 357
893 892
521 520
846 845
339 338
1013 1012
1060 1061
588 587
507 506
827 828
109 110
508 509
407 406
567 568
97 98
404 403
706 707
132 131
122 123
223 224
10 11
574 575
317 318
360 359
935 934
1180 1181
774 773
39 40
1136 1137
742 743
222 221
660 659
619 618
193 192
104 103
55 54
1144 1145
1138 1139
71 70
655 654
892 891
412 413
864 865
1134 1135
419 420
551 552
673 674
661 662
6 992
870 871
884 885
322 321
733 732
595 596
974 973
415 416
16 15
679 680
212 211
130 129
736 735
672 673
860 861
502 503
463 462
910 911
405 404
310 309
376 375
276 275
1158 1157
861 862
4 3
741 742
1077 1078
950 951
832 833
765 764
272 271
632 631
322 323
611 612
277 276
402 401
330 329
921 920
1150 1149
901 900
910 909
271 270
593 594
178 177
1067 1068
1061 1062
573 574
358 359
624 625
793 794
453 454
517 516
423 424
651 650
1093 1092
1170 1169
87 86
249 248
562 561
160 159
1021 1020
988 987
80 81
259 258
187 186
533 534
939 940
487 486
202 201
831 832
24 25
88 87
804 803
47 48
952 951
36 37
839 838
1112 1113
332 331
841 842
341 342
621 620
94 93
594 595
458 459
328 329
453 452
81 82
961 962
44 45
473 472
669 670
626 627
1117 1118
1163 1162
580 581
495 496
577 578
373 374
455 456
21 20
172 171
70 69
1122 1121
482 483
368 367
928 927
439 438
752 751
1011 1010
243 242
469 468
360 361
724 723
1084 1 983
909 908
180 179
114 115
440 439
139 138
326 327
642 643
329 330
300 299
85 86
761 762
646 645
699 700
369 368
531 532
758 759
741 742
352 353
138 137
181 182
507 508
582 581
658 657
810 811
149 148
249 248
133 134
829 830
457 456
922 923
121 122
384 385
675 676
596 597
695 696
935 934
458 459
155 156
891 890
165 164
771 772
511 510
809 810
436 435
991 990
563 562
517 518
824 823
285 286
738 737
203 204
35 34
237 236
631 630
367 366
728 729
500 499
531 530
1040 1041
68 69
242 241
940 939
328 329
557 558
281 280
128 129
902 901
430 431
230 231
696 697
320 321
887 888
763 762
235 236
654 655
605 604
84 85
22 23
807 808
304 305
666 667
483 482
907 908
116 117
976 975
861 862
542 543
1025 1024
552 551
861 860
877 878
760 761
111 112
974 973
608 607
41 42
882 883
989 990
394 393
443 442
371 372
586 587
281 282
683 684
938 937
1049 1050
410 409
400 401
514 513
347 346
239 238
802 803
70 69
933 934
666 665
240 241
428 429
547 546
167 168
418 419
578 577
940 941
958 957
420 421
717 718
332 333
1044 1045
893 894
247 246
749 750
289 288
441 442
1054 1055
150 149
492 493
789 788
1051 1052
135 136
125 126
853 852
82 81
522 523
656 657
703 702
80 79
957 956
1074 1075
805 804
147 146
763 764
571 570
769 768
855 854
1069 1068
1083 1082
681 680
83 82
866 867
433 434
210 209
911 910
1055 1056
1067 1068
228 227
932 933
1039 1040
395 396
14 15
196 195
834 833
971 972
305 306
1076 1077
427 428
703 704
268 269
1065 1064
516 515
899 900
939 938
648 649
643 644
180 181
108 109
476 475
324 325
929 930
790 791
99 98
872 871
128 127
221 222
715 716
1073 1074
66 67
591 592
10 11
632 633
158 157
40 41
682 681
1006 1005
837 838
784 785
948 947
936 937
327 328
989 988
512 513
338 339
461 460
721 722
926 925
495 494
949 950
220 221
191 190
374 373
313 312
691 692
100 99
163 162
884 885
358 359
80 81
967 966
753 754
829 828
614 613
522 521
174 175
484 485
147 148
676 677
469 468
746 747
151 152
561 562
255 256
726 725
570 569
897 898
302 303
1070 1069
479 480
606 607
384 383
120 119
470 469
834 835
553 554
618 617
755 754
354 355
852 851
1030 1031
97 96
196 197
261 260
817 816
224 223
1025 1026
489 490
365 366
435 434
905 906
303 304
477 478
197 198
659 660
265 264
272 273
414 415
264 263
1047 1048
171 172
189 190
928 927
1008 1009
1050 1051
915 914
1083 1084
150 151
168 169
603 604
965 966
557 556
389 388
318 317
642 641
1081 1080
95 96
753 752
773 774
476 477
775 776
568 567
334 333
529 528
1010 1011
560 559
975 974
433 432
337 338
437 436
393 392
741 740
590 591
267 266
839 838
727 728
483 484
27 28
687 686
126 127
919 920
825 824
48 49
768 767
158 159
635 634
640 641
374 375
724 723
45 46
209 208
532 533
952 951
76 77
577 576
576 575
1036 1035
885 886
593 592
105 104
881 880
733 732
495 496
70 71
946 947
764 765
31 32
122 123
234 233
918 919
579 578
332 331
533 534
342 341
923 924
203 202
455 454
44 45
219 218
874 875
140 139
537 538
258 257
295 296
475 474
166 167
470 471
530 529
505 506
343 344
845 844
187 186
832 831
623 624
137 136
12 13
19 20
375 376
733 734
814 815
572 573
524 525
827 828
134 135
757 756
74 73
411 410
231 232
1067 1066
430 429
439 438
177 178
280 279
572 571
472 471
186 2
782 783
491 490
350 351
949 948
965 964
259 260
199 200
29 30
836 837
870 871
909 910
537 536
480 481
7 8
912 911
165 166
1001 1002
993 994
283 284
385 386
153 154
555 554
368 367
363 364
246 245
708 709
564 565
12 11
193 194
152 153
644 645
398 399
46 47
521 520
1029 1030
319 320
56 57
89 88
926 927
160 161
595 596
125 124
229 228
893 892
710 709
538 539
902 903
839 840
86 87
588 589
71 72
689 690
850 849
478 479
765 766
797 798
8 9
79 78
660 661
1032 1031
806 805
5 4
627 626
928 929
249 250
211 212
278 277
603 602
272 271
504 505
904 903
207 206
179 178
187 188
575 574
102 103
216 217
956 955
411 412
880 879
1015 1016
510 509
713 712
573 574
33 34
453 454
796 797
334 335
541 540
362 363
473 472
184 183
461 462
942 941
444 443
278 279
616 617
827 826
960 961
92 93
1004 1003
247 248
584 585
875 876
803 804
56 55
652 651
649 650
322 321
979 980
601 600
995 994
1028 1027
189 188
865 866
714 713
422 421
987 986
787 788
953 952
310 309
892 891
751 752
992 991
667 668
58 57
664 663
931 932
526 525
37 38
528 527
954 953
405 404
847 848
21 22
564 563
1003 1002
311 312
42 43
664 665
566 567
921 922
235 234
778 779
594 595
872 873
175 176
549 550
778 777
38 39
322 323
39 40
1007 1006
633 634
969 970
360 361
851 850
1023 1024
113 112
359 360
780 779
670 671
864 863
297 298
365 3
770 771
686 685
853 854
462 463
161 162
140 141
61 62
183 182
844 843
1023 1022
976 977
215 214
925 924
996 995
50 49
1020 1021
773 772
284 285
50 51
210 211
890 889
723 722
548 547
907 906
54 53
485 486
316 315
447 446
441 440
62 63
173 172
519 518
796 795
191 192
60 61
10 9
213 212
356 355
106 107
474 473
654 653
502 503
488 489
229 230
611 610
453 452
674 673
638 639
501 500
266 265
286 287
609 610
144 145
463 464
868 869
627 628
68 67
784 783
1011 1012
451 452
141 142
766 767
330 331
520 519
613 612
682 683
750 751
402 401
740 739
353 354
417 416
146 145
882 881
863 862
17 16
504 503
156 157
817 818
1037 1038
1009 1010
993 992
382 383
84 83
638 637
735 736
786 785
381 382
269 270
776 777
584 583
746 745
438 437
243 242
1013 1012
340 339
294 293
63 64
1079 1080
901 900
942 943
387 386
738 739
460 459
715 714
842 843
615 616
688 687
407 406
390 389
25 24
131 132
262 261
580 581
1063 1064
551 550
492 491
876 877
625 624
755 756
757 758
142 143
404 403
507 506
599 598
553 552
274 273
102 101
823 822
656 655
316 317
16 15
336 337
999 1000
1062 1063
980 981
357 356
120 121
731 730
869 870
786 787
802 801
405 406
674 675
390 391
707 708
718 719
1045 1046
311 310
413 412
1033 1034
629 628
60 59
690 691
511 512
618 619
841 842
794 795
376 377
705 706
1013 1014
198 199
58 59
91 92
388 387
176 177
588 587
402 403
398 397
986 985
1043 1044
679 678
427 426
808 809
422 423
847 846
694 693
481 482
336 335
408 409
301 300
185 184
944 945
52 51
1082 1081
494 493
226 227
988 987
813 812
431 432
90 89
955 954
370 371
282 283
792 791
548 549
448 449
983 982
848 849
223 222
662 663
255 254
420 419
705 704
444 445
895 896
698 699
392 391
204 205
306 307
97 98
1000 1001
1042 1041
1004 1005
688 689
323 324
684 685
144 143
725 5
747 748
516 517
72 73
207 208
969 968
400 399
692 693
963 964
1043 1042
585 586
896 897
37 36
104 103
970 971
1060 1059
721 720
24 23
314 315
701 700
105 106
213 214
818 819
90 91
195 194
108 107
820 821
95 94
589 590
268 267
559 558
219 220
117 118
621 620
100 101
352 351
670 669
583 582
539 540
87 88
206 205
417 418
1039 1038
465 464
997 996
609 608
447 448
894 895
380 381
545 4
835 836
243 244
678 677
560 561
745 744
423 424
619 620
307 308
1032 1033
288 287
856 857
414 413
76 75
729 730
488 487
867 868
487 486
277 276
415 416
1020 1019
132 133
313 314
917 918
1035 1034
426 425
116 115
1014 1015
1017 1016
790 789
612 611
130 131
544 543
270 271
840 841
111 110
673 672
701 702
775 774
1046 1047
653 652
17 18
899 898
446 445
262 263
915 916
358 357
55 54
27 26
920 921
308 309
129 130
913 912
258 259
671 672
289 290
534 535
878 879
972 973
536 535
171 170
1007 1008
963 962
743 744
1061 1062
238 237
646 647
408 407
831 830
931 930
346 345
650 651
943 944
118 119
1058 1057
711 710
734 735
224 225
124 123
579 580
301 302
2 1
1071 1070
253 254
846 845
707 706
629 630
621 622
598 597
793 792
600 599
1022 1021
883 884
3 2
668 669
1061 1060
232 233
978 977
1029 1028
524 523
110 109
78 77
916 917
816 815
396 397
984 985
1017 1018
1048 1049
218 217
508 509
997 998
636 635
340 341
93 94
292 291
173 174
1018 1019
800 799
858 859
1057 1056
951 950
781 782
1058 1059
450 449
19 18
296 297
526 527
811 812
201 202
856 855
637 636
349 350
615 614
801 800
967 968
695 694
1072 1071
274 275
626 625
293 292
163 164
759 760
496 497
568 569
748 749
806 807
743 742
731 732
215 216
20 21
75 74
497 498
253 252
378 377
450 451
864 865
661 662
245 244
35 36
256 257
711 712
946 945
606 605
466 467
3 4
66 65
546 545
857 858
226 225
736 737
348 347
859 860
905 6
515 514
983 984
1075 1076
29 28
295 294
825 826
200 201
326 325
1072 1073
556 555
717 716
814 813
379 378
1053 1054
465 466
935 936
370 369
349 348
780 781
252 251
456 455
1078 1079
914 913
343 342
250 251
720 719
13 14
114 113
26 25
978 979
458 457
160 159
6 5
33 32
345 344
1066 1065
679 680
982 981
43 44
299 298
770 769
960 959
361 362
1052 1053
1026 1027
395 394
601 602
380 379
541 542
64 65
799 798
7 1
697 698
502 501
565 566
821 822
291 290
631 632
30 31
47 48
959 958
425 424
639 640
998 999
1077 1078
192 193
648 647
372 373
961 962
499 498
874 873
155 154
275 276
52 53
467 468
832 833
727 726
658 659
593 594
622 623
819 820
6 1
888 889
1037 1036
887 886
794 793
169 170
319 318
240 239
851 1 8
612 611
510 509
651 650
80 79
511 512
597 598
408 407
532 531
764 763
123 124
239 238
580 579
585 586
76 75
485 484
264 263
177 178
432 431
807 808
674 673
354 355
400 401
163 164
768 769
429 430
768 767
17 16
545 546
790 789
267 266
550 549
284 283
608 609
296 297
194 195
720 721
87 88
555 554
125 124
813 812
592 593
296 295
599 600
369 368
484 483
251 250
515 516
434 433
389 388
790 791
704 703
364 363
839 838
723 722
402 403
234 235
746 747
537 538
529 530
1 7
141 140
87 86
207 206
618 619
409 408
570 571
154 153
11 10
848 847
829 830
785 784
522 521
181 180
820 821
183 182
188 187
143 144
261 262
369 370
553 554
783 784
26 25
104 103
390 389
835 834
350 351
743 744
379 378
678 677
246 245
368 367
496 495
220 219
445 446
504 503
557 556
801 802
302 301
90 91
336 335
312 313
83 84
663 664
584 583
43 44
272 271
553 552
659 660
424 423
30 31
16 15
835 836
586 587
192 193
214 215
787 788
445 444
152 153
837 836
38 37
480 479
520 521
433 432
686 685
311 312
392 391
305 304
733 734
415 414
382 381
698 697
213 214
206 205
355 356
74 73
730 729
387 388
778 779
669 670
438 439
462 463
29 30
288 3
776 777
257 256
837 838
225 224
716 717
310 309
28 29
170 169
122 121
467 468
93 94
305 306
760 761
170 171
216 217
800 799
624 625
564 565
303 304
585 584
713 714
770 769
151 150
536 535
495 494
172 173
726 727
462 461
800 801
655 656
2 1
106 105
534 535
571 572
576 577
72 71
164 165
828 827
466 467
216 215
513 512
487 488
453 454
363 362
74 75
190 189
472 473
490 489
566 565
67 68
367 366
514 515
225 226
252 251
660 661
100 101
253 252
809 810
158 159
271 270
13 12
121 120
404 403
196 197
514 513
551 550
127 126
317 318
342 341
741 740
474 475
527 528
519 518
58 59
652 653
45 46
208 207
155 156
102 103
815 814
470 471
774 773
36 37
288 289
442 441
184 183
566 567
577 578
794 795
140 139
691 692
218 217
618 617
747 748
168 169
44 45
66 65
534 533
695 694
348 349
397 398
841 842
194 193
490 491
846 847
796 797
570 5
538 539
712 713
675 676
439 440
393 392
327 326
340 339
256 255
510 511
81 80
464 463
443 444
650 649
61 60
819 820
561 560
326 325
504 505
477 478
487 486
459 458
605 604
404 405
526 527
396 397
486 485
526 525
541 542
109 110
724 723
809 808
323 324
606 605
52 51
176 177
840 839
827 826
158 157
753 754
562 563
437 438
59 60
136 135
205 204
118 119
385 386
218 219
450 451
503 502
286 285
603 604
171 172
133 132
765 764
197 198
644 643
610 611
669 668
86 85
615 614
750 751
615 616
693 692
421 422
165 166
674 675
395 396
291 292
743 742
746 745
78 77
697 696
150 149
282 283
740 739
300 299
23 24
812 811
413 414
694 693
147 148
353 352
708 707
125 126
189 188
364 365
372 373
329 328
789 788
688 689
472 471
138 139
541 540
815 816
667 666
280 279
298 297
506 507
596 597
753 752
391 390
185 184
220 221
166 167
772 773
115 116
302 303
709 710
1 6
276 277
33 32
684 683
38 39
144 145
410 411
286 287
443 442
787 786
27 28
637 636
681 682
354 353
102 101
160 161
104 105
350 349
794 793
351 352
377 376
322 321
833 832
750 749
192 191
413 412
665 664
35 36
381 380
658 657
361 362
548 549
266 265
421 420
110 111
162 163
4 429
798 797
10 9
112 113
431 430
665 666
34 35
799 798
731 732
558 557
678 679
82 83
662 663
634 633
607 608
629 628
529 528
221 222
641 640
122 123
342 343
465 464
578 579
629 630
120 119
543 544
595 596
661 662
307 306
729 728
637 638
817 816
423 422
226 227
128 127
238 237
400 399
772 771
407 406
372 371
748 749
782 783
523 522
132 131
738 737
417 416
759 758
42 43
776 775
734 735
345 344
644 645
47 48
614 613
211 212
337 336
108 109
648 647
705 706
670 671
228 227
780 781
270 269
646 647
190 191
8 9
598 599
735 736
281 282
658 659
851 850
338 337
242 243
159 160
547 546
51 50
47 46
519 520
99 100
680 679
724 725
456 455
719 720
556 555
210 209
601 600
377 378
275 276
409 410
560 559
274 273
70 71
696 695
57 56
63 64
208 209
285 284
317 316
672 673
840 841
313 314
114 113
434 435
774 775
247 246
436 437
643 642
671 672
319 320
818 817
676 677
333 332
134 135
240 241
293 292
828 829
465 466
78 79
411 412
334 333
468 469
632 631
347 348
361 360
267 268
229 230
446 447
785 786
419 420
701 700
384 385
721 722
117 116
688 687
14 13
320 321
477 476
248 249
575 576
231 232
365 366
651 652
738 739
718 719
181 182
265 264
331 332
478 479
198 199
196 195
77 76
589 590
155 154
14 15
347 346
360 359
730 731
630 631
756 757
707 706
594 593
613 612
588 589
502 501
453 452
88 89
211 210
690 689
683 682
260 261
3 4
315 316
203 202
830 831
152 151
291 290
574 573
543 542
823 822
795 796
395 394
243 244
491 492
568 569
272 273
481 482
825 826
417 418
454 455
58 57
258 257
714 715
176 175
114 115
601 602
262 263
523 524
755 756
268 269
244 245
493 494
65 64
374 375
539 540
3 2
17 18
744 745
308 307
516 517
426 425
488 489
425 424
20 19
248 247
298 299
85 84
240 239
461 460
52 53
174 175
148 149
224 223
5 4
805 804
711 712
40 41
648 649
2 147
607 606
174 173
7 8
21 20
131 130
92 91
129 130
687 686
380 379
255 254
728 727
581 580
203 204
824 825
98 99
371 370
331 330
322 323
551 552
849 848
621 622
654 655
25 24
22 23
428 427
309 308
236 235
476 475
708 709
667 668
61 62
415 416
591 592
107 108
762 763
70 69
242 241
782 781
732 733
449 448
128 129
767 766
330 329
778 777
620 619
622 623
254 253
141 142
483 482
544 545
635 634
624 623
325 324
41 42
293 294
258 259
639 640
334 335
95 96
717 718
572 573
736 737
5 6
628 627
532 533
358 357
582 583
229 228
508 507
805 806
33 34
382 383
803 804
595 594
725 726
757 758
112 111
356 357
134 133
588 587
54 53
497 498
500 499
327 328
300 301
31 32
394 393
223 222
82 81
54 55
807 806
96 97
234 233
459 460
374 373
765 766
180 179
21 22
780 779
48 49
18 19
319 318
581 582
435 436
638 639
633 632
200 199
187 186
702 701
167 168
506 505
474 473
94 95
602 603
508 509
536 537
457 456
49 50
518 517
703 702
498 499
616 617
771 770
107 106
146 145
844 845
398 399
715 716
792 793
249 250
711 6
89 90
818 819
185 186
69 68
561 562
343 344
451 452
493 492
698 699
656 657
626 627
142 143
280 281
295 294
72 73
275 274
814 813
755 754
426 427
98 97
137 136
375 376
548 547
591 590
162 161
564 563
310 311
635 636
156 157
802 803
233 232
834 833
386 387
200 201
447 448
63 62
751 752
832 831
201 202
289 290
314 315
418 419
761 762
760 759
690 691
345 346
93 92
646 645
822 821
625 626
680 681
620 621
358 359
792 791
66 67
212 213
609 610
845 846
742 741
138 137
524 525
406 405
260 259
530 531
559 558
338 339
480 481
117 118
40 39
810 811
278 279
237 236
699 700
497 496
705 704
277 278
231 230
843 842
458 457
568 567
849 850
469 470
340 341
56 55
823 824
402 401
384 383
843 844
12 11
654 653
179 178
441 440
449 450
642 641
500 501
26 27
574 575
684 685
1139 5 798
718 717
485 484
552 553
550 551
459 460
403 402
1117 1118
469 470
359 358
984 983
12 13
265 264
488 489
1032 1033
903 902
683 684
242 243
946 947
1005 1006
598 599
662 663
367 368
316 317
378 377
646 645
528 529
773 774
600 599
296 297
144 143
87 88
865 866
629 628
270 269
61 62
140 141
982 983
424 425
1031 1030
103 102
84 83
817 816
192 193
504 503
347 348
938 937
945 946
370 371
766 767
245 246
80 79
75 76
872 871
831 830
231 230
465 466
679 680
675 674
901 902
652 653
155 154
855 854
281 280
2 1
523 524
979 978
126 127
77 78
592 591
968 969
578 579
1049 1050
441 440
176 175
555 556
626 627
872 873
222 221
1014 1013
639 640
294 293
292 291
277 278
142 141
500 501
880 881
321 322
160 161
992 991
1077 1076
716 717
722 721
442 441
519 520
585 586
581 582
733 732
399 400
420 421
625 624
1096 1097
426 427
949 948
235 234
1051 1050
546 547
876 877
513 512
248 247
500 499
562 563
244 243
458 459
1092 1093
1135 1136
758 757
113 114
609 608
731 732
119 120
32 33
590 589
861 860
98 99
1132 1133
597 596
932 933
961 960
1073 1072
1034 1035
209 208
16 17
940 941
597 598
1022 1023
1105 1106
465 464
838 837
256 255
1084 1083
96 95
282 283
1091 1092
40 39
431 432
329 328
929 930
388 387
747 746
285 286
726 727
1018 1019
483 484
1103 1102
675 676
707 706
1123 1122
1009 1008
677 678
1013 1012
568 569
541 542
30 31
642 643
542 543
146 145
703 704
262 261
76 77
746 745
1134 1135
354 353
882 883
822 823
239 240
394 395
220 219
878 877
760 761
490 491
338 337
1056 1057
803 802
69 68
1128 1129
669 670
920 919
165 166
814 815
72 71
925 924
797 798
965 964
315 316
535 536
333 334
37 38
234 233
863 862
833 832
794 793
771 772
158 159
384 3
319 318
193 194
395 396
1078 1077
873 874
142 143
904 903
20 19
657 658
252 253
1028 1029
104 103
577 578
1126 1127
284 285
912 913
733 734
13 14
370 369
492 491
426 425
954 955
765 766
374 373
317 318
738 739
696 697
620 619
982 981
37 36
24 25
1002 1001
534 535
56 57
589 588
615 616
27 28
135 134
847 848
987 986
894 893
988 989
743 744
901 900
408 407
689 690
927 928
1021 1022
538 539
715 716
315 314
287 288
409 408
50 51
453 452
407 406
663 664
777 776
593 594
779 778
246 247
177 176
840 839
87 86
60 59
601 600
391 390
140 139
319 320
687 688
45 46
26 27
474 475
64 65
722 723
1065 1066
330 329
1035 1036
1114 1115
712 711
262 263
783 782
271 272
836 835
1097 1098
205 206
307 308
521 520
164 165
482 483
576 577
136 135
1081 1082
846 847
633 632
638 637
666 665
392 393
71 70
707 708
532 533
66 67
404 405
468 467
274 273
931 932
172 173
482 481
762 5
493 492
657 656
896 895
291 290
834 833
510 511
446 447
128 127
854 853
689 688
339 338
191 190
167 166
548 549
41 40
943 942
817 818
421 422
512 511
308 309
736 735
784 783
117 116
1106 1107
667 666
97 98
245 244
755 754
861 862
559 558
186 187
218 219
859 860
487 488
365 366
1039 1038
341 340
890 891
796 797
6 1
958 957
1136 1137
912 911
169 170
764 763
112 111
923 924
525 526
174 173
198 199
331 330
1116 1117
679 678
521 522
907 906
824 823
975 974
605 606
423 424
429 428
9 8
980 981
81 80
134 133
332 331
892 891
1099 1098
1102 1101
449 450
849 848
1134 1133
995 994
306 305
1054 1053
1124 1123
347 346
899 898
510 509
700 701
419 420
1089 1090
472 471
570 569
45 44
218 217
293 292
750 751
636 637
723 724
364 363
122 123
453 454
610 611
785 784
659 658
965 966
1101 1100
56 55
976 975
213 214
753 752
606 607
149 150
756 755
640 641
639 638
187 188
915 916
233 232
344 343
200 201
516 515
152 153
382 381
398 399
439 438
1124 1125
623 622
57 58
1017 1016
1079 1078
516 517
752 751
564 565
452 451
275 276
673 672
212 211
1004 1003
121 120
893 892
1128 1127
918 917
702 701
180 181
811 810
1119 1120
22 23
28 29
217 216
8 7
327 328
389 388
750 749
703 702
618 617
225 224
1064 1065
104 105
567 568
645 644
199 200
623 624
342 341
359 360
336 337
764 765
154 153
813 814
434 433
544 545
1074 1075
898 897
82 81
856 857
481 480
167 168
852 853
919 918
1108 1107
413 414
1021 1020
858 859
121 122
1122 1121
581 580
238 237
816 815
1075 1076
288 289
1031 1032
214 215
644 643
846 845
908 909
1019 1020
111 110
72 73
303 302
1096 1095
547 548
603 602
648 649
725 724
1112 1111
1067 1068
920 921
375 374
85 84
695 696
809 810
437 436
943 944
1104 1105
673 674
736 737
962 963
626 625
99 100
805 804
865 864
372 373
196 195
820 821
803 804
519 518
705 706
781 782
922 923
780 779
841 840
572 571
281 282
1116 1115
6 951
668 669
557 556
999 998
694 695
785 786
539 540
728 727
486 485
259 260
508 509
351 352
691 692
748 747
565 566
490 489
653 654
385 384
681 680
311 312
1110 1109
386 387
1039 1040
917 916
414 415
131 132
151 150
757 756
937 936
798 799
294 295
1130 1131
660 661
468 469
46 47
805 806
93 92
89 90
473 474
427 428
944 945
478 477
742 743
529 530
958 959
1070 1069
621 622
794 795
1048 1049
829 830
514 515
777 778
925 926
252 251
196 197
14 15
274 275
1131 1132
1006 1007
1103 1104
327 326
1005 1004
771 770
1057 1058
137 138
290 289
1095 1094
53 52
249 250
226 225
713 714
1015 1014
284 283
508 507
53 54
345 346
11 10
1062 1063
451 450
183 184
109 108
604 605
1085 1084
201 202
693 692
985 984
423 422
940 939
855 856
227 226
380 379
215 216
168 169
543 544
68 67
302 301
768 769
970 971
240 241
788 789
1052 1053
729 730
295 296
429 430
827 828
204 205
988 987
25 26
449 448
526 527
1007 1008
836 837
1017 1018
661 662
442 443
438 437
636 635
869 868
405 406
1086 1085
400 401
786 787
698 699
457 456
1026 1025
1118 1119
364 365
258 259
1113 1112
361 360
69 70
875 876
470 471
211 210
78 79
844 845
790 789
1088 1089
494 495
799 800
355 356
129 128
50 49
125 124
531 530
505 504
514 513
2 195
253 254
466 467
1011 1012
1108 1109
476 477
884 885
852 851
808 809
537 536
684 685
882 881
915 914
533 534
889 890
788 787
17 18
552 551
549 550
576 575
251 250
92 91
58 59
95 94
1063 1064
1000 999
813 812
305 304
310 309
19 18
905 904
162 161
439 440
601 602
573 574
184 185
1074 1073
1015 1016
461 460
1002 1003
1071 1070
74 73
705 704
34 33
825 826
268 267
139 138
1059 1060
726 725
323 322
664 665
986 985
480 479
682 681
362 363
375 376
107 108
1069 1068
1043 1042
908 907
409 410
43 42
1024 1023
198 197
300 301
54 55
391 392
667 668
676 677
571 570
971 972
559 560
210 209
796 795
753 754
710 711
157 156
85 86
933 934
527 528
863 864
634 635
631 630
1067 1066
1086 1087
952 953
585 584
773 772
446 445
248 249
939 938
1100 1099
618 619
993 992
931 930
647 648
960 959
389 390
1110 1111
16 15
63 64
942 941
612 613
462 461
631 632
236 235
362 361
620 621
561 560
228 227
697 698
1083 1082
434 435
699 700
336 335
573 4
540 541
63 62
687 686
312 313
366 367
1138 1137
974 973
650 649
563 564
775 776
21 22
300 299
628 627
20 21
48 47
991 990
473 472
306 307
185 186
182 183
682 683
11 12
588 587
497 498
124 123
741 740
884 883
1038 1037
503 502
100 101
3 2
97 96
1046 1047
557 558
979 980
670 671
964 963
900 899
867 866
1056 1055
181 182
603 604
607 608
990 989
650 651
921 922
555 554
149 148
595 594
538 537
486 487
978 977
954 953
1129 1130
641 642
342 343
967 966
691 690
164 163
1060 1061
479 478
792 791
734 735
271 270
507 506
41 42
494 493
159 160
609 610
417 416
888 889
826 827
1114 1113
221 220
208 207
832 831
255 254
842 841
1051 1052
879 880
413 412
402 401
170 171
807 808
567 566
372 371
174 175
1093 1094
887 888
1062 1061
834 835
1037 1036
349 350
758 759
995 996
256 257
1047 1048
718 719
807 806
849 850
517 518
592 593
659 660
694 693
332 333
39 38
431 430
1139 1138
43 44
969 970
455 456
83 82
928 929
1043 1044
745 744
9 10
265 266
368 369
303 304
415 416
1090 1091
894 895
75 74
352 353
130 129
524 525
616 617
351 350
204 203
228 229
457 458
742 741
887 886
93 94
655 656
738 737
583 584
977 976
654 655
935 934
851 850
5 6
496 497
280 279
496 495
712 713
869 870
476 475
266 267
272 273
418 419
522 523
868 867
802 801
1025 1024
118 117
775 774
792 793
633 634
144 145
340 339
843 842
879 878
396 397
410 411
202 203
189 190
800 801
212 213
905 906
230 229
767 768
261 260
709 708
583 582
910 911
498 499
356 357
1033 1034
874 875
171 172
1026 1027
156 155
611 612
729 728
651 652
1044 1045
223 222
811 812
1071 1072
885 886
961 962
454 455
101 102
35 36
51 52
1081 1080
951 952
531 532
748 749
1058 1059
206 207
909 910
23 24
672 671
926 927
819 820
1046 1045
647 646
126 125
31 32
857 858
957 956
1079 1080
49 48
110 109
829 828
463 462
1010 1009
324 325
575 574
34 35
116 115
447 448
179 180
107 106
715 714
325 326
276 277
720 721
286 287
355 354
232 231
404 403
377 376
947 948
146 147
314 313
1030 1029
131 130
66 65
136 137
397 398
1001 1000
553 554
685 686
298 299
762 763
844 843
580 579
344 345
838 839
91 90
562 561
297 298
870 871
1027 1028
30 29
993 994
936 935
433 432
178 179
506 505
586 587
324 323
278 279
311 310
115 114
819 818
972 973
824 825
591 590
394 393
106 105
412 411
709 710
1088 1087
464 463
630 629
913 914
740 739
162 163
157 158
1055 1054
770 769
188 189
614 613
719 720
61 60
264 263
358 357
956 955
445 444
950 949
380 381
239 238
791 790
148 147
258 257
615 614
119 118
88 89
224 223
968 967
113 112
546 545
997 996
178 177
435 436
5 4
780 781
501 502
1121 1120
151 152
760 759
334 335
418 417
1040 1041
1010 1011
444 443
320 321
379 378
997 998
269 268
595 596
348 349
1 7
383 382
1126 1125
133 132
897 896
731 730
1041 1042
821 822
4 3
237 236
192 191
241 242
386 385
823 6 686
209 208
263 262
234 233
813 814
88 87
488 487
816 817
456 455
724 725
228 229
761 760
391 390
606 605
98 97
34 35
242 243
89 90
349 348
598 597
325 326
791 792
296 295
338 337
289 290
267 266
535 536
188 187
460 459
7 8
433 432
811 810
659 660
427 426
270 271
464 465
392 393
524 523
792 793
253 254
319 318
483 484
525 526
135 136
738 739
231 232
440 441
291 292
175 176
466 467
419 418
100 99
642 643
757 756
565 564
175 174
647 648
184 185
153 154
16 17
497 498
800 801
198 197
771 770
370 369
317 318
198 199
300 299
551 552
417 418
226 225
209 210
793 794
44 45
128 129
591 592
22 23
302 301
458 459
524 525
82 83
429 430
11 10
438 437
279 280
531 530
113 112
269 268
491 490
685 686
714 715
96 97
25 26
37 36
42 43
368 367
195 196
5 551
627 626
314 315
761 762
630 629
398 397
12 13
219 218
7 1
404 405
752 751
95 96
516 517
385 386
631 632
673 674
185 186
605 604
484 485
283 282
359 358
781 782
358 357
777 776
215 216
799 798
202 203
507 508
338 339
129 130
522 521
77 78
312 313
57 58
381 380
753 754
526 527
111 110
333 334
805 804
529 530
176 177
417 416
558 557
483 482
18 19
180 181
102 103
312 311
447 446
49 48
500 501
155 156
134 133
474 475
347 346
765 764
458 457
237 236
521 520
590 591
379 380
310 309
600 599
814 815
337 336
464 463
119 118
596 597
580 581
585 586
510 509
73 72
415 4
403 404
401 400
515 514
641 640
303 304
91 90
92 93
628 629
776 775
819 818
41 40
596 595
110 109
262 261
680 681
108 109
19 20
306 307
723 724
489 490
170 169
475 476
767 766
434 435
791 790
99 98
706 707
92 91
675 674
518 517
387 388
122 121
693 694
87 86
727 728
512 513
455 454
548 547
707 708
443 442
284 283
360 359
537 538
481 482
116 115
775 774
515 516
753 752
355 354
460 461
239 238
321 320
157 156
505 504
313 314
182 183
308 309
812 813
811 812
375 376
188 189
733 734
241 240
534 535
179 180
582 581
341 342
211 212
339 340
623 624
267 268
737 738
622 621
190 189
665 666
637 636
297 298
224 223
709 710
616 617
543 544
469 470
441 442
383 382
374 375
23 24
744 743
353 352
573 574
287 286
4 3
422 421
702 703
384 385
787 786
668 667
255 254
414 413
453 452
661 662
53 54
717 718
579 580
191 192
336 335
42 41
328 327
250 249
716 715
575 576
571 570
669 668
263 264
120 119
383 384
167 168
423 424
749 748
161 162
462 463
59 60
351 350
151 152
481 480
83 84
277 276
178 179
46 45
2 3
653 654
351 352
277 278
307 308
507 506
495 494
378 377
142 141
122 123
396 397
422 423
594 595
402 401
366 367
49 50
373 372
329 328
552 553
471 472
695 694
802 803
89 88
559 558
363 362
294 295
93 94
610 609
362 361
368 369
70 69
742 743
324 323
566 565
635 634
65 66
603 604
579 578
145 144
361 360
759 760
213 214
713 714
1 2
559 560
612 611
144 143
495 496
679 678
652 653
808 807
624 625
734 735
720 719
208 207
698 699
625 626
412 411
646 647
577 576
748 747
536 537
205 206
619 620
621 620
161 160
356 357
148 147
784 783
665 664
131 130
618 619
691 690
207 206
64 63
85 86
365 364
567 566
445 446
131 132
692 693
696 695
780 779
795 794
182 181
348 347
398 399
447 448
759 758
222 221
115 114
568 567
820 819
140 141
519 518
311 310
112 111
472 473
251 252
666 667
822 823
818 817
424 425
546 545
680 679
150 151
615 614
436 435
125 124
697 698
658 657
32 33
274 273
244 243
799 800
30 29
27 28
479 478
578 577
69 68
705 706
192 193
216 217
103 104
454 453
373 374
394 395
797 798
270 269
54 55
556 557
79 80
168 169
555 556
420 421
412 413
71 70
450 449
721 720
282 281
522 523
292 293
555 554
164 163
323 322
797 796
14 13
532 533
173 174
756 755
465 466
319 320
730 729
807 806
539 540
37 38
704 703
223 222
18 17
730 731
511 510
451 452
164 165
783 782
40 39
6 5
498 499
602 603
661 660
615 616
316 317
147 146
238 237
284 285
659 658
106 107
512 511
779 778
741 742
150 149
750 751
570 569
60 61
815 816
139 140
613 614
280 281
221 220
746 745
639 640
574 575
541 542
15 16
721 722
56 57
65 64
669 670
32 31
504 503
588 587
350 349
744 745
520 519
199 200
82 81
571 572
178 177
635 636
67 68
288 287
709 708
136 137
673 672
274 275
448 449
785 784
569 568
787 788
609 608
740 741
253 252
711 710
656 657
55 56
74 75
215 214
468 467
75 76
165 166
419 420
407 408
403 402
102 101
407 406
105 104
431 430
505 506
805 806
291 290
451 450
457 456
550 549
601 600
696 697
732 731
410 411
429 428
172 173
232 233
118 117
31 30
468 469
588 589
387 386
279 3
11 12
260 261
747 746
297 296
113 114
546 547
729 728
259 258
560 561
425 426
202 201
14 15
664 663
631 630
226 227
585 584
127 126
699 700
757 758
601 602
24 25
167 166
676 677
305 306
200 201
786 785
489 488
688 689
655 656
573 572
239 240
62 61
344 345
353 354
205 204
6 1
184 183
333 332
285 286
809 810
272 273
410 409
158 157
251 250
561 562
427 428
344 343
171 170
275 276
148 149
590 589
34 33
190 191
235 234
143 2
382 381
493 492
341 340
409 408
230 229
172 171
393 394
821 822
135 134
132 133
700 701
539 538
225 224
627 628
73 74
255 256
244 245
210 211
139 138
194 195
160 159
633 632
736 735
637 638
59 58
116 117
235 236
9 8
545 544
154 155
249 248
676 675
649 648
613 612
733 732
301 300
105 106
342 343
272 271
257 256
366 365
245 246
305 304
480 479
28 29
431 432
462 461
501 502
405 406
801 802
531 532
650 649
125 126
26 27
124 123
247 248
46 47
497 496
528 529
774 773
415 416
789 790
650 651
265 266
145 146
554 553
100 101
470 471
500 499
94 95
127 128
52 51
78 79
641 642
763 762
440 439
242 241
737 736
303 302
21 20
542 543
508 509
725 726
770 769
84 85
231 230
739 740
769 768
379 378
81 80
701 702
727 726
662 663
389 388
294 293
765 766
527 528
583 584
247 246
204 203
643 644
186 187
21 22
321 322
645 644
439 438
638 639
400 399
586 587
598 599
153 152
607 606
809 808
608 607
217 218
718 719
330 331
364 363
772 771
48 47
821 820
652 651
789 788
492 491
671 672
258 257
376 377
594 593
804 803
691 692
767 768
487 486
477 478
485 486
346 345
444 443
493 494
50 51
513 514
107 108
392 391
63 62
684 685
477 476
750 749
436 437
326 327
332 331
137 138
780 781
299 298
159 158
617 618
688 687
582 583
474 473
330 329
689 690
563 562
444 445
502 503
52 53
611 610
704 705
39 38
315 316
773 772
6 687
763 764
228 227
43 44
36 35
4 5
563 564
66 67
371 372
722 723
264 265
324 325
778 777
289 288
754 755
220 219
163 162
260 259
712 711
671 670
654 655
355 356
796 795
196 197
713 712
645 646
634 633
534 533
193 194
540 541
683 684
681 682
623 622
716 717
434 433
592 593
9 10
682 683
396 395
76 77
212 213
548 549
390 389
72 71
120 121
677 678
370 371
334 335
1027 5 819
395 396
396 397
238 237
801 800
610 611
370 371
610 609
952 951
586 587
729 730
974 973
181 182
175 176
297 296
223 224
322 323
472 471
970 971
806 805
142 141
981 982
976 975
645 644
28 29
171 172
883 884
645 646
581 580
218 219
460 459
328 327
5 6
469 470
745 744
372 373
571 570
762 761
279 280
191 190
937 936
963 964
38 39
543 544
308 307
78 79
378 377
732 733
101 100
614 615
212 213
935 934
864 863
44 45
329 330
82 81
588 587
552 553
742 741
882 881
1018 1019
756 757
450 451
463 464
877 876
709 710
364 363
768 769
64 65
674 673
762 763
128 127
680 681
378 379
816 817
541 542
752 753
350 349
316 315
529 528
452 451
54 53
915 916
80 81
139 140
279 278
367 368
369 370
1014 1013
529 530
802 801
934 933
891 892
313 314
754 753
760 761
715 716
503 504
588 589
13 14
510 511
189 190
42 43
576 575
973 972
948 949
943 942
786 785
134 135
660 659
808 809
932 933
177 2
714 713
247 246
291 290
455 456
249 250
489 488
491 492
855 856
499 500
624 625
462 461
216 215
247 248
564 565
681 682
220 221
404 405
982 983
27 26
571 572
520 521
732 731
344 343
69 70
1010 1011
657 656
358 359
618 617
686 685
249 248
992 991
13 12
366 365
915 914
620 619
672 671
476 475
407 406
621 620
132 131
911 910
306 307
143 142
899 900
77 78
790 791
705 706
1012 1013
894 893
88 87
401 402
352 353
390 391
844 843
532 533
627 628
678 679
600 601
413 412
276 277
200 201
723 724
622 621
326 327
612 613
605 606
921 922
438 439
818 817
330 331
1018 1017
687 688
539 540
119 118
658 659
519 520
862 863
365 364
1006 1007
57 56
649 650
265 264
999 1000
474 473
693 692
599 598
833 834
712 713
911 912
1015 1016
573 572
760 759
968 969
468 469
740 739
536 537
1008 1007
648 649
4 517
426 425
126 127
674 675
523 522
255 256
215 214
287 286
243 244
46 47
584 585
309 308
174 175
898 897
960 961
261 260
994 995
841 842
770 771
735 736
403 402
586 585
607 606
746 745
742 743
344 345
164 163
211 212
947 948
505 504
718 717
24 25
419 418
397 398
814 813
116 117
275 276
476 477
149 148
232 233
557 558
888 887
317 318
468 467
683 684
92 93
769 770
367 366
804 803
776 775
5 687
459 458
917 918
872 873
475 474
285 286
136 135
417 418
536 535
194 193
811 812
780 781
355 356
41 40
211 210
685 684
170 169
48 49
930 931
392 391
749 750
66 67
734 735
766 767
631 630
939 940
258 259
1020 1021
500 501
19 18
362 363
1023 1022
498 499
8 7
677 678
146 147
626 625
551 552
64 63
35 34
406 405
1015 1014
511 512
219 220
743 744
773 774
724 725
875 874
246 245
320 319
637 636
631 632
563 562
815 816
800 799
227 226
138 139
8 9
377 376
107 106
793 792
666 667
658 657
596 595
160 159
826 825
85 86
258 257
369 368
160 161
569 568
428 427
324 325
871 870
204 205
682 683
535 534
763 764
656 655
670 669
254 253
980 981
4 3
519 518
829 828
108 107
45 46
380 381
124 123
703 702
225 226
776 777
61 60
231 230
903 902
96 97
527 526
412 411
1 2
755 756
167 168
959 958
984 983
568 567
583 584
751 752
597 598
851 850
117 118
188 187
316 317
555 554
912 913
543 542
866 867
91 90
778 779
392 393
1023 1024
711 710
87 86
701 700
413 414
703 704
52 53
109 110
409 410
180 179
197 196
168 169
293 292
151 150
708 709
348 349
394 393
630 629
446 445
433 434
929 930
608 607
1004 1003
872 871
57 58
178 177
61 62
264 263
908 907
868 867
547 546
272 271
399 400
696 695
515 516
493 492
235 236
58 59
797 798
796 795
1010 1009
183 184
855 854
506 505
223 222
668 667
252 251
617 616
285 284
882 883
207 206
661 662
269 270
560 559
750 751
577 576
164 165
1 7
861 862
604 605
788 787
835 834
548 547
104 103
70 71
950 951
495 496
846 845
652 653
240 241
22 23
94 95
839 840
193 192
688 689
382 381
141 140
723 722
89 90
404 403
40 39
566 567
200 199
436 437
954 955
146 145
708 707
599 600
987 986
384 385
221 222
566 565
990 991
400 401
342 343
845 844
300 299
545 544
965 966
23 24
715 714
874 873
102 103
698 699
839 838
923 924
946 945
195 196
729 728
328 329
424 425
358 357
202 201
679 680
819 820
580 579
288 289
482 481
92 91
897 896
989 990
690 689
836 837
110 111
581 582
430 431
497 496
94 93
470 471
416 417
163 162
602 603
507 508
583 582
942 941
75 76
357 356
646 647
239 240
478 477
333 334
154 153
987 988
60 59
815 814
115 114
429 430
1 6
830 829
395 394
385 386
434 435
806 807
624 623
1020 1019
949 950
294 293
180 181
512 513
842 843
549 550
198 197
345 346
68 69
354 355
386 387
351 350
25 26
20 21
661 660
961 962
407 408
773 772
111 112
1025 1024
123 122
435 436
840 841
604 603
859 858
638 639
487 488
321 320
530 531
957 958
304 305
640 639
292 291
456 457
819 818
228 229
838 837
618 619
251 250
253 252
984 985
128 129
72 71
602 601
122 121
489 490
192 191
998 997
886 887
537 538
498 497
453 452
484 483
1002 1001
186 187
388 389
301 302
531 532
916 917
692 691
421 422
514 513
643 642
287 288
268 267
932 931
338 337
924 925
106 105
858 857
113 112
825 824
1011 1012
17 16
966 967
774 775
485 484
257 256
653 654
235 234
803 802
362 361
19 20
794 793
663 664
848 849
799 798
421 420
928 927
632 633
706 707
242 241
399 398
919 920
909 908
145 144
880 881
754 755
860 859
860 861
875 876
509 508
727 728
448 447
55 56
98 97
130 131
795 794
119 120
893 892
133 134
254 255
540 541
113 114
748 747
765 766
16 15
666 665
758 757
206 205
650 651
1025 1026
204 203
409 408
15 14
182 183
198 199
228 227
299 298
995 996
833 832
636 635
390 389
2 3
17 18
629 628
312 311
778 777
894 895
993 992
487 486
260 259
783 784
233 234
721 722
186 185
165 166
67 68
870 869
282 281
76 77
564 563
578 579
230 229
655 654
589 590
334 335
889 890
342 341
955 956
1004 1005
885 884
423 422
691 690
51 52
523 524
321 322
144 143
157 158
463 462
120 121
779 780
676 675
611 612
651 652
988 989
301 300
648 647
460 461
416 415
935 936
945 944
969 970
879 880
210 209
455 454
507 506
900 901
275 274
473 472
231 232
736 737
31 30
805 804
432 431
318 319
510 509
959 960
432 433
465 466
534 533
810 809
339 338
852 851
759 758
846 847
554 553
748 749
644 643
44 43
1026 1027
284 283
694 693
827 826
49 50
879 878
866 865
570 569
906 905
889 888
267 266
730 731
943 944
466 467
95 96
273 272
263 262
282 283
442 443
74 73
921 920
37 36
974 975
849 850
262 261
100 99
237 236
712 711
592 591
440 441
562 561
238 239
808 807
150 149
940 941
575 574
153 152
441 442
361 360
546 545
726 727
108 109
298 297
137 138
939 938
333 332
326 325
869 868
104 105
66 65
747 746
828 827
514 515
125 126
823 822
556 555
203 202
99 98
331 332
718 719
337 336
37 38
918 919
788 789
965 964
423 424
977 976
886 885
926 927
410 411
486 485
596 597
784 785
615 616
663 662
387 388
303 304
781 782
449 450
854 853
701 702
51 50
448 449
29 30
997 996
733 734
352 351
495 494
953 952
375 376
242 243
493 494
697 698
454 453
998 999
33 34
313 312
353 354
789 790
63 62
528 527
810 811
909 910
634 633
822 821
278 277
4 5
174 173
905 904
525 524
1001 1000
823 824
642 641
125 124
384 383
214 213
782 783
978 977
447 446
309 310
270 271
380 379
166 167
836 835
609 608
812 813
48 47
303 302
72 73
593 594
444 445
831 832
853 852
561 560
1008 1009
360 359
574 573
904 903
156 155
173 172
115 116
765 764
75 74
375 374
274 273
79 80
768 767
577 578
437 438
902 901
464 465
224 225
458 457
265 266
725 726
635 634
136 137
980 979
9 10
335 336
82 83
83 84
590 591
1021 1022
440 439
720 719
415 414
10 11
27 28
503 502
194 195
517 518
372 371
895 896
972 971
716 717
490 491
245 244
664 665
704 705
593 592
695 694
668 669
820 821
479 480
178 179
32 33
102 101
41 42
443 444
290 289
640 641
968 967
891 890
914 913
501 502
539 538
720 721
623 622
937 938
311 310
295 296
482 483
1005 1006
741 740
953 954
130 129
151 152
373 374
978 979
478 479
159 158
739 738
294 295
637 638
556 557
480 481
956 957
923 922
216 217
170 171
420 419
157 156
831 830
31 32
281 280
208 209
315 314
671 670
22 21
382 383
700 699
148 147
522 521
549 548
189 188
906 907
797 796
340 339
427 426
963 962
627 626
208 207
994 993
84 85
848 847
595 594
613 614
677 676
268 269
865 864
35 36
525 526
1017 1016
786 787
55 54
348 347
697 696
161 162
946 947
877 878
925 926
772 771
791 792
857 6
550 551
899 898
559 558
323 324
185 184
306 305
218 217
672 673
1003 1002
429 428
340 341
347 3
11 12
133 132
985 986
738 737
88 89
929 928
154 155
