45
1157 610 1134
840 841
607 608
775 774
1123 1124
939 938
268 269
263 264
750 751
716 715
713 712
72 73
717 716
128 129
278 279
565 566
593 592
1010 1011
99 100
809 808
894 895
177 178
522 521
278 277
1052 1053
444 443
419 420
376 375
374 373
457 458
1065 1064
162 161
568 567
596 597
945 944
1031 1030
747 748
292 291
952 951
81 82
383 384
45 44
828 827
745 746
1008 1009
705 706
244 245
541 542
1131 1130
826 825
957 956
1085 1084
1133 1132
1139 1140
131 132
628 627
1079 1080
523 522
1036 1037
784 785
99 98
22 23
215 216
1119 1118
1078 1077
149 150
1013 1014
498 497
1140 1141
966 967
875 876
1101 1100
603 602
1091 1092
381 380
686 687
585 586
827 826
868 869
785 786
391 390
1145 1144
33 32
1123 1122
74 73
4 3
191 190
1115 1116
80 81
252 253
16 15
629 628
123 124
513 512
379 380
685 684
1147 1146
972 971
107 106
646 645
298 297
764 763
896 897
467 466
570 569
51 50
334 333
199 200
962 963
1090 1091
1026 1025
798 797
169 168
120 121
274 273
232 231
243 244
933 932
667 668
394 393
935 936
928 929
638 637
246 247
131 130
1106 1107
576 577
565 564
230 229
431 430
223 222
236 235
1047 1046
431 432
1000 999
878 879
1084 1083
544 543
455 454
1086 1087
653 654
647 648
630 631
1024 1025
425 426
773 772
437 438
999 998
728 727
25 26
306 305
704 705
695 696
669 670
474 475
1151 1152
1093 1092
516 517
683 682
744 745
136 135
921 920
485 484
867 866
924 925
69 70
171 170
163 164
492 491
532 533
344 345
752 753
868 867
301 300
181 182
482 481
525 526
676 675
1105 1104
55 56
224 223
464 465
470 471
288 287
817 818
134 133
1117 1118
691 690
171 172
143 142
1057 1056
28 27
595 596
618 617
599 598
90 91
681 680
618 619
820 821
473 474
1071 1070
1143 1142
1111 1112
471 472
828 829
409 410
644 643
447 448
793 792
116 115
361 362
718 719
825 824
1135 1134
662 663
637 636
784 783
1018 1019
697 698
1074 1075
616 615
96 95
677 678
1098 1097
185 184
887 888
1132 1131
770 771
954 953
1059 1058
36 35
816 815
598 597
304 303
864 863
937 938
658 657
79 80
684 683
613 614
83 84
1047 1048
876 877
245 246
742 741
114 113
1097 1096
49 48
19 20
508 509
1040 1039
20 21
276 275
1149 1148
1009 1010
700 699
480 479
819 818
394 395
42 43
569 568
776 777
762 763
682 681
1057 1058
809 810
487 488
50 49
148 147
454 453
539 540
885 884
165 164
435 436
1001 1002
765 764
579 580
412 411
664 665
857 858
833 834
71 72
366 365
1121 1122
1149 1150
360 359
620 621
816 817
814 815
227 226
315 314
721 720
194 193
322 323
892 893
284 283
368 369
570 571
225 226
294 295
1128 1127
582 4
271 272
143 144
558 557
209 210
176 177
654 655
931 930
408 407
906 907
1028 1029
332 333
796 795
1015 1014
977 978
266 267
1102 1101
465 466
836 835
985 986
549 550
495 496
734 733
1012 1013
256 257
1044 1045
1061 1060
572 571
958 959
279 280
186 187
636 635
53 54
439 438
299 300
331 332
584 585
1024 1023
694 695
575 574
227 228
1144 1143
85 86
63 62
1099 1098
506 507
890 891
343 344
85 84
499 500
984 985
1043 1042
352 353
462 461
101 100
937 936
961 960
583 584
975 976
713 714
798 799
301 302
327 326
806 807
5 4
266 265
657 656
983 984
24 25
40 39
126 127
330 331
562 561
352 351
562 563
963 964
830 831
82 83
923 924
243 242
1027 1028
501 502
659 660
1142 1141
899 900
153 152
150 151
208 209
675 674
632 631
487 486
158 159
1056 1055
1035 1036
975 974
112 111
511 510
132 133
31 32
67 68
1022 1021
281 280
296 295
910 909
952 953
929 930
803 804
364 363
510 509
857 856
290 289
88 89
483 484
198 199
468 467
849 848
641 642
934 933
47 48
722 721
729 730
692 691
38 37
493 492
902 901
362 363
961 962
898 897
14 13
261 262
162 163
912 911
793 794
395 396
619 620
611 612
800 801
460 461
78 77
179 180
367 368
662 661
528 529
119 118
1003 1004
1117 1116
477 476
583 582
1070 1069
694 693
356 355
595 594
33 34
1065 1066
771 772
946 947
1012 1011
1054 1055
52 51
548 547
1020 1019
700 701
640 641
398 397
388 387
238 237
515 516
442 443
338 339
524 523
137 138
1155 1156
873 872
499 498
581 580
744 743
296 297
769 768
850 849
491 490
855 856
1096 1095
831 832
478 477
404 405
642 643
92 91
737 736
156 155
383 382
103 104
152 151
214 213
1114 1115
1081 1080
853 854
341 340
323 324
576 575
1148 1147
969 970
1005 1006
1033 1032
997 998
1064 1063
493 494
196 195
413 414
534 535
504 503
117 116
249 248
635 634
496 497
519 520
24 23
787 786
450 451
421 420
968 969
964 965
590 589
446 445
188 189
902 903
409 408
283 282
7 1
494 495
325 326
878 877
122 121
348 349
679 680
715 714
371 372
530 529
274 275
166 165
922 921
399 400
185 186
89 90
218 219
392 391
852 851
806 805
94 93
589 588
141 142
1051 1050
322 321
1153 1152
561 560
241 242
852 853
350 351
616 617
222 221
355 354
311 312
1113 1114
982 981
707 708
78 79
801 802
270 271
46 47
988 989
612 613
976 977
137 136
1100 1099
229 228
905 904
1119 1120
741 740
610 611
880 881
507 508
65 64
97 98
317 318
536 537
551 550
346 345
823 822
489 490
37 36
180 181
535 536
3 390
995 994
1156 1157
220 219
919 920
869 870
632 633
470 469
284 285
371 370
941 942
553 554
950 949
671 672
1040 1041
891 892
556 557
1027 1026
277 276
434 433
488 489
903 904
591 592
3 2
604 605
517 518
61 62
506 505
783 782
685 686
623 622
172 173
341 342
624 625
701 702
1072 1071
558 559
893 894
859 860
197 196
554 555
343 342
703 704
1059 1060
468 469
385 384
207 208
42 41
955 956
1138 1137
435 434
931 932
960 959
106 105
922 923
444 445
9 10
439 440
396 397
861 862
292 293
1049 1050
449 450
268 267
269 270
822 821
173 174
740 739
74 75
339 340
375 374
660 661
1038 1039
307 306
11 10
369 370
303 302
992 993
258 257
1133 1134
1001 1000
834 835
158 157
655 656
709 708
829 830
1086 1085
473 472
552 553
670 671
316 315
1068 1067
148 149
545 544
621 622
527 526
605 606
166 167
319 320
559 560
807 808
188 187
347 346
858 859
755 756
723 724
401 400
412 413
674 673
309 310
330 329
992 991
609 610
795 794
427 428
603 604
1088 1087
957 958
211 210
767 766
520 521
213 212
65 66
311 310
159 160
455 456
327 328
572 573
837 838
481 480
844 845
1007 1006
941 940
863 862
135 134
200 201
711 710
735 736
203 204
566 567
1031 1032
630 629
720 719
1078 1079
353 354
1017 1018
317 316
971 970
758 757
458 459
485 486
537 538
12 11
693 692
28 29
183 184
423 422
417 416
1125 1126
117 118
69 68
139 140
944 943
449 448
337 338
626 627
850 851
860 861
587 586
549 548
178 179
417 418
8 7
416 415
109 110
1124 1125
456 457
255 256
399 398
61 60
5 774
539 538
974 973
946 945
727 726
169 170
402 403
202 203
652 651
1068 1069
504 505
13 12
666 667
672 673
19 18
593 594
590 591
64 63
92 93
846 845
614 615
728 729
578 579
56 57
884 883
260 259
21 22
218 217
358 357
479 478
838 839
874 873
57 58
379 378
1034 1035
588 587
205 206
779 780
167 168
204 205
712 711
207 206
1102 1103
262 263
425 424
161 160
766 765
1127 1126
650 651
1045 1046
410 411
112 113
1044 1043
761 762
2 1
108 109
202 201
130 129
1107 1108
1021 1020
981 980
26 27
403 404
919 918
837 836
847 846
335 334
732 731
329 328
1145 1146
803 802
841 842
601 600
889 888
703 702
688 687
514 513
755 754
235 234
1042 1041
524 525
1072 1073
1 6
987 986
979 980
723 722
908 909
733 732
386 385
407 406
602 601
365 364
442 441
1030 1029
393 392
574 573
459 460
39 38
1038 1037
983 982
60 59
758 759
898 899
154 155
787 788
15 14
1110 1109
18 17
742 743
441 440
313 314
463 464
224 225
145 146
600 599
77 76
1077 1076
16 17
778 777
475 476
886 885
531 530
360 361
832 833
996 995
1017 1016
966 6
1082 1081
871 872
1103 1104
357 356
546 547
381 382
1135 1136
502 503
232 233
882 881
1002 1003
905 906
8 9
30 31
1082 1083
190 189
1154 1155
855 854
907 908
646 647
76 75
153 154
1004 1005
192 193
968 967
991 990
238 239
1007 1008
644 645
690 689
676 677
1105 1106
731 730
883 882
791 792
1110 1111
917 916
55 54
874 875
754 753
104 105
426 427
813 814
811 810
123 122
746 747
915 914
1113 1112
664 663
429 428
1094 1093
757 756
546 545
324 325
653 652
1154 1153
800 799
640 639
321 320
709 710
917 918
688 689
916 915
30 29
1052 1051
319 318
1054 1053
183 182
350 349
336 337
1088 1089
659 658
514 515
607 606
175 174
307 308
71 70
86 87
543 542
556 555
779 778
534 533
943 942
623 624
127 128
101 102
865 866
512 511
788 789
541 540
335 336
299 298
1033 1034
1136 1137
264 265
761 760
665 666
108 107
446 447
577 578
948 947
1108 1109
348 347
44 43
46 45
287 286
194 195
790 789
527 528
288 289
366 367
406 405
901 900
997 996
648 649
1022 1023
313 312
939 940
110 111
387 386
377 376
768 767
994 993
214 215
1090 1089
5 6
935 934
1094 1095
378 377
890 889
198 2
462 463
1067 1066
59 58
626 625
248 247
500 501
372 373
843 844
272 273
678 679
146 147
847 848
718 717
251 250
725 726
871 870
811 812
388 389
281 282
1130 1129
609 608
895 896
519 518
843 842
791 790
430 429
973 972
234 233
422 421
989 990
738 737
418 419
40 41
1015 1016
66 67
724 725
752 751
124 125
252 251
749 748
697 696
797 796
887 886
880 879
236 237
1062 1063
1076 1075
482 483
813 812
912 913
423 424
978 979
532 531
294 293
735 734
250 249
87 88
437 436
707 706
759 760
253 254
948 949
157 156
309 308
564 563
453 452
738 739
668 669
290 291
115 114
638 639
634 633
913 914
927 926
141 140
126 125
216 217
191 192
221 220
96 97
1061 1062
286 285
212 211
749 750
145 144
433 432
138 139
103 102
1150 1151
770 769
775 776
911 910
254 255
955 954
401 402
239 240
988 987
950 951
119 120
1129 1128
925 926
358 359
305 304
34 35
649 650
699 698
260 261
819 820
805 804
231 230
781 780
552 551
258 259
840 839
414 415
451 452
1048 1049
176 175
864 865
781 782
824 823
240 241
928 927
1120 1121
1139 1138
94 95
52 53
1073 1074
824 787 630
476 475
734 735
783 782
618 617
532 533
679 678
655 654
596 595
94 95
599 598
47 48
805 804
100 101
199 198
631 630
506 507
737 738
588 589
118 119
284 283
657 656
746 747
671 670
201 202
13 14
710 709
443 442
766 765
110 109
263 262
245 246
377 376
647 646
580 579
45 44
197 198
136 137
235 234
468 469
159 158
101 102
447 448
552 551
559 558
392 393
32 31
132 133
13 12
163 162
704 703
477 476
581 580
695 694
749 748
658 657
323 324
493 494
406 407
732 731
196 197
588 587
579 578
327 328
280 279
505 504
625 624
333 332
3 279
155 154
594 595
459 460
416 415
309 308
86 85
505 506
500 499
350 349
41 42
385 386
12 11
754 755
552 553
63 62
277 278
71 72
7 8
90 89
753 752
98 97
470 469
758 757
328 329
70 69
92 91
569 570
538 537
88 89
796 795
603 602
361 362
458 459
353 352
763 764
479 478
483 482
23 24
474 475
821 820
721 722
451 450
656 655
5 4
489 490
819 818
817 818
270 269
519 520
649 648
338 337
573 574
408 409
682 681
502 503
48 49
28 29
779 778
702 701
616 615
718 719
810 811
413 412
441 442
770 771
247 248
116 117
106 105
713 712
273 272
802 803
572 573
436 435
132 131
277 276
255 254
715 714
55 56
45 46
361 360
535 536
641 640
231 230
592 591
105 104
34 35
811 812
429 430
51 50
138 139
714 713
473 474
49 50
282 283
291 290
432 433
629 628
630 629
466 467
708 707
134 135
145 146
807 806
136 135
659 658
223 224
19 18
221 222
500 501
463 462
365 366
380 379
339 338
1 7
529 528
332 331
70 71
540 539
498 499
454 455
219 218
311 312
182 181
297 298
199 200
677 676
84 85
239 240
216 217
184 183
288 289
68 69
584 585
290 289
44 43
683 682
93 92
392 391
737 736
621 620
651 650
598 597
555 554
83 82
652 653
685 684
39 38
723 722
225 226
22 23
451 452
728 729
196 195
807 808
53 54
607 606
781 780
144 145
317 318
660 659
36 37
296 297
561 560
425 426
34 33
126 127
9 10
397 396
800 799
76 77
359 360
421 422
628 627
9 8
169 170
347 346
1 6
795 794
393 394
160 161
242 243
25 24
788 789
252 251
206 207
212 213
190 191
120 121
815 814
342 343
20 21
348 349
126 125
311 310
314 313
509 508
25 26
372 371
720 719
813 814
420 421
340 341
636 635
4 3
522 523
10 11
282 281
823 822
456 457
725 726
545 544
371 370
423 424
260 259
99 100
413 414
330 331
157 158
565 564
387 386
233 234
547 546
664 663
72 73
263 264
808 809
667 668
679 680
128 129
287 288
575 576
185 186
99 98
348 347
398 397
462 461
739 740
570 571
366 367
601 600
223 222
398 399
120 119
704 705
498 497
621 622
617 616
124 125
195 194
540 541
732 733
82 81
449 450
648 647
121 122
464 463
383 382
428 427
514 513
672 673
131 130
484 483
63 64
736 735
173 174
228 227
511 510
84 83
168 169
418 417
157 156
410 411
306 307
178 179
66 67
249 248
161 162
204 205
593 592
79 78
784 783
800 801
150 149
784 785
412 411
554 553
772 773
564 563
813 812
389 388
203 202
521 520
557 558
768 767
574 575
799 798
142 141
315 314
219 220
761 760
724 723
523 524
551 5
208 207
141 140
236 235
79 80
480 481
286 287
645 644
422 423
246 247
797 798
467 468
237 236
694 693
690 689
209 210
73 74
363 362
439 440
53 52
404 405
541 542
76 75
123 122
717 718
646 645
708 709
642 641
306 305
803 804
502 501
75 74
60 59
806 805
381 380
519 518
51 52
68 67
253 252
626 625
405 406
668 669
143 144
3 2
445 444
200 201
271 272
143 2
188 189
426 427
355 354
584 583
550 549
177 178
528 527
176 175
620 619
54 55
642 643
716 717
303 304
17 16
294 295
503 504
204 203
267 266
354 353
215 216
95 96
334 333
154 153
404 403
605 604
237 238
304 305
390 389
672 671
345 344
285 284
530 531
114 115
762 761
496 495
269 268
822 821
117 118
40 39
245 244
344 343
742 743
531 532
720 721
262 261
793 792
446 445
731 730
675 674
15 14
515 516
258 257
232 231
221 220
567 568
340 339
727 728
544 543
428 429
300 301
675 676
533 534
458 457
153 152
749 750
359 358
227 226
192 191
618 619
36 35
66 65
685 686
631 632
176 177
609 610
816 817
213 214
440 441
465 466
229 230
697 696
148 147
308 307
492 491
605 606
430 431
686 687
622 623
707 706
244 243
46 47
489 488
155 156
730 729
233 232
409 410
341 342
268 267
130 129
684 683
2 1
711 712
385 384
750 751
60 61
302 301
753 754
556 555
303 302
112 111
764 765
225 224
437 436
650 649
254 253
293 292
758 759
313 312
88 87
741 742
673 674
321 322
300 299
521 522
109 108
586 585
183 182
638 639
725 724
614 613
546 545
77 78
265 266
115 116
401 400
670 669
345 346
769 768
624 623
151 150
689 688
526 525
796 797
128 127
351 352
419 418
693 692
566 567
37 38
493 492
611 612
542 543
249 250
316 315
81 80
495 494
104 103
165 164
562 561
456 455
206 205
453 452
526 527
326 325
604 603
486 487
114 113
744 745
41 40
382 381
508 507
484 485
26 27
6 688
327 326
274 273
549 548
660 661
402 401
363 364
166 167
815 816
680 681
566 565
375 376
103 102
5 6
241 240
21 22
416 417
316 317
90 91
471 470
62 61
582 581
516 517
320 319
425 424
139 140
357 358
791 790
270 271
775 774
698 697
378 377
124 123
298 299
589 590
274 275
431 432
690 691
229 228
572 571
373 372
823 824
241 242
569 568
820 819
665 664
810 809
608 607
478 477
335 334
785 786
214 215
487 488
212 211
524 525
434 435
111 110
325 324
365 364
582 583
536 537
107 108
640 639
187 186
323 322
28 27
757 756
15 16
518 517
743 744
403 402
514 515
706 705
667 666
614 615
792 791
112 113
280 281
166 165
593 594
763 762
190 189
512 513
777 778
291 292
560 559
793 794
698 699
32 33
93 94
775 776
152 151
691 692
163 164
557 556
634 633
465 464
57 56
626 627
480 479
187 188
766 767
275 276
336 337
485 486
512 511
378 379
663 662
218 217
746 745
134 133
443 444
491 490
759 760
637 638
715 716
171 170
547 548
739 738
20 19
374 373
597 596
602 601
774 773
42 43
752 751
367 368
31 30
578 577
587 586
256 255
351 350
419 420
748 747
776 777
148 149
609 608
782 781
391 390
756 755
612 613
710 711
285 286
434 433
57 58
184 185
734 733
320 321
787 788
449 448
786 787
210 211
637 636
771 772
779 780
726 727
18 17
59 58
179 180
106 107
209 208
258 259
167 168
65 64
740 741
634 635
172 173
264 265
171 172
260 261
174 175
438 437
790 789
653 654
632 633
387 388
678 677
802 801
415 4
482 481
696 695
318 319
702 703
407 408
295 296
454 453
539 538
193 194
159 160
368 369
472 473
370 369
30 29
96 97
293 294
535 534
661 662
250 251
770 769
700 701
400 399
138 137
355 356
87 86
471 472
438 439
599 600
590 591
193 192
651 652
460 461
509 510
610 611
529 530
577 576
147 146
384 383
336 335
496 497
181 180
239 238
396 395
257 256
374 375
330 329
563 562
310 309
644 643
446 447
666 665
356 357
394 395
699 700
1034 642 927
804 805
7 8
99 98
230 229
351 352
828 827
954 955
417 418
144 143
51 52
810 809
742 741
401 402
601 600
532 533
1034 329
864 865
966 967
913 914
496 497
715 716
364 365
553 554
154 155
166 167
986 985
84 85
66 65
264 265
36 37
1030 1029
922 921
748 747
774 775
22 21
994 995
409 408
718 717
898 897
626 627
105 104
40 39
467 468
165 166
991 990
394 395
309 308
271 272
495 496
372 371
682 681
89 88
482 481
796 797
729 730
90 89
280 281
306 305
356 355
726 727
852 853
141 140
1022 1023
721 722
579 580
15 16
96 95
391 392
1028 1029
990 989
384 385
53 52
479 480
613 612
317 316
601 602
278 279
226 225
515 514
904 903
835 836
623 622
411 410
937 936
851 852
917 916
194 195
983 984
797 798
950 951
745 746
336 337
239 238
2 3
246 245
256 257
313 314
985 984
318 319
710 711
908 909
482 483
370 369
874 873
1001 1002
81 82
609 608
437 438
997 996
346 345
364 363
133 134
714 715
257 258
934 935
60 61
286 287
637 636
973 974
248 247
787 788
382 381
791 792
972 973
515 516
295 294
460 459
560 561
193 194
108 109
292 293
294 293
282 281
129 128
577 576
927 928
180 181
38 39
240 241
216 217
360 359
730 731
161 160
168 167
621 622
301 302
662 661
231 232
191 192
99 100
549 550
373 374
1008 1007
122 123
521 522
287 288
960 961
105 106
114 113
561 562
152 151
1010 1011
275 274
112 111
415 416
625 624
336 335
825 824
649 650
918 917
586 587
836 837
311 310
851 850
763 764
55 54
188 187
877 878
600 599
988 989
611 612
945 944
651 650
864 863
754 753
220 219
255 256
44 45
902 901
991 992
908 907
869 870
1027 1028
629 628
450 449
980 981
226 227
33 32
1016 1017
817 816
343 344
59 60
1027 1026
395 396
893 894
461 460
742 743
866 865
211 212
195 196
253 252
791 790
10 9
393 394
574 575
353 352
994 993
1 2
925 926
1011 1012
97 96
867 866
832 831
199 198
761 762
498 499
960 959
823 824
230 231
435 436
995 996
426 425
149 148
103 104
1013 1012
660 659
815 814
82 83
915 914
413 412
677 676
752 753
528 529
766 767
380 381
963 964
644 643
541 540
962 963
512 513
848 847
763 762
429 428
16 17
400 401
136 135
49 48
509 510
942 941
572 571
927 926
828 829
5 4
737 738
924 925
350 349
635 636
239 240
533 534
723 724
218 217
946 945
475 474
959 958
85 86
620 619
297 298
713 712
164 163
948 947
23 24
1000 999
469 468
472 471
425 424
476 475
582 581
628 627
818 819
484 483
446 447
259 260
361 360
832 833
558 559
723 722
15 14
1031 1030
662 663
37 38
808 807
841 840
493 492
748 749
318 317
376 375
454 455
440 439
466 465
183 182
183 184
411 412
583 584
397 398
406 405
700 699
771 770
930 931
543 544
319 320
59 58
254 255
70 69
738 739
454 453
651 652
214 215
253 254
632 631
634 633
764 765
566 567
102 103
855 854
137 138
1014 1015
339 340
86 87
756 757
841 842
655 654
608 607
6 5
964 965
585 586
970 969
687 686
831 830
544 545
26 27
324 325
569 570
238 237
859 860
196 197
881 880
416 417
668 669
283 282
590 589
467 466
772 773
825 826
165 164
342 341
97 98
331 330
740 741
142 143
326 325
784 785
534 535
408 407
976 975
696 697
633 632
332 331
332 333
67 66
323 324
557 558
701 700
862 861
50 51
174 173
646 647
147 148
887 886
446 445
642 643
1005 1004
1025 1026
698 697
334 335
87 88
177 176
277 278
428 427
664 663
688 689
308 307
703 702
640 639
340 341
21 20
267 268
978 977
874 875
813 814
64 63
24 25
61 62
73 72
139 138
19 18
377 376
111 110
290 289
912 913
1006 1005
28 27
630 629
491 492
501 500
665 666
668 667
522 523
884 883
430 429
821 822
755 754
17 18
137 136
890 889
249 248
399 400
74 73
695 696
838 839
911 912
672 671
951 952
490 491
176 175
1004 1003
447 448
988 987
772 771
114 115
56 55
886 885
986 987
847 846
588 587
892 893
770 769
123 124
705 706
456 455
701 702
923 924
615 614
617 618
267 266
235 236
210 209
879 880
218 219
747 746
716 717
208 209
432 431
761 760
13 14
604 605
872 871
787 786
168 169
724 725
775 776
891 892
685 686
1033 1034
188 189
653 652
57 56
800 799
783 782
693 694
473 474
170 169
938 939
443 442
548 547
898 899
393 392
780 781
977 976
41 42
712 711
1014 1013
675 676
709 710
594 593
502 501
296 295
718 719
513 514
637 638
529 530
734 735
876 875
979 980
595 596
284 283
106 107
725 726
116 117
519 520
489 488
76 77
728 729
614 613
510 511
705 704
223 222
941 940
843 842
463 462
67 68
647 648
599 598
363 362
958 957
503 504
1025 1024
997 998
998 999
312 313
251 252
202 203
91 92
7 6
46 45
414 415
858 859
13 12
134 135
801 800
562 563
490 489
719 720
670 669
911 910
378 377
931 932
338 339
970 971
121 122
276 275
236 237
31 32
846 845
430 431
277 276
261 262
1021 1022
670 671
547 546
863 862
261 260
656 655
760 759
868 867
387 386
882 883
839 840
207 206
823 822
3 4
810 811
172 173
759 758
373 372
47 48
304 303
34 33
228 227
220 221
64 65
829 830
943 942
419 418
457 456
234 233
623 624
750 751
673 674
440 441
861 860
972 971
179 178
342 343
974 975
368 367
536 537
517 516
767 768
803 804
555 554
906 907
328 329
130 129
366 367
559 560
538 537
704 703
47 46
84 83
222 221
462 461
159 160
155 156
199 200
161 162
1001 1000
290 291
316 315
174 175
410 409
320 321
80 81
258 259
404 405
598 597
420 419
273 274
682 683
299 298
297 296
581 580
1023 1024
856 855
43 42
145 146
469 470
1019 1018
158 159
190 189
648 649
211 210
844 843
758 757
250 251
53 54
321 322
745 744
856 857
338 337
214 213
678 679
20 19
756 755
198 197
509 508
361 362
693 692
438 439
262 263
681 680
948 949
126 125
250 249
781 782
899 900
40 41
185 186
609 610
536 535
564 563
821 820
928 929
269 270
77 78
117 118
735 736
969 968
108 107
152 153
923 922
399 398
743 744
517 518
675 674
1003 1002
49 50
732 731
525 524
678 677
480 481
130 131
574 573
388 389
968 967
307 306
150 149
476 477
937 938
119 120
556 555
368 369
826 827
919 918
816 815
357 358
575 576
118 119
133 132
327 326
916 915
512 511
384 383
921 920
546 545
463 464
470 471
736 737
204 205
265 266
487 486
233 232
146 147
310 309
630 631
896 897
626 625
531 532
29 28
494 495
90 91
215 216
44 43
811 812
833 834
849 850
1031 1032
597 596
72 71
311 312
445 444
792 793
657 656
351 350
246 247
550 551
327 328
919 920
778 779
142 141
542 541
224 225
348 349
385 386
359 358
795 796
769 768
180 179
691 690
583 582
23 22
314 315
616 617
200 201
607 606
127 128
657 658
683 684
578 579
551 552
603 602
498 497
184 185
708 709
807 806
464 465
604 603
849 848
882 881
329 330
413 414
615 616
854 853
68 69
940 939
665 664
484 485
100 101
286 285
646 645
30 31
8 9
527 526
982 983
472 473
458 457
982 981
357 356
752 751
403 402
435 434
688 687
672 673
452 451
906 905
818 817
479 478
871 870
789 790
888 887
658 659
485 486
132 131
936 935
158 157
437 436
57 58
213 212
187 186
557 556
378 379
348 347
732 733
10 11
766 765
506 505
80 79
749 750
610 611
182 181
30 29
71 70
387 388
1009 1010
720 721
570 571
453 452
1021 1020
423 422
101 102
127 126
243 242
666 667
518 519
229 228
383 382
156 157
594 595
902 903
591 592
391 390
618 619
801 802
291 292
929 930
888 889
478 477
354 353
838 837
288 289
845 844
379 380
244 243
92 93
36 35
685 684
569 568
812 813
26 25
590 591
644 645
606 605
548 549
406 407
868 869
170 171
235 234
521 520
933 934
895 894
245 244
799 798
727 728
304 305
116 115
110 109
271 270
993 992
878 879
423 424
442 441
1008 1009
528 527
448 449
192 193
802 803
204 203
708 707
777 778
876 877
12 11
524 523
776 777
421 422
834 835
873 872
543 542
640 641
639 638
1018 1017
943 944
121 120
62 63
890 891
299 300
578 577
366 365
145 144
346 347
444 443
692 691
946 947
139 140
566 565
404 403
242 241
538 539
774 773
427 426
433 432
374 375
93 94
505 504
706 707
589 588
124 125
301 300
783 784
780 779
660 661
79 78
1007 1006
933 932
789 788
334 333
223 224
201 202
956 957
459 458
953 954
499 500
740 739
621 620
507 508
487 488
884 885
713 714
962 961
572 573
794 793
303 302
978 979
396 397
35 34
593 592
966 965
585 584
421 420
805 806
151 150
733 734
857 858
530 531
177 178
345 344
953 952
322 323
950 949
433 434
698 699
1016 1015
695 694
690 689
642 641
904 905
264 263
280 279
74 75
507 506
896 895
525 526
153 154
1032 1033
553 552
272 273
910 909
191 190
268 269
901 900
371 370
94 95
794 795
567 568
208 207
205 206
565 564
679 680
502 503
1020 1019
634 635
956 955
539 540
75 76
285 284
112 113
654 653
390 389
171 172
494 493
820 819
162 163
786 785
355 354
451 450
808 809
894 647 558
354 1
440 1
143 1
226 1
177 1
205 1
42 1
1 841
1 601
1 752
730 1
229 1
1 124
654 1
396 1
1 871
1 490
138 1
658 1
484 1
207 1
515 1
611 1
1 687
1 64
1 118
1 328
96 1
544 1
1 637
808 1
1 25
310 1
1 633
359 1
1 459
1 743
1 302
1 220
261 1
653 1
614 1
1 105
152 1
296 1
1 600
1 793
194 1
721 1
1 676
1 91
1 345
1 441
1 389
1 251
1 800
236 1
114 1
1 843
1 134
567 1
727 1
571 1
469 1
368 1
1 435
111 1
1 626
774 1
256 1
1 844
1 733
28 1
1 425
725 1
1 185
276 1
608 1
1 44
759 1
866 1
1 240
1 366
1 647
1 577
1 117
1 463
1 270
1 554
1 863
671 1
1 278
796 1
61 1
1 842
1 158
1 378
508 1
110 1
524 1
1 320
14 1
1 790
122 1
1 754
1 634
1 392
165 1
156 1
375 1
550 1
520 1
1 281
747 1
1 420
854 1
638 1
1 500
1 15
1 351
1 18
1 483
1 706
120 1
587 1
84 1
1 353
585 1
1 517
74 1
1 419
713 1
807 1
167 1
1 417
385 1
543 1
1 108
86 1
1 446
1 90
22 1
1 507
6 1
562 1
1 708
555 1
695 1
1 127
1 856
1 503
1 828
1 94
1 404
889 1
1 161
1 36
1 858
1 735
546 1
592 1
851 1
405 1
1 655
561 1
1 718
1 426
724 1
1 498
1 595
151 1
408 1
812 1
1 715
1 275
1 646
397 1
1 119
629 1
1 565
38 1
769 1
59 1
40 1
1 487
1 29
1 254
1 427
140 1
1 243
527 1
482 1
847 1
336 1
1 319
1 301
1 893
772 1
613 1
442 1
1 694
88 1
1 852
1 514
1 332
541 1
1 253
1 352
49 1
1 659
403 1
26 1
829 1
1 705
390 1
1 169
468 1
200 1
1 887
1 821
1 311
719 1
1 736
1 331
380 1
749 1
526 1
234 1
1 516
1 178
1 330
704 1
316 1
1 123
881 1
1 347
648 1
1 663
1 666
583 1
502 1
784 1
1 574
750 1
456 1
1 377
1 155
1 136
10 1
1 83
505 1
455 1
1 461
1 241
798 1
1 247
1 163
56 1
423 1
1 533
1 667
1 643
792 1
1 662
1 116
1 689
1 732
1 625
531 1
861 1
1 497
1 682
833 1
763 1
1 799
1 363
814 1
1 832
1 412
1 602
566 1
518 1
1 184
506 1
1 645
644 1
761 1
1 401
1 549
657 1
174 1
1 221
1 882
1 290
24 1
409 1
168 1
411 1
1 344
148 1
1 675
223 1
65 1
1 582
1 522
650 1
171 1
277 1
1 606
252 1
1 21
530 1
235 1
1 265
333 1
831 1
428 1
804 1
370 1
1 777
668 1
1 272
1 313
1 632
199 1
150 1
1 618
700 1
476 1
1 726
1 553
1 180
1 589
1 610
218 1
1 636
652 1
23 1
1 386
106 1
238 1
597 1
1 17
30 1
826 1
1 820
1 284
580 1
1 237
213 1
492 1
1 472
564 1
1 191
453 1
212 1
479 1
394 1
1 11
874 1
1 876
1 447
1 145
1 101
1 135
1 480
202 1
436 1
776 1
139 1
1 269
1 536
1 233
418 1
1 280
35 1
1 493
1 295
1 609
52 1
246 1
232 1
509 1
69 1
1 641
767 1
1 249
789 1
48 1
1 791
1 79
765 1
357 1
1 31
166 1
1 147
1 72
201 1
1 681
1 620
1 391
1 324
358 1
1 183
1 857
573 1
341 1
1 853
1 670
711 1
1 834
741 1
460 1
400 1
1 12
1 702
449 1
838 1
740 1
1 548
1 848
888 1
293 1
815 1
304 1
99 1
1 318
872 1
1 210
1 696
93 1
39 1
1 216
121 1
1 125
1 635
197 1
1 308
1 104
1 513
478 1
1 50
1 850
288 1
1 231
1 109
491 1
271 1
142 1
211 1
1 307
1 283
781 1
1 379
1 748
1 823
361 1
323 1
880 1
1 245
1 306
707 1
787 1
62 1
535 1
1 679
208 1
586 1
688 1
1 130
1 495
1 410
289 1
890 1
734 1
1 884
1 475
1 414
1 822
886 1
1 285
1 429
1 388
628 1
1 720
20 1
77 1
540 1
556 1
809 1
1 780
381 1
486 1
1 660
315 1
267 1
1 107
206 1
1 224
1 393
578 1
1 558
1 362
1 154
144 1
76 1
1 360
1 855
250 1
365 1
1 623
450 1
196 1
510 1
1 126
1 188
1 81
382 1
175 1
1 849
1 374
230 1
673 1
1 262
129 1
260 1
1 511
334 1
545 1
1 806
1 41
1 430
34 1
1 372
894 1
327 1
1 355
1 416
1 612
19 1
746 1
1 452
1 537
1 762
1 836
445 1
1 473
257 1
1 371
779 1
4 5
298 1
87 1
1 891
1 723
717 1
422 1
801 1
1 73
753 1
1 744
112 1
1 85
1 346
149 1
1 729
760 1
1 303
454 1
225 1
1 560
343 1
1 788
1 539
504 1
1 325
1 766
141 1
292 1
1 581
470 1
494 1
1 326
242 1
314 1
209 1
1 300
1 335
1 274
1 424
690 1
569 1
1 785
5 6
1 786
1 742
1 63
431 1
1 47
559 1
1 819
499 1
488 1
1 678
534 1
1 758
596 1
1 697
70 1
868 1
1 594
1 568
1 795
661 1
1 521
745 1
291 1
1 67
1 622
1 825
373 1
279 1
1 66
1 263
698 1
501 1
1 255
1 677
51 1
264 1
1 32
649 1
181 1
1 80
402 1
474 1
1 712
616 1
1 45
159 1
1 862
1 665
309 1
879 1
244 1
1 100
1 563
1 189
1 297
1 621
465 1
458 1
1 186
603 1
214 1
782 1
1 755
1 739
462 1
1 818
176 1
1 160
751 1
259 1
1 485
1 406
286 1
630 1
1 8
1 439
1 128
593 1
1 805
350 1
1 864
1 182
1 162
248 1
1 219
68 1
1 33
731 1
1 803
457 1
771 1
97 1
1 16
190 1
770 1
1 775
1 865
1 552
1 551
528 1
827 1
575 1
1 576
13 1
883 1
1 639
1 78
1 132
164 1
529 1
1 195
1 885
1 640
146 1
1 415
43 1
1 693
1 448
664 1
339 1
1 624
1 794
115 1
860 1
525 1
413 1
1 437
1 294
716 1
55 1
496 1
1 337
757 1
1 817
1 312
686 1
1 532
1 481
399 1
322 1
811 1
1 591
27 1
1 642
228 1
187 1
869 1
778 1
1 683
282 1
1 7
738 1
523 1
1 519
102 1
58 1
1 816
810 1
1 768
1 714
1 464
4 3
737 1
133 1
878 1
1 131
489 1
395 1
1 680
877 1
703 1
3 2
692 1
1 92
669 1
709 1
1 684
837 1
1 797
607 1
835 1
542 1
1 802
444 1
579 1
340 1
1 349
783 1
674 1
1 356
217 1
557 1
421 1
1 859
466 1
1 590
1 71
348 1
572 1
631 1
239 1
619 1
875 1
222 1
53 1
1 870
1 588
1 173
1 364
321 1
387 1
46 1
1 98
1 157
1 215
1 37
1 438
137 1
60 1
840 1
1 892
1 2
1 258
95 1
1 268
1 824
1 764
1 722
846 1
1 299
627 1
75 1
1 570
113 1
1 407
617 1
685 1
538 1
1 699
1 170
1 756
1 451
1 198
1 329
1 839
1 203
615 1
432 1
1 477
1 710
728 1
57 1
153 1
1 773
1 845
1 103
383 1
1 172
1 813
317 1
1 89
287 1
1 193
598 1
599 1
1 605
1 604
367 1
1 873
1 547
1 651
467 1
1 584
192 1
1 701
1 443
369 1
512 1
830 1
1 338
1 82
305 1
1 398
1 179
227 1
342 1
1 691
672 1
376 1
204 1
9 1
266 1
867 1
384 1
1 273
1 434
471 1
1 433
656 1
1 54
763 383 222
1 625
34 1
348 1
396 1
1 610
1 437
1 22
1 425
45 1
1 545
1 537
116 1
1 358
1 227
1 9
1 322
1 328
678 1
1 406
530 1
337 1
542 1
1 141
2 1
1 362
218 1
1 153
478 1
1 156
274 1
342 1
1 379
1 98
1 426
101 1
125 1
616 1
479 1
372 1
569 1
1 647
1 640
1 133
351 1
1 734
1 293
1 439
1 762
543 1
1 751
1 583
536 1
403 1
216 1
712 1
1 174
180 1
1 12
20 1
304 1
1 493
1 628
508 1
407 1
1 627
1 738
1 73
714 1
378 1
1 489
1 194
1 51
1 719
1 109
296 1
463 1
620 1
1 566
1 505
1 432
1 442
428 1
1 112
138 1
1 457
182 1
1 164
309 1
525 1
1 106
110 1
1 136
747 1
1 135
1 87
89 1
500 1
512 1
1 131
533 1
139 1
27 1
1 16
1 476
221 1
59 1
32 1
155 1
1 470
1 63
1 538
737 1
461 1
1 181
611 1
311 1
1 323
550 1
1 510
352 1
1 158
707 1
1 103
1 693
688 1
609 1
1 741
1 453
275 1
745 1
1 433
1 422
1 312
1 717
1 321
1 665
1 90
617 1
346 1
7 1
1 229
626 1
206 1
1 240
654 1
1 676
1 606
644 1
662 1
373 1
1 41
1 629
1 202
1 25
502 1
660 1
1 697
1 207
1 669
742 1
394 1
1 196
169 1
374 1
727 1
388 1
1 28
1 725
1 166
140 1
1 666
1 127
1 653
1 186
47 1
1 415
618 1
517 1
85 1
259 1
1 220
1 78
612 1
473 1
10 1
1 340
683 1
600 1
1 696
1 270
366 1
380 1
1 592
1 363
178 1
1 659
1 100
1 234
1 418
1 565
1 15
435 1
419 1
1 474
1 332
523 1
1 509
513 1
256 1
1 231
92 1
144 1
1 554
487 1
13 1
23 1
748 1
560 1
1 515
1 460
308 1
1 631
1 670
118 1
74 1
14 1
1 33
1 589
1 591
1 706
1 123
1 281
1 232
1 393
258 1
187 1
1 280
1 53
1 535
1 357
365 1
1 298
1 684
1 573
1 167
1 86
185 1
302 1
1 587
56 1
364 1
700 1
1 183
1 291
1 76
1 655
1 557
1 465
528 1
69 1
438 1
1 650
37 1
290 1
1 480
710 1
1 690
1 242
239 1
1 42
711 1
563 1
1 544
1 318
172 1
687 1
1 115
313 1
1 708
1 391
1 314
1 119
1 68
1 646
1 223
150 1
1 752
343 1
1 211
168 1
578 1
64 1
1 31
624 1
114 1
1 730
1 177
250 1
579 1
1 630
252 1
1 230
686 1
1 641
1 514
553 1
1 713
170 1
62 1
1 108
586 1
193 1
1 671
1 501
709 1
1 160
327 1
225 1
1 732
107 1
176 1
350 1
1 359
1 132
1 651
477 1
728 1
1 99
549 1
1 466
504 1
561 1
1 93
192 1
596 1
1 355
1 386
197 1
268 1
1 147
111 1
43 1
1 613
1 427
1 555
519 1
1 449
444 1
1 664
367 1
601 1
1 567
1 175
450 1
1 608
1 527
1 757
117 1
1 499
1 199
295 1
1 756
595 1
1 245
663 1
30 1
1 472
754 1
1 702
1 55
1 615
1 266
1 497
80 1
5 1
18 1
1 451
126 1
1 455
60 1
1 408
1 219
1 511
58 1
416 1
286 1
541 1
1 603
1 39
506 1
1 729
57 1
163 1
75 1
1 384
1 572
1 680
368 1
445 1
749 1
1 667
214 1
1 682
260 1
726 1
1 376
215 1
35 1
3 2
411 1
495 1
1 71
746 1
568 1
300 1
1 564
1 619
382 1
1 399
1 66
1 383
1 83
17 1
1 699
1 287
1 48
705 1
1 604
1 247
361 1
267 1
645 1
724 1
622 1
691 1
1 576
1 329
283 1
79 1
128 1
1 574
584 1
679 1
1 494
1 395
224 1
124 1
188 1
420 1
1 324
1 753
540 1
1 498
1 162
159 1
1 319
1 602
516 1
1 261
277 1
401 1
226 1
598 1
195 1
3 4
1 414
289 1
165 1
339 1
1 65
1 204
1 213
238 1
1 715
307 1
490 1
580 1
485 1
1 335
736 1
1 546
49 1
1 262
210 1
1 354
288 1
371 1
503 1
375 1
1 385
1 638
633 1
402 1
356 1
1 143
249 1
1 452
1 483
1 469
643 1
24 1
1 581
521 1
381 1
1 417
722 1
689 1
316 1
721 1
1 652
1 534
1 82
570 1
235 1
1 571
389 1
191 1
200 1
1 593
130 1
325 1
1 412
614 1
695 1
599 1
1 447
151 1
1 264
1 759
152 1
129 1
1 70
475 1
88 1
1 254
1 392
113 1
434 1
84 1
61 1
1 668
320 1
1 369
6 1
692 1
642 1
1 464
548 1
1 454
1 137
731 1
1 54
430 1
698 1
556 1
377 1
1 446
1 459
1 189
1 236
1 484
716 1
1 735
1 237
1 105
301 1
634 1
1 36
760 1
718 1
405 1
198 1
429 1
750 1
661 1
360 1
347 1
257 1
404 1
1 97
1 623
19 1
649 1
424 1
1 605
145 1
1 326
1 205
1 345
1 390
271 1
635 1
723 1
1 278
1 251
1 246
26 1
1 468
1 621
1 431
1 462
1 331
38 1
1 201
91 1
594 1
1 299
526 1
1 276
657 1
1 522
1 157
1 588
1 330
440 1
1 149
1 269
1 96
1 263
1 228
1 292
315 1
755 1
1 294
1 370
1 539
607 1
11 1
8 1
190 1
21 1
1 703
1 409
1 341
1 161
1 531
507 1
1 423
1 674
486 1
1 443
1 656
740 1
120 1
1 744
1 50
1 102
122 1
1 154
637 1
491 1
222 1
1 761
1 532
1 297
597 1
1 575
520 1
577 1
1 104
1 467
1 248
317 1
1 284
743 1
1 481
134 1
1 44
142 1
1 209
639 1
1 334
590 1
1 585
1 672
1 349
1 685
704 1
1 436
171 1
482 1
1 282
52 1
306 1
701 1
1 353
1 336
552 1
1 496
344 1
1 303
1 558
1 273
1 244
1 421
1 673
413 1
217 1
1 121
1 632
1 333
40 1
1 255
95 1
1 173
1 677
208 1
1 675
1 203
1 146
1 285
1 524
338 1
1 310
5 4
559 1
1 94
1 562
1 179
1 241
1 720
551 1
1 81
305 1
1 148
1 488
471 1
1 448
1 67
1 265
1 253
1 279
733 1
518 1
1 582
1 758
243 1
272 1
1 458
1 410
547 1
1 648
398 1
77 1
694 1
212 1
1 72
1 397
492 1
1 29
1 456
1 400
1 46
1 658
681 1
529 1
184 1
233 1
636 1
1 739
1 387
441 1
1 763
769 461 26
425 426
424 425
146 147
60 61
340 339
740 741
584 583
395 394
733 732
734 733
399 398
688 687
569 568
643 644
409 408
590 589
192 191
261 262
368 367
769 204
507 506
474 475
637 638
737 738
322 323
496 495
445 444
159 160
141 140
415 416
708 707
532 533
566 567
406 405
761 760
575 576
757 756
317 318
330 331
541 542
332 333
463 462
729 728
210 211
692 693
456 457
592 593
668 669
358 359
402 401
569 570
34 35
445 446
679 678
100 99
682 681
283 284
279 278
516 517
721 720
1 2
149 150
414 413
292 293
9 10
321 322
559 558
657 656
488 489
167 168
694 693
75 74
37 36
74 73
532 531
151 150
174 175
260 261
148 149
70 69
523 524
147 148
504 503
319 320
579 580
393 394
29 30
558 557
344 345
603 602
105 106
58 57
483 484
731 732
105 104
381 382
706 707
301 302
379 380
146 145
316 315
418 419
93 92
252 251
469 468
21 22
234 233
169 170
450 451
289 290
389 388
90 89
506 505
598 599
611 610
517 518
172 173
759 760
354 355
236 235
449 448
487 488
182 181
470 471
537 536
264 265
751 752
189 190
95 96
395 396
511 510
466 467
574 573
720 719
229 230
378 379
384 385
158 157
9 8
514 513
743 744
270 269
502 501
108 109
717 718
186 185
439 440
451 452
18 17
136 135
654 653
673 674
665 664
327 328
476 475
143 144
410 409
339 338
595 596
528 527
259 258
610 609
695 694
449 450
361 360
245 244
239 238
141 142
298 297
159 158
712 713
655 656
290 291
662 661
444 443
320 321
486 485
519 520
453 454
672 671
651 652
680 679
477 478
403 402
612 613
713 714
182 183
19 20
641 642
615 616
59 58
663 662
675 674
482 483
376 377
731 730
200 199
392 391
637 636
6 7
419 420
134 135
179 180
27 28
454 455
768 767
222 223
589 588
501 500
353 354
107 108
411 412
120 119
282 281
578 577
423 424
41 40
405 404
544 543
563 562
716 717
28 29
274 273
253 254
356 355
430 431
722 723
83 84
422 421
583 582
60 59
582 581
298 299
255 256
153 154
18 19
551 552
219 220
432 433
363 362
627 628
375 376
519 518
171 170
533 534
467 468
745 746
434 433
735 736
692 691
644 645
53 52
375 374
188 189
351 350
565 564
643 642
165 164
682 683
45 46
83 82
65 64
711 710
113 114
231 230
655 654
464 463
670 671
163 164
248 249
601 600
728 727
446 447
716 715
555 556
340 341
478 479
259 260
42 43
162 161
545 544
588 587
752 753
461 460
151 152
701 700
443 442
196 197
314 315
739 738
683 684
608 607
21 20
15 16
24 25
297 296
33 34
139 140
474 473
401 400
171 172
4 3
85 86
168 169
277 276
539 540
630 629
6 5
324 323
306 307
697 698
303 302
218 217
497 498
364 363
62 63
528 529
525 524
552 553
119 118
328 329
292 291
54 55
590 591
343 344
330 329
280 281
512 513
31 32
222 221
198 199
626 625
24 23
766 765
369 370
79 78
240 239
601 602
125 124
408 407
311 312
232 231
621 620
743 742
107 106
79 80
68 67
263 262
294 293
102 101
250 251
56 55
611 612
386 385
325 324
111 112
594 593
748 747
112 113
714 715
326 325
139 138
429 428
275 276
94 93
117 118
206 205
256 257
428 427
411 410
143 142
667 668
535 536
357 358
633 634
4 5
26 25
418 417
571 572
438 437
247 246
696 697
215 216
263 264
205 204
221 220
605 606
359 360
652 653
190 191
201 200
39 38
218 219
286 287
206 207
71 72
27 26
116 115
562 561
415 414
633 632
308 307
373 372
764 763
38 37
71 70
252 253
137 136
246 245
696 695
275 274
65 66
539 538
254 255
373 374
258 257
397 398
128 129
211 212
400 399
345 346
313 312
480 481
492 491
534 535
133 134
531 530
615 614
156 155
435 434
310 309
217 216
114 115
748 749
649 648
557 556
91 90
688 689
525 526
195 196
316 317
69 68
407 406
88 87
365 366
481 482
3 2
177 178
548 547
102 103
529 530
646 647
758 759
270 271
618 617
635 634
87 86
631 630
646 645
12 11
722 721
203 202
567 568
551 550
421 420
44 43
368 369
75 76
237 238
413 412
709 708
677 678
92 91
154 155
729 730
187 186
430 429
417 416
554 553
663 664
747 746
126 125
559 560
666 667
7 8
132 133
702 703
33 32
228 227
193 194
548 549
242 243
282 283
240 241
480 479
311 310
699 698
187 188
724 725
225 226
622 623
77 78
47 46
110 111
343 342
383 384
213 212
503 502
690 691
686 687
72 73
499 500
224 225
767 766
579 578
749 750
550 549
124 123
623 624
236 237
388 387
348 347
161 160
214 215
269 268
753 754
127 126
648 647
178 179
31 30
167 166
81 80
509 508
51 50
356 357
701 702
423 422
249 250
201 202
584 585
289 288
639 638
499 498
183 184
336 335
489 490
52 51
514 515
555 554
472 471
476 477
54 53
173 174
581 580
299 300
660 661
371 370
564 563
448 447
627 626
197 198
372 371
391 390
600 599
608 609
319 318
208 207
14 13
267 268
495 494
458 459
23 22
365 364
484 485
332 331
576 577
492 493
194 195
742 741
210 209
521 522
768 769
665 666
709 710
235 234
594 595
658 657
228 229
659 658
604 603
272 271
348 349
542 543
101 100
619 620
241 242
712 711
279 280
436 435
131 132
570 571
763 762
432 431
403 404
390 389
117 116
493 494
586 585
473 472
547 546
686 685
705 706
285 284
13 12
181 180
353 352
296 295
156 157
734 735
452 453
213 214
309 308
104 103
750 751
66 67
49 48
762 761
84 85
669 670
725 726
515 516
209 208
456 455
42 41
383 382
737 736
352 351
326 327
490 491
460 459
617 616
95 94
605 604
366 367
278 277
632 631
458 457
510 509
565 566
465 464
305 304
98 97
62 61
152 153
523 522
660 659
684 685
247 248
163 162
507 508
764 765
49 50
223 224
131 130
380 381
545 546
232 233
288 287
387 386
110 109
300 301
754 755
11 10
461 462
758 757
334 333
651 650
442 441
306 305
272 273
527 526
346 347
267 266
614 613
127 128
341 342
704 705
704 703
438 439
304 303
504 505
628 629
294 295
335 334
636 635
16 17
393 392
130 129
540 541
681 680
121 122
338 337
497 496
606 607
469 470
700 699
591 592
266 265
96 97
123 122
44 45
350 349
574 575
396 397
286 285
625 624
39 40
314 313
537 538
426 427
204 203
487 486
641 640
676 677
440 441
36 35
89 88
572 573
723 724
63 64
15 14
520 521
175 176
361 362
640 639
176 177
76 77
511 512
244 243
598 597
193 192
184 185
98 99
82 81
56 57
745 744
137 138
739 740
689 690
719 718
166 165
226 227
650 649
144 145
726 727
597 596
121 120
465 466
756 755
618 619
561 560
676 675
436 437
378 377
673 672
47 48
622 621
587 586
337 336
1160 1090 112
1078 1079
1145 1146
405 404
1004 1003
827 826
1018 1017
875 874
884 885
873 874
620 621
38 37
836 835
120 121
1141 1142
204 205
467 468
300 299
355 354
630 629
730 731
375 374
877 876
954 953
1109 1108
389 390
701 702
689 690
1087 1088
934 933
773 774
1051 1050
331 330
187 186
782 783
703 702
524 523
745 744
296 295
798 799
490 489
378 379
178 177
327 328
309 308
320 321
777 778
959 960
403 404
45 46
636 635
350 349
642 643
290 291
138 137
296 297
1058 1059
12 11
75 76
79 78
983 984
244 243
155 154
67 66
104 105
618 617
512 511
1121 1120
754 753
819 818
234 235
998 999
922 923
26 25
1149 1148
262 261
684 683
565 564
130 129
248 249
811 812
625 626
710 709
985 984
399 400
255 256
986 987
113 112
566 567
1005 1006
698 697
750 751
806 805
198 197
1131 1132
630 631
1053 1052
173 174
148 147
601 600
980 979
717 718
875 876
1012 1011
692 693
271 270
981 982
1037 1038
638 639
965 964
945 944
752 753
1107 1108
175 174
272 273
706 707
514 515
19 18
52 53
536 537
178 179
11 10
192 193
42 41
866 865
369 368
835 834
62 61
766 765
507 506
1152 1153
635 634
895 896
195 196
428 427
967 966
678 677
948 947
100 101
556 557
721 722
771 770
624 625
973 972
491 492
741 740
413 414
849 848
1096 1097
1110 1111
512 513
715 716
518 517
24 23
1154 1153
70 71
461 460
109 108
589 588
414 415
556 555
366 367
347 348
777 776
407 406
1066 1067
96 97
225 224
360 361
44 45
60 59
824 825
244 245
201 200
838 837
423 422
1127 1126
844 845
606 607
680 681
50 49
546 547
189 188
211 212
584 583
781 780
539 540
405 406
1031 1030
58 57
785 786
578 579
167 166
671 672
724 725
191 190
765 764
820 819
623 622
562 563
1029 1028
318 319
893 894
940 939
534 533
848 847
325 324
387 386
975 976
86 87
951 952
20 21
343 342
437 436
743 742
1013 1012
236 237
435 434
675 674
541 542
3 391
445 444
991 992
844 843
58 59
545 544
238 237
996 995
337 338
577 576
339 338
1063 1062
948 949
283 284
334 335
77 78
1130 1131
150 149
2 1
358 359
157 158
214 215
401 400
506 505
853 854
731 732
841 842
651 652
905 904
452 453
251 250
790 791
477 476
566 565
886 887
1100 1099
521 520
817 818
36 37
596 595
40 39
294 293
227 226
771 772
267 268
868 869
1021 1022
925 924
760 759
8 7
801 802
1033 1034
883 882
3 4
858 859
894 895
1103 1102
216 217
1128 1127
803 804
589 590
522 523
168 169
1105 1106
884 883
660 659
877 878
1150 1149
27 28
833 834
189 190
396 397
1026 1027
1139 1138
96 95
69 68
433 434
1113 1112
492 493
384 383
111 110
443 442
996 997
254 255
297 298
915 916
1147 1148
283 282
306 307
985 986
892 893
318 317
455 454
228 227
943 944
68 67
734 735
831 830
1135 1136
747 746
694 695
880 881
508 507
81 80
790 789
9 8
93 92
632 633
971 970
605 604
685 684
241 242
286 287
558 557
84 85
1071 1072
627 626
728 727
841 840
647 646
974 975
571 570
1029 1030
1119 1120
766 767
48 47
820 821
613 614
504 505
926 925
1000 999
439 438
444 443
1154 1155
1145 1144
729 730
161 162
200 199
361 362
785 784
38 39
55 56
80 79
661 662
890 891
715 714
643 644
622 621
156 155
597 596
1060 1061
1136 1137
662 663
1134 1135
430 429
843 842
793 794
979 978
704 703
54 55
1 6
240 239
1129 1130
904 903
1052 1051
47 46
803 802
888 889
139 138
772 773
64 65
650 651
89 90
289 290
470 471
1048 1049
987 988
417 418
483 484
231 230
351 352
1085 1086
1156 1157
941 942
1094 1095
450 449
574 575
91 92
276 277
269 270
922 921
962 961
292 291
428 429
469 470
6 968
906 907
209 210
1000 1001
748 747
1073 1074
799 800
251 252
787 788
224 223
253 254
1095 1096
930 931
63 64
649 648
749 748
953 952
1106 1107
1105 1104
118 117
605 606
1016 1015
862 863
965 966
431 430
16 15
364 363
928 929
946 945
159 158
628 629
735 736
1046 1045
408 409
797 796
797 798
241 240
308 307
935 936
12 13
472 473
659 658
209 208
758 759
1046 1047
503 504
1117 1116
204 203
132 131
14 13
71 72
616 615
786 787
544 543
1003 1002
488 489
287 288
864 863
115 116
676 677
1069 1068
870 869
680 679
460 459
1085 1084
719 720
124 123
825 826
24 25
670 669
485 486
583 4
698 699
18 17
1089 1088
141 142
31 32
1078 1077
1038 1039
758 757
600 599
195 194
1044 1045
909 908
568 569
322 321
125 126
94 95
887 888
880 879
700 699
455 456
280 281
535 536
253 252
385 386
1010 1011
612 611
1007 1008
284 285
63 62
728 729
1040 1039
1124 1123
176 177
487 488
448 449
591 592
221 222
1002 1001
437 438
935 934
882 881
941 940
628 627
914 913
701 700
683 682
853 852
793 792
1007 1006
232 233
608 607
421 420
872 873
1017 1016
426 427
1156 1155
106 105
332 333
364 365
203 202
423 424
109 110
776 775
447 448
991 990
118 119
497 498
212 213
452 451
179 180
1093 1092
1070 1069
859 860
148 149
736 737
656 655
1087 1086
503 502
958 959
551 552
739 740
892 891
1144 1143
781 782
393 394
769 768
441 440
395 394
335 336
304 303
988 989
493 494
222 223
172 171
530 529
513 514
862 861
19 20
1064 1065
471 472
93 94
257 256
641 642
144 143
185 186
713 714
475 476
518 519
121 122
450 451
994 995
51 52
1100 1101
668 667
263 262
380 381
353 352
526 527
1158 1157
117 116
469 468
585 584
978 977
137 136
647 648
780 779
122 123
98 99
389 388
852 851
568 567
817 816
1020 1019
1035 1034
1076 1075
916 917
302 301
264 263
516 515
456 457
183 184
663 664
1091 1092
197 196
496 495
1115 1116
749 750
81 82
937 936
1081 1082
623 624
481 482
234 233
1097 1098
154 153
1015 1014
1023 1024
743 744
878 879
669 668
1004 1005
205 206
983 982
962 963
681 682
1133 1134
610 609
229 228
963 964
652 653
593 594
29 30
425 424
828 827
36 35
151 150
377 376
380 379
500 501
207 206
795 794
246 245
194 193
1119 1118
133 134
1109 1110
739 738
950 949
264 265
905 906
30 31
2 3
1027 1028
416 417
976 977
387 388
955 954
48 49
310 309
265 266
464 463
22 21
649 650
516 517
334 333
672 673
724 723
286 285
993 992
1137 1138
742 741
26 27
1114 1113
510 509
550 551
391 392
910 911
695 696
314 313
106 107
201 202
375 376
219 218
1140 1139
1061 1062
371 372
756 757
1066 1065
593 592
1080 1079
1014 1013
854 855
99 100
525 524
1021 1020
235 236
578 577
718 719
1098 1099
909 910
840 839
733 732
646 645
1151 1150
140 141
9 10
569 570
664 665
1036 1037
66 65
637 638
847 846
1072 1073
83 84
382 381
824 823
932 933
588 587
42 43
91 90
207 208
501 502
411 412
784 783
416 415
83 82
575 576
541 540
519 520
398 397
482 483
956 957
548 547
259 258
220 219
487 486
1123 1122
722 723
173 172
1050 1049
562 561
528 527
1083 1084
292 293
408 407
831 832
558 559
1140 1141
822 823
816 815
919 920
457 458
467 466
187 188
553 552
1026 1025
247 248
136 135
216 215
708 707
560 561
267 266
1036 1035
328 329
218 217
322 323
687 686
152 151
214 213
303 302
613 612
601 602
161 160
1089 1090
1118 1117
746 745
494 495
360 359
300 301
1125 1124
453 454
653 654
5 6
813 814
657 656
712 713
128 127
676 675
247 246
546 545
795 796
419 418
401 402
942 943
586 585
274 273
555 554
898 897
912 913
598 597
609 608
1 7
5 775
604 603
323 324
696 697
311 312
258 257
792 791
900 901
971 972
1103 1104
679 678
580 579
615 614
260 261
661 660
710 711
362 363
311 310
50 51
1054 1055
1090 1091
673 674
938 937
788 789
340 339
342 341
1059 1060
60 61
618 619
639 640
896 897
439 440
924 923
836 837
1042 1043
537 538
132 133
403 402
1077 1076
180 181
855 856
990 989
1147 1146
74 75
861 860
511 510
295 294
634 633
1160 1159
101 102
907 908
426 425
351 350
839 838
833 832
272 271
278 277
619 620
2 199
1114 1115
289 288
602 603
458 459
72 73
474 475
314 315
145 146
899 900
341 340
153 152
645 644
946 947
274 275
595 594
312 313
243 242
128 129
165 164
331 332
961 960
419 420
170 171
610 611
344 343
140 139
354 353
366 365
211 210
436 435
666 667
973 974
526 525
369 370
330 329
124 125
1064 1063
980 981
912 911
756 755
930 929
445 446
1159 1158
56 57
87 88
950 951
176 175
889 890
160 159
5 4
481 480
858 857
1008 1009
560 559
1111 1112
184 185
163 164
763 762
1121 1122
392 393
573 572
539 538
550 549
441 442
1032 1031
571 572
885 886
761 762
807 806
927 926
927 928
89 88
347 346
822 821
779 778
103 102
689 688
529 528
685 686
531 532
808 807
1075 1074
920 921
162 163
1057 1056
716 717
433 432
864 865
192 191
107 108
898 899
901 902
867 868
44 43
422 421
372 373
1018 1019
1044 1043
305 306
23 22
846 845
857 856
1056 1055
396 395
671 670
127 126
377 378
1033 1032
17 16
357 356
479 478
755 754
346 345
382 383
733 734
708 709
665 666
1054 1053
356 355
712 711
1041 1042
130 131
115 114
326 325
692 691
144 145
866 867
371 370
473 474
969 968
738 737
239 238
752 751
319 320
250 249
810 809
327 326
1041 1040
997 998
156 157
631 632
477 478
994 993
801 800
580 581
74 73
53 54
135 134
917 918
563 564
465 464
114 113
808 809
269 268
183 182
810 811
599 598
104 103
919 918
573 574
1025 1024
1101 1102
522 521
146 147
229 230
690 691
1071 1070
915 914
813 812
721 720
532 533
554 553
34 35
368 367
166 165
828 829
1023 1022
693 694
498 499
119 120
77 76
1133 1132
385 384
281 282
1048 1047
815 814
98 97
305 304
586 587
316 317
484 485
221 220
1128 1129
1125 1126
658 657
1080 1081
447 446
1010 1009
955 956
32 33
688 687
491 490
431 432
1143 1142
337 336
345 344
535 534
231 232
871 872
655 654
413 412
767 768
939 938
829 830
902 903
462 461
357 358
726 727
763 764
29 28
299 298
348 349
1058 1057
85 86
543 542
770 769
500 499
804 805
851 850
704 705
1083 1082
705 706
531 530
1094 1093
479 480
636 637
509 508
143 142
373 374
932 931
182 181
40 41
850 849
279 280
463 462
398 399
279 278
225 226
582 581
411 410
168 167
969 970
315 316
958 957
549 548
15 14
760 761
112 111
640 641
591 590
465 466
497 496
726 725
69 70
616 617
409 410
259 260
871 870
34 33
1152 1151
170 169
1067 1068
275 276
1233 1047 151
87 49
369 346
392 51
130 1143
386 663
149 499
47 149
1075 102
714 316
1179 602
321 691
408 149
307 930
235 159
691 1201
3 1106
568 477
1034 928
155 1082
167 155
166 1025
1097 180
100 234
245 1096
51 778
5 236
292 1136
318 382
720 67
627 249
793 480
276 101
1090 139
2 37
103 52
45 4
537 102
589 144
308 558
603 294
315 530
620 1134
733 794
298 256
1193 469
262 368
926 484
557 687
207 107
1039 904
592 954
1195 1228
641 1084
4 41
230 184
138 98
864 1027
808 371
551 237
827 1231
1223 108
291 592
802 959
36 210
385 224
1123 1026
60 387
99 21
192 173
236 396
544 5
918 855
931 230
2 237
98 69
5 104
436 637
1070 212
24 21
1152 938
26 158
143 48
49 133
508 556
12 13
241 306
270 116
762 1171
853 241
141 41
317 476
28 573
1003 523
283 4
94 766
1062 444
82 84
379 451
47 1232
27 20
311 659
608 429
263 52
127 292
665 62
37 399
1146 491
598 382
873 584
995 596
39 9
334 55
112 1077
62 33
1016 907
14 150
282 830
102 957
458 160
1205 368
492 489
84 1128
815 144
590 1
38 30
819 385
303 811
489 9
18 579
388 218
202 228
371 693
676 704
131 135
576 505
1 4
915 440
397 100
377 292
57 468
868 351
26 669
174 947
441 600
428 1214
887 752
296 322
57 73
867 321
890 822
527 757
153 34
144 484
83 1048
17 124
421 1180
625 383
300 178
290 504
405 981
220 80
94 370
533 457
950 729
180 797
246 319
19 29
21 42
473 709
492 901
847 274
245 508
301 607
897 223
159 153
370 617
301 870
156 653
1053 1198
431 192
1013 259
203 448
496 648
1037 405
10 302
341 29
1178 1000
72 105
35 195
5 109
144 95
287 390
337 711
269 183
562 746
515 296
214 84
861 232
21 5
78 12
996 183
816 991
1044 8
55 724
747 432
1187 371
604 251
99 289
22 4
173 148
301 137
517 319
439 649
9 871
1225 381
371 655
117 650
465 137
496 733
1093 450
738 622
749 549
1 2
512 105
59 247
463 195
304 287
731 253
595 395
404 148
1055 806
993 717
832 10
566 1085
130 84
538 306
293 430
517 937
618 353
384 217
206 510
161 144
590 1001
713 1133
28 175
875 59
1057 479
643 287
291 586
85 1194
848 942
119 281
245 49
611 140
294 588
495 278
706 786
9 459
24 56
375 203
571 3
662 577
47 917
240 6
1197 777
704 932
1164 1011
539 148
1028 731
128 7
876 432
646 479
20 112
415 67
95 50
916 221
1135 217
1155 678
961 153
613 149
203 912
135 156
368 788
48 176
620 1054
839 457
804 168
1200 789
1175 578
104 168
796 672
934 812
344 506
667 72
1008 505
602 679
46 413
773 562
213 427
449 483
82 51
470 245
1120 21
616 674
892 540
376 734
421 4
348 330
78 169
36 182
307 267
992 698
176 452
49 146
100 74
272 231
423 347
963 580
1121 1048
686 713
86 226
762 211
811 903
181 176
412 1045
569 37
379 221
118 20
712 328
780 563
102 15
807 222
137 55
443 1059
110 119
3 4
13 16
1157 312
260 400
454 110
33 1060
833 151
1074 665
403 557
1182 462
145 54
144 172
177 1233
758 592
638 413
158 972
398 642
718 141
1191 888
11 57
444 10
1046 779
888 1050
584 105
105 505
201 335
171 275
668 473
132 622
631 328
893 357
9 14
856 169
503 577
232 562
707 68
523 184
13 325
596 50
127 336
22 540
454 701
101 90
1204 957
11 86
1032 584
151 118
225 34
373 206
514 681
760 165
362 764
244 161
1202 820
89 293
200 547
218 181
11 28
1051 560
160 146
1172 962
241 1224
407 883
238 391
1211 1222
1192 170
581 253
1081 541
163 345
744 965
213 209
766 826
52 352
332 217
204 567
238 343
57 973
717 688
11 25
260 672
289 1156
433 335
706 692
474 37
920 347
68 63
671 56
710 540
809 186
35 85
732 1035
1102 558
989 314
70 120
127 256
1063 633
952 792
338 1137
120 812
552 167
566 63
609 744
157 1049
628 469
96 126
1126 677
487 338
211 1185
320 88
1088 516
147 50
56 593
516 263
227 264
315 383
195 277
879 238
743 294
76 75
249 16
17 40
448 629
13 139
1208 891
914 939
619 552
54 74
28 376
360 365
500 23
1158 1041
561 10
1196 758
161 784
1154 649
69 229
795 68
86 803
203 735
529 86
36 8
95 311
467 75
673 27
821 52
998 596
581 1167
1112 595
213 288
347 741
765 880
237 787
11 19
862 401
266 37
478 364
28 205
122 570
1181 818
161 737
85 900
898 633
1047 630
455 90
1140 833
349 572
315 660
109 188
910 168
409 213
222 260
435 496
273 761
201 19
367 10
53 142
418 379
575 2
170 845
7 31
633 212
983 260
749 1078
441 36
866 458
410 252
927 648
50 27
515 656
721 999
344 214
166 79
9 8
135 827
1 12
282 162
162 480
32 196
1216 1088
6 54
176 217
666 864
3 26
24 52
951 1061
609 320
1153 950
722 158
742 944
121 432
150 723
1026 704
134 66
2 347
537 620
840 705
323 473
195 526
360 107
461 1033
238 1095
617 1162
721 245
837 19
305 331
79 83
13 1118
115 297
584 1230
744 994
1169 822
288 445
970 1176
24 77
69 49
614 1219
185 81
26 88
6 7
469 436
30 43
546 161
434 1173
371 329
824 592
58 38
194 15
424 990
933 894
775 618
354 114
156 314
474 858
779 333
363 254
184 152
278 230
843 896
64 111
844 3
188 854
694 356
238 1229
6 447
486 776
548 301
3 5
284 131
647 613
122 346
292 924
130 412
537 792
279 21
389 145
427 1031
59 1221
479 221
131 327
800 1038
411 362
442 549
800 471
48 92
6 35
7 71
1087 583
46 294
239 196
702 293
654 851
67 35
63 72
43 79
158 755
231 209
35 208
29 65
921 158
725 553
651 99
941 609
222 124
689 90
1106 1127
8 15
328 147
716 42
215 10
242 201
153 585
1220 1045
209 232
2 129
436 1076
572 1017
884 28
615 125
530 938
1098 560
498 700
1086 712
22 186
456 834
340 940
255 35
216 169
653 727
254 60
244 291
729 718
76 250
822 189
115 42
30 13
258 945
98 461
828 162
782 955
178 175
631 928
750 720
172 212
35 211
895 776
755 810
324 72
601 111
62 338
610 88
634 48
138 635
32 238
434 214
266 359
704 863
1199 1018
612 171
116 30
17 154
473 1139
117 82
707 1056
103 241
60 1091
64 108
214 426
1114 72
987 49
170 199
682 23
690 708
83 204
794 846
340 136
1131 1035
1125 1095
614 605
1053 600
997 714
78 869
626 802
592 1066
313 81
726 26
115 979
751 850
170 18
253 414
1174 1093
460 986
1029 310
190 47
481 377
964 687
191 76
1188 807
62 748
154 200
583 67
197 355
1080 837
906 968
107 644
187 482
1019 788
816 331
519 500
362 597
490 616
460 67
1107 897
239 988
478 1067
103 136
17 18
1108 1012
293 1183
146 843
223 180
248 310
60 9
226 541
67 140
580 528
705 422
488 371
739 279
315 203
239 591
40 502
420 196
389 823
1073 488
818 793
236 299
141 380
338 602
223 378
1212 924
1005 171
521 652
240 685
175 209
219 675
351 6
583 975
751 42
68 96
605 491
623 441
1022 784
559 349
1141 470
59 37
117 683
482 948
543 852
47 180
436 241
116 522
680 367
175 333
168 654
294 366
30 353
178 770
847 1072
588 849
956 674
361 134
64 54
45 475
318 234
848 209
977 826
235 820
44 2
464 297
12 17
1030 924
1069 1099
113 632
594 54
72 121
1106 1160
548 1190
9 899
1189 184
182 440
1142 797
349 247
21 177
806 919
265 159
657 449
66 46
286 37
695 129
845 1065
454 543
1206 1098
384 405
418 1218
180 330
113 23
807 1092
631 877
142 152
909 488
632 785
112 641
311 422
300 446
294 317
509 296
114 564
7 20
46 31
1101 442
484 525
1094 568
882 589
659 894
885 109
65 323
1064 924
922 1052
658 980
8 268
157 164
221 507
571 759
191 206
9 10
1104 607
801 906
690 471
810 970
350 247
801 368
908 124
319 974
936 615
67 171
562 838
791 544
372 215
905 167
155 96
664 204
148 125
535 1217
675 728
50 742
97 953
545 768
1170 362
580 1159
1004 688
300 394
1163 449
925 198
9 47
337 125
590 1007
240 398
34 555
616 767
498 93
85 257
348 497
943 675
1110 809
107 295
243 117
777 544
26 1122
1115 450
201 736
825 384
11 10
362 911
851 913
309 224
262 49
258 122
482 696
17 32
842 135
161 274
1021 895
878 141
756 544
946 941
439 57
164 424
339 88
66 428
846 923
1132 536
841 708
160 1041
1165 396
484 587
772 762
592 1058
969 513
790 491
1184 319
186 1211
148 402
292 535
1 545
1168 387
81 69
419 368
61 1079
98 914
602 692
1161 139
563 23
645 105
640 567
704 971
976 958
165 21
443 13
462 330
239 740
148 174
14 233
301 321
76 1011
449 22
404 514
471 82
686 304
198 88
80 60
1149 1148
560 537
100 922
27 677
442 47
61 23
290 96
395 438
421 582
197 149
165 252
261 55
978 12
817 1036
865 842
1090 1166
196 699
660 719
840 1023
435 420
181 874
1227 674
1145 978
142 513
89 62
209 221
532 17
48 41
53 1103
1015 331
263 501
586 769
765 520
1111 98
814 597
718 904
1113 223
240 754
587 636
181 356
1018 839
1001 1020
1073 1147
769 860
806 788
80 457
494 129
129 752
69 183
417 252
662 872
122 127
333 836
715 124
21 53
515 951
28 132
227 38
1151 468
469 527
41 49
162 401
891 469
23 1
246 55
554 519
310 763
886 549
51 949
1130 1024
661 11
93 29
831 457
294 774
477 391
524 75
982 718
374 233
698 292
735 1148
534 3
1043 707
6 416
570 697
406 962
1000 990
313 1117
3 2
296 290
380 781
248 188
1109 898
1129 396
312 84
370 493
264 316
678 628
107 32
199 490
1089 981
329 209
752 753
1195 1213
829 652
101 303
774 1226
422 511
55 287
625 730
355 450
872 966
130 203
319 1083
202 51
55 49
425 148
280 82
972 1071
285 670
271 24
149 219
745 584
798 443
273 72
97 38
4 8
72 179
60 131
146 621
457 503
326 240
500 684
224 147
125 536
403 192
520 132
90 486
12 75
15 94
657 782
33 3
240 342
429 384
297 531
108 162
368 395
8 193
1042 1006
393 305
90 163
406 565
1215 983
789 553
274 466
4 70
1009 453
867 1100
805 984
199 407
367 472
481 606
1040 417
666 293
542 3
584 907
569 676
33 381
73 357
1186 495
64 364
122 771
888 719
491 400
688 591
1203 396
637 732
858 967
885 929
4 805
960 389
123 285
139 308
1116 127
1150 975
187 78
1024 780
453 528
91 71
1195 194
641 1010
313 902
626 491
667 1105
935 8
189 176
241 362
437 45
1177 742
1069 274
189 453
11 51
958 666
553 114
799 91
351 881
419 574
305 288
381 624
657 1210
1138 374
157 100
251 176
191 1068
252 521
550 374
114 12
859 404
441 485
1002 754
123 81
981 1014
8 34
90 77
419 578
532 857
1207 870
122 599
259 52
839 1209
783 66
72 106
1144 334
562 889
4 6
333 386
341 658
154 703
639 389
125 100
574 817
368 1119
1124 554
855 188
317 358
1012 41
436 456
835 628
24 518
406 385
448 813
154 267
108 122
485 985
71 253
110 109
630 613
1006 489
63 6
1119 81 820
38 39
668 667
821 820
83 84
576 577
209 210
441 440
174 175
972 971
916 917
769 768
796 795
225 226
434 433
555 554
408 407
590 591
879 880
854 853
561 560
435 434
369 368
479 480
443 442
185 186
993 994
849 848
607 606
556 557
286 287
192 2
921 922
866 867
1041 1042
814 813
407 406
764 763
68 69
290 291
1024 1023
484 483
261 262
996 997
1095 1096
969 968
580 579
935 934
960 961
771 772
422 421
596 595
512 511
687 686
146 145
732 733
285 284
190 189
884 883
905 906
753 752
95 94
944 945
716 717
128 127
684 683
835 834
323 324
730 729
956 955
987 988
649 648
3 2
397 398
80 81
1094 1093
721 720
212 211
582 583
105 106
895 896
687 688
1087 1086
388 389
342 341
135 136
309 308
702 701
212 213
439 438
6 5
4 562
292 293
945 946
51 50
49 48
4 5
662 663
839 840
555 556
481 480
847 848
700 701
858 859
722 723
1028 1027
11 10
140 141
413 412
818 819
264 265
893 892
118 117
728 727
538 537
125 124
894 895
748 749
1056 1055
587 586
330 329
744 743
330 331
367 368
1054 1055
60 59
1060 1061
856 857
103 104
1067 1068
536 535
708 707
21 22
892 891
309 310
98 97
314 315
176 175
585 586
936 937
406 405
496 497
547 548
311 310
429 428
789 788
635 636
774 775
594 593
545 544
528 527
501 500
932 933
27 26
105 104
893 894
214 215
383 384
306 307
392 391
706 707
1038 1039
158 157
139 138
679 680
897 898
608 607
785 784
499 498
343 342
47 46
100 101
1089 1090
180 179
419 418
861 862
155 156
476 477
61 62
31 30
184 183
823 824
807 808
144 143
526 527
252 251
256 255
742 743
334 335
628 629
763 762
531 532
154 155
953 954
872 873
1048 1047
672 671
90 91
159 160
775 776
87 86
745 746
921 920
122 123
322 321
913 912
650 649
108 107
355 354
303 302
866 865
374 373
1118 1119
1035 1034
377 3
863 862
736 737
924 925
636 637
410 409
450 451
1050 1051
696 695
777 776
353 354
1049 1050
198 199
503 504
1010 1011
460 461
23 24
1111 1112
653 654
550 549
602 603
777 778
340 339
422 423
114 115
592 593
720 719
612 611
246 247
517 516
534 533
267 268
865 864
585 584
771 770
909 908
722 721
888 889
515 514
949 948
1107 1106
172 171
60 61
356 355
132 131
318 319
1053 1054
32 33
353 352
426 427
973 974
757 756
1031 1032
348 347
444 445
553 552
32 31
408 409
890 889
1092 1093
925 926
850 849
800 801
1077 1078
681 680
148 147
179 178
487 488
207 208
34 35
510 511
938 937
97 96
898 899
196 195
177 178
574 573
639 640
678 679
88 87
852 851
604 603
44 45
432 431
589 588
1044 1043
571 572
385 384
1057 1058
82 81
525 524
992 991
1059 1058
711 710
167 166
1103 1102
173 172
449 450
82 83
575 574
29 28
250 251
426 425
204 203
11 12
708 709
500 499
581 582
365 364
1108 1109
53 54
1003 1002
72 71
886 885
289 288
787 786
1000 1001
170 171
626 627
313 314
73 72
113 114
363 362
564 565
166 165
660 661
282 283
519 520
48 47
453 452
470 469
806 807
228 227
260 261
1076 1075
259 260
605 606
1011 1012
444 443
183 182
724 723
1113 1114
127 126
315 316
615 614
158 159
1091 1090
462 463
188 189
810 809
58 59
907 906
358 359
298 299
562 563
932 931
196 197
656 655
381 382
1069 1070
223 224
110 111
290 289
1103 1104
541 540
779 778
573 572
621 620
141 142
564 563
950 949
592 591
664 665
699 700
853 852
297 298
833 832
544 543
41 40
966 965
791 792
714 715
161 160
128 129
417 418
482 483
211 210
322 323
506 507
1085 1086
307 308
883 882
1084 1085
119 120
429 430
201 200
284 283
671 670
317 316
1095 1094
797 796
1060 1059
658 657
804 803
910 909
552 551
275 276
794 795
95 96
779 780
204 205
7 8
829 830
1056 1057
9 10
464 463
871 870
740 739
911 910
882 881
760 759
469 468
491 492
817 818
816 817
56 55
934 6
107 106
625 624
360 359
711 712
78 79
428 427
896 897
850 851
993 992
92 93
965 964
34 33
1006 1007
916 915
479 478
522 523
784 783
1115 1114
741 740
641 642
915 914
39 40
282 281
1088 1087
120 121
943 942
1008 1009
745 744
951 952
822 821
681 682
518 517
67 66
1016 1015
137 136
995 994
756 755
466 465
467 468
875 874
396 395
626 625
548 549
184 185
891 890
703 704
782 781
516 515
1045 1044
1037 1036
698 697
583 584
240 241
630 629
983 984
860 861
959 958
998 999
133 134
830 831
1005 1004
153 152
980 981
295 294
1080 1081
193 192
616 615
748 5
797 798
961 962
677 676
542 541
983 982
1064 1065
238 239
148 149
297 296
806 805
972 973
1082 1081
791 790
386 385
454 453
589 590
1100 1101
361 360
226 227
966 967
831 832
872 871
502 503
254 253
1014 1015
477 478
278 277
202 203
331 332
1062 1063
619 618
312 313
17 18
257 256
23 22
505 504
51 52
570 571
529 528
958 957
845 844
379 380
278 279
888 887
643 644
980 979
929 928
1072 1073
553 554
1040 1039
578 579
919 920
758 759
569 570
108 109
578 577
715 716
828 829
786 785
391 390
565 566
446 447
942 941
351 350
989 990
218 217
685 684
647 646
905 904
165 164
780 781
238 237
1025 1026
613 614
303 304
234 233
987 986
610 609
193 194
597 596
403 402
485 484
694 693
16 15
135 134
109 110
557 558
485 486
445 446
613 612
954 955
539 540
752 751
1003 1004
411 412
1014 1013
760 761
546 547
329 328
702 703
296 295
437 436
651 652
132 133
143 142
378 379
1098 1099
85 86
274 275
344 345
1083 1084
1079 1078
977 978
868 867
482 481
255 254
734 733
754 753
140 139
699 698
41 42
279 280
36 37
494 495
1107 1108
1022 1023
610 611
923 924
475 476
197 198
130 129
619 620
458 459
841 842
332 333
1098 1097
327 328
489 488
8 9
996 995
635 634
98 99
765 764
364 363
652 653
320 319
229 230
321 320
16 17
617 616
631 632
74 75
900 899
57 58
494 493
617 618
348 349
490 489
741 742
66 65
725 724
766 767
1053 1052
228 229
263 264
1049 1048
63 62
682 683
709 710
838 839
455 454
873 874
877 878
222 223
43 42
666 665
773 774
375 376
111 112
305 306
514 513
913 914
30 29
267 266
93 94
657 656
350 349
225 224
1013 1012
918 917
844 843
1047 1046
790 789
689 690
1079 1080
1062 1061
739 738
799 798
169 170
968 967
474 475
119 118
103 102
668 669
327 326
404 405
749 750
522 521
930 931
206 205
271 272
712 713
638 639
232 233
209 208
424 423
957 956
153 154
667 666
751 750
68 67
207 206
1038 1037
815 816
121 122
637 638
447 448
808 809
1032 1033
457 456
693 692
673 672
755 754
669 670
736 735
394 393
411 410
149 150
187 188
884 885
623 622
858 857
414 415
975 974
521 520
811 812
259 258
855 856
868 869
269 268
35 36
825 826
180 181
550 551
713 714
677 678
369 370
182 181
265 266
510 509
686 685
339 338
688 689
836 835
907 908
523 524
151 152
1109 1110
14 13
305 304
65 64
1069 1068
245 246
655 654
216 215
772 773
361 362
864 863
194 195
91 92
1067 1066
970 971
1076 1077
998 997
922 923
438 437
859 860
156 157
1046 1045
978 979
253 252
6 1
465 464
599 600
448 449
2 1
372 371
270 269
343 344
641 640
508 507
293 294
70 69
502 501
976 977
43 44
1066 1065
138 137
394 395
726 727
518 519
692 691
530 529
85 84
912 911
473 474
333 334
151 150
650 651
628 627
505 506
765 766
811 810
235 236
876 877
600 601
836 837
270 271
605 604
403 404
587 588
145 144
378 377
116 115
26 25
285 286
461 462
568 567
1043 1042
903 902
49 50
222 221
396 397
366 365
815 814
1116 1115
3 4
746 747
467 466
161 162
425 424
340 341
825 824
389 390
116 117
435 436
598 599
1112 1113
240 239
726 725
568 569
1006 1005
1064 1063
167 168
1091 1092
325 326
834 833
493 492
442 441
1 7
375 374
1036 1035
975 976
813 812
216 217
944 943
14 15
985 986
335 336
325 324
803 802
1018 1017
357 358
220 221
706 705
337 338
432 433
287 288
999 1000
738 737
509 508
392 393
559 560
419 420
901 902
879 878
731 732
525 526
854 855
601 602
1082 1083
75 76
388 387
843 842
694 695
531 530
950 951
456 455
566 567
191 190
19 20
1029 1028
470 471
988 989
936 935
112 113
19 18
1075 1074
947 948
697 696
300 301
53 52
401 402
163 162
1007 1008
940 941
382 383
597 598
130 131
633 632
1105 1104
962 963
248 247
417 416
28 27
767 768
76 77
642 643
1118 1117
827 826
964 963
1072 1071
20 21
939 938
231 230
886 887
659 658
25 24
460 459
187 186
231 232
799 800
1117 1116
543 542
646 645
1089 1088
644 645
440 439
421 420
952 953
55 54
634 633
77 78
486 487
1030 1029
99 100
248 249
301 302
380 381
371 370
164 163
903 904
783 782
431 430
946 947
401 400
662 661
1010 1009
984 985
676 675
1034 1033
718 717
452 451
630 631
674 673
1019 1018
272 273
663 664
513 512
838 837
970 969
318 317
534 535
1027 1026
1102 1101
37 38
495 496
399 398
218 219
147 146
758 757
299 300
347 346
575 576
959 960
919 918
822 823
415 416
840 841
89 88
220 219
71 70
413 414
926 927
788 787
262 263
1025 1024
728 729
400 399
1021 1020
366 367
1041 1040
1071 1070
79 80
580 581
981 982
491 490
1031 1030
276 277
769 770
237 236
805 804
356 357
558 559
869 870
900 901
173 174
64 63
177 176
250 249
719 718
1105 1106
1052 1051
876 875
213 214
472 471
73 74
312 311
819 820
1111 1110
648 647
387 386
827 828
169 168
46 45
691 690
1073 1074
532 533
792 793
1020 1019
292 291
940 939
539 538
793 794
257 258
1099 1100
990 991
245 244
202 201
704 705
929 930
102 101
762 761
608 609
242 241
1096 1097
801 802
536 537
928 927
1016 1017
845 846
346 345
242 243
473 472
1002 1001
280 281
1021 1022
337 336
847 846
352 351
595 594
660 659
457 458
624 623
621 622
498 497
373 372
546 545
12 13
126 125
90 89
235 234
123 124
735 734
243 244
674 675
273 274
731 730
881 880
199 200
57 56
941 176 380
1 7
527 1
1 494
1 864
1 491
244 1
1 369
24 1
1 185
1 688
103 1
1 395
750 1
1 218
114 1
1 835
1 150
383 1
1 652
1 143
1 892
1 707
38 1
1 922
137 1
1 113
1 501
172 1
544 1
1 132
1 54
457 1
1 354
679 1
622 1
1 568
1 682
547 1
1 111
231 1
802 1
1 336
195 1
1 901
318 1
311 1
1 740
1 680
538 1
1 743
1 589
1 890
1 489
217 1
610 1
1 644
365 1
1 306
870 1
1 564
1 345
314 1
1 201
1 548
573 1
1 620
1 381
1 474
1 410
367 1
729 1
889 1
1 248
675 1
1 735
1 357
192 1
1 197
1 177
1 411
515 1
1 64
1 202
540 1
746 1
1 932
1 43
1 681
1 406
664 1
444 1
1 179
1 756
602 1
65 1
614 1
398 1
778 1
447 1
1 193
1 144
884 1
159 1
477 1
1 432
1 799
1 763
436 1
1 109
1 226
894 1
1 803
1 90
1 790
408 1
1 910
1 820
1 822
167 1
1 703
1 636
505 1
909 1
552 1
400 1
124 1
1 186
1 627
854 1
414 1
619 1
1 292
1 446
1 648
1 182
770 1
692 1
1 716
1 845
906 1
247 1
1 645
1 286
1 166
355 1
775 1
1 628
768 1
1 68
303 1
502 1
1 534
1 238
175 1
1 938
1 184
1 585
1 732
1 919
454 1
895 1
1 866
1 868
1 255
171 1
805 1
409 1
343 1
13 1
92 1
170 1
1 659
545 1
483 1
1 640
646 1
1 290
797 1
1 127
1 332
930 1
569 1
1 571
1 554
1 927
718 1
1 723
1 56
1 744
721 1
712 1
1 818
508 1
1 853
1 566
1 492
1 590
557 1
1 724
327 1
30 1
1 912
594 1
349 1
1 212
1 458
1 235
207 1
475 1
1 214
612 1
1 851
20 1
377 1
929 1
1 633
873 1
806 1
1 587
937 1
1 101
774 1
1 96
641 1
1 428
1 878
388 1
1 12
773 1
1 455
821 1
422 1
1 810
781 1
702 1
663 1
1 35
1 146
1 776
811 1
299 1
310 1
342 1
825 1
1 865
176 1
1 338
1 312
1 586
498 1
1 74
33 1
599 1
1 649
605 1
1 748
1 513
837 1
791 1
1 637
1 123
181 1
1 722
1 384
1 323
26 1
294 1
1 678
752 1
1 467
160 1
403 1
1 70
1 19
798 1
1 288
519 1
1 887
1 516
1 295
1 601
486 1
2 3
579 1
1 11
206 1
1 279
757 1
738 1
445 1
689 1
1 823
1 389
60 1
1 800
453 1
1 807
1 882
857 1
493 1
653 1
259 1
563 1
1 591
161 1
1 80
352 1
725 1
162 1
1 670
872 1
551 1
581 1
1 923
104 1
257 1
397 1
130 1
110 1
1 164
479 1
330 1
598 1
1 84
559 1
536 1
905 1
1 838
1 2
1 708
1 933
643 1
717 1
504 1
1 91
1 698
98 1
1 245
576 1
533 1
877 1
931 1
1 834
1 329
187 1
1 793
174 1
37 1
593 1
1 55
189 1
1 378
1 844
285 1
658 1
690 1
924 1
926 1
102 1
282 1
617 1
1 572
1 669
518 1
731 1
1 611
1 145
364 1
1 592
603 1
62 1
769 1
16 1
600 1
296 1
188 1
307 1
242 1
697 1
1 555
122 1
1 710
1 220
831 1
371 1
1 120
1 575
1 77
1 642
283 1
163 1
920 1
1 396
1 537
1 399
1 87
666 1
888 1
902 1
1 67
1 210
815 1
1 671
615 1
883 1
1 510
1 423
482 1
42 1
250 1
899 1
1 535
1 450
604 1
1 97
1 460
911 1
672 1
1 221
1 885
1 595
1 232
194 1
808 1
840 1
1 786
1 874
99 1
1 742
4 3
1 700
426 1
1 363
1 180
1 859
301 1
928 1
1 168
796 1
9 1
50 1
1 921
390 1
1 75
871 1
89 1
1 880
203 1
715 1
441 1
191 1
1 27
304 1
468 1
281 1
1 94
1 234
335 1
638 1
449 1
1 699
1 766
487 1
1 655
841 1
1 739
32 1
433 1
366 1
1 316
1 676
1 260
1 362
351 1
1 772
1 782
662 1
558 1
1 539
1 418
254 1
618 1
1 228
1 213
1 461
713 1
1 264
1 308
1 925
196 1
126 1
526 1
53 1
298 1
1 339
215 1
1 199
496 1
331 1
401 1
1 117
542 1
530 1
251 1
1 48
1 934
15 1
667 1
360 1
1 876
1 22
1 287
158 1
372 1
1 309
1 200
1 577
375 1
1 413
341 1
1 434
897 1
849 1
313 1
429 1
1 869
1 784
881 1
1 814
1 29
284 1
1 706
1 842
1 459
1 23
420 1
1 852
1 347
1 848
66 1
941 1
1 265
435 1
1 596
613 1
795 1
736 1
58 1
1 183
1 711
134 1
1 275
216 1
1 451
514 1
1 478
674 1
346 1
686 1
1 34
440 1
431 1
1 647
267 1
1 129
1 524
490 1
1 827
1 517
1 779
561 1
1 25
1 875
297 1
59 1
1 896
1 46
280 1
1 907
1 252
1 826
639 1
1 691
787 1
847 1
1 809
8 1
1 616
473 1
1 465
1 271
661 1
88 1
898 1
893 1
695 1
1 392
1 78
83 1
1 115
173 1
289 1
1 82
1 733
404 1
353 1
1 824
862 1
227 1
650 1
230 1
1 121
1 629
1 324
1 462
497 1
476 1
813 1
1 550
300 1
1 833
52 1
794 1
1 69
1 302
745 1
1 326
914 1
1 520
1 754
1 609
402 1
863 1
1 223
1 44
1 31
41 1
1 630
407 1
1 133
147 1
1 804
1 812
1 358
1 632
696 1
466 1
651 1
106 1
693 1
142 1
28 1
456 1
1 506
464 1
1 45
829 1
1 139
1 913
499 1
1 105
765 1
1 665
1 253
1 567
1 578
1 256
243 1
543 1
1 556
607 1
915 1
843 1
597 1
1 546
1 190
1 386
1 416
1 273
370 1
1 771
39 1
1 936
1 801
1 356
100 1
819 1
503 1
1 154
128 1
521 1
131 1
1 918
140 1
1 14
1 263
1 582
40 1
1 412
1 528
291 1
1 51
1 317
387 1
1 935
1 393
1 677
1 621
1 654
1 562
340 1
891 1
867 1
1 570
747 1
198 1
1 382
76 1
1 673
1 737
625 1
374 1
1 425
1 118
1 471
1 108
47 1
751 1
269 1
1 761
81 1
1 480
1 368
1 138
1 830
720 1
1 917
328 1
939 1
488 1
4 5
753 1
631 1
762 1
315 1
714 1
1 63
1 334
1 322
668 1
320 1
785 1
1 427
1 415
1 606
1 380
1 276
1 728
719 1
1 373
588 1
1 6
1 319
560 1
277 1
350 1
463 1
135 1
448 1
1 153
726 1
1 156
583 1
860 1
442 1
1 36
1 224
683 1
443 1
734 1
204 1
1 305
1 337
1 240
1 523
152 1
1 155
1 608
705 1
1 439
1 758
169 1
95 1
940 1
1 900
1 704
452 1
1 417
149 1
438 1
861 1
151 1
1 836
623 1
1 469
359 1
635 1
709 1
348 1
5 1
1 481
1 237
764 1
125 1
1 657
1 325
908 1
509 1
816 1
1 208
1 246
1 500
10 1
1 361
656 1
1 626
1 222
79 1
777 1
1 266
574 1
1 17
1 86
495 1
1 727
1 485
1 268
1 660
1 430
531 1
1 846
1 239
760 1
333 1
1 278
792 1
1 767
241 1
344 1
1 178
529 1
1 321
1 685
225 1
262 1
1 789
1 49
85 1
855 1
1 741
749 1
512 1
141 1
879 1
858 1
421 1
1 783
817 1
1 116
532 1
1 107
1 904
229 1
470 1
72 1
1 112
684 1
272 1
484 1
511 1
391 1
18 1
1 148
1 507
1 424
1 165
1 624
1 219
780 1
236 1
1 209
839 1
730 1
1 687
385 1
437 1
249 1
634 1
1 584
916 1
405 1
1 828
1 61
541 1
1 788
376 1
261 1
1 549
1 886
119 1
1 157
553 1
850 1
832 1
1 293
580 1
694 1
1 71
21 1
522 1
1 856
419 1
274 1
759 1
1 755
1 565
211 1
57 1
1 394
701 1
258 1
1 93
1 903
1 233
1 472
525 1
1 136
1 270
1 73
1 379
205 1
1406 1083 376
399 1
1 1256
790 1
397 1
928 1
482 1
284 1
800 1
199 1
1 1192
586 1
152 1
1 878
782 1
1 1092
833 1
1 307
1 872
1 802
1 1067
1 780
1 1026
1 301
1 111
361 1
1 715
1 86
1 505
1 697
1200 1
1 329
289 1
1 103
881 1
1 857
561 1
1274 1
1 967
1 37
1 842
777 1
1136 1
1 136
991 1
1 90
585 1
419 1
1 120
656 1
1121 1
1 1384
1 1186
1 502
1 358
1368 1
16 1
38 1
1379 1
1 293
635 1
852 1
1 62
1 1021
1 764
1 557
1 299
1 256
868 1
1008 1
1245 1
916 1
292 1
1 860
1 1014
1 1201
468 1
1 930
1 614
644 1
1066 1
1 1361
1 96
1 32
188 1
1 537
1175 1
1 9
1 1078
1 406
415 1
1 820
1283 1
1 430
1 122
1 63
836 1
1 835
1 1258
267 1
580 1
1231 1
1 1054
700 1
1 720
1095 1
1155 1
1 1277
552 1
596 1
1 149
1 996
1 500
1 249
260 1
1404 1
1 698
1 794
906 1
66 1
1 971
1152 1
917 1
729 1
1120 1
150 1
1 512
1 1281
432 1
660 1
438 1
1 769
263 1
1401 1
1 574
745 1
1 567
410 1
388 1
394 1
1 808
1 858
1 115
141 1
1 731
173 1
304 1
950 1
1 705
896 1
321 1
1 519
390 1
901 1
1 338
1 774
1301 1
197 1
1 525
1 732
1 981
279 1
481 1
683 1
1 988
1 268
599 1
1 703
1020 1
964 1
1375 1
840 1
128 1
1222 1
686 1
153 1
864 1
503 1
1260 1
1360 1
1 1047
667 1
1 98
992 1
1 636
1 1325
1205 1
1012 1
998 1
687 1
813 1
1 332
1 597
1 1001
1 442
1 608
1 1373
1 817
1 983
1 575
1 812
239 1
1164 1
166 1
1114 1
1 452
1 716
1 894
1311 1
1 883
845 1
1024 1
1 709
1011 1
222 1
641 1
1 100
1159 1
947 1
1286 1
1 172
758 1
1 497
1 685
1 475
1 196
1 542
1 625
1 20
1 1294
651 1
615 1
959 1
1139 1
1 1214
1 1381
1 607
1 1358
4 3
1272 1
1297 1
746 1
1 871
1 891
1087 1
1 823
1 637
1216 1
137 1
1290 1
579 1
253 1
1 1111
621 1
706 1
461 1
1169 1
1 401
277 1
1 920
1 130
1 501
1264 1
727 1
1 1071
1028 1
114 1
1 546
1 531
1 1174
76 1
355 1
1 345
768 1
922 1
850 1
982 1
1 1094
1295 1
1316 1
4 1
327 1
853 1
1 271
1027 1
640 1
1 1181
1127 1
1 1030
1 688
429 1
1 974
1 485
547 1
1 337
418 1
690 1
273 1
1397 1
893 1
1 233
1 351
1182 1
1 462
212 1
1 306
1 1284
1 1218
1 976
1 1239
1 232
661 1
712 1
555 1
924 1
1 495
956 1
1 360
763 1
1 36
323 1
650 1
1366 1
1052 1
1 341
1 711
440 1
1 675
398 1
1005 1
1 565
1171 1
1 1064
994 1
1213 1
1 378
714 1
1 694
1 830
300 1
1 156
1 290
1 875
1 634
1 1238
1 1396
1 83
1 467
1 514
771 1
211 1
1 393
1 779
64 1
1 1350
1 463
1 218
1 936
1 17
24 1
1 799
1 314
1112 1
647 1
805 1
1123 1
1251 1
1 204
1157 1
1 721
1 126
630 1
302 1
1150 1
775 1
571 1
1 51
772 1
504 1
1 202
1254 1
1048 1
909 1
107 1
978 1
952 1
627 1
1 995
1 1322
1 216
1 69
1 815
1 793
82 1
544 1
1 1386
1 1137
1 1036
226 1
303 1
899 1
1 309
970 1
91 1
1 389
1 1261
1 989
825 1
1 1029
612 1
1 363
1 1225
1 14
330 1
1 955
756 1
1 1328
1 1166
1 1282
1 175
508 1
638 1
1 908
1 1138
1153 1
1203 1
1 1353
990 1
266 1
1197 1
1 185
1 1230
29 1
966 1
1 972
1 590
953 1
1 997
147 1
281 1
1 889
954 1
1 735
1 1018
946 1
431 1
834 1
1173 1
1004 1
35 1
1 278
478 1
291 1
1388 1
1 672
1 1246
295 1
1 676
645 1
210 1
1229 1
488 1
1 225
77 1
1 1232
708 1
1041 1
1 1296
1 297
1 728
1 1306
1 317
1 862
1 821
1 483
888 1
1003 1
1 6
592 1
445 1
84 1
914 1
1 832
902 1
133 1
1070 1
1292 1
1 927
1045 1
693 1
1 346
1365 1
1 1268
470 1
1 1177
948 1
719 1
1 68
611 1
1 1345
935 1
320 1
1 897
1108 1
670 1
139 1
551 1
1 511
1 766
1 1317
1 39
1 72
110 1
1 187
1 704
1189 1
26 1
1 787
1 479
1187 1
1195 1
1 169
1132 1
1 71
1 78
1180 1
1 424
1 1300
804 1
117 1
1 426
1 1362
987 1
1 938
1 434
583 1
1 1367
2 3
1289 1
1 527
854 1
1 1318
1074 1
49 1
1332 1
1 1217
1 200
1046 1
1343 1
507 1
795 1
1280 1
1 1084
1 613
1025 1
1 516
530 1
412 1
1044 1
1 471
408 1
1 124
1 1372
87 1
1 1288
1 1082
459 1
1 140
480 1
1331 1
1 244
1 905
447 1
1 413
400 1
1 1269
1107 1
1 125
818 1
228 1
652 1
1237 1
785 1
1 877
1 907
1000 1
1 1391
1 1395
1110 1
1 1355
243 1
435 1
1 1031
1 692
85 1
1 1394
1266 1
975 1
1 342
1357 1
1033 1
1 934
1 1040
1 1002
182 1
560 1
287 1
1193 1
1158 1
601 1
1 331
1 1184
206 1
1 1196
1 984
1 911
54 1
1 280
1 1227
1 319
945 1
1 353
347 1
1104 1
1 170
1 797
1069 1
1 831
1 371
433 1
1 270
1 606
205 1
679 1
1 509
1 849
1 1061
1 1015
1131 1
1 328
748 1
1257 1
741 1
1255 1
1053 1
374 1
472 1
624 1
1 261
762 1
1211 1
1 1206
1 456
789 1
1 725
269 1
1387 1
1 241
1 73
487 1
1 1178
421 1
1 536
1 826
1 691
229 1
910 1
662 1
900 1
1 380
417 1
1 75
890 1
591 1
262 1
1 366
1243 1
1270 1
1068 1
245 1
1 1063
1 81
1 364
1250 1
738 1
1 238
668 1
642 1
1226 1
566 1
1 1129
1179 1
751 1
234 1
1 416
609 1
1341 1
274 1
814 1
1 439
1188 1
215 1
1242 1
1223 1
1 1276
33 1
961 1
1 1016
584 1
1299 1
1339 1
1103 1
1 1405
423 1
1 724
1359 1
1072 1
1 629
1278 1
1 357
437 1
1 518
1 1342
1356 1
1 977
1 1057
1 31
1 160
1 383
102 1
1073 1
1 760
1 201
1 1101
1 577
1 61
1 237
1 376
1 25
1 734
276 1
255 1
373 1
405 1
1 749
1202 1
450 1
310 1
325 1
1 213
254 1
1038 1
1 294
1 129
1 543
1105 1
1 490
1 1145
1 541
369 1
12 1
1 1208
1161 1
1 1168
407 1
1 940
65 1
1 339
1117 1
677 1
1 372
1 67
1 620
1 1267
713 1
484 1
1 334
1 589
730 1
1 791
474 1
1 903
1 105
1144 1
1 773
1 515
548 1
217 1
1079 1
1 1363
1 576
1 957
1 1241
1313 1
1 362
1 522
921 1
1198 1
1 184
1 1287
352 1
190 1
1 1058
1 19
1 246
524 1
870 1
1 807
118 1
1 443
1 1247
1 643
1 1329
1 344
1 466
1 1194
1307 1
1 191
1 109
973 1
1327 1
1 570
1 866
1265 1
1315 1
235 1
1335 1
1 365
1 1351
1 1106
1364 1
1 311
861 1
1 58
1 183
1 23
1 41
22 1
1346 1
1 240
1349 1
1 604
1 885
1 1326
1 375
1165 1
796 1
757 1
1207 1
1 1240
876 1
1130 1
1 1010
1 1354
1 385
788 1
1371 1
409 1
44 1
1 923
1116 1
1 1019
1118 1
194 1
59 1
523 1
1 1406
1 167
453 1
1 74
1 588
1 1035
1 250
701 1
1060 1
208 1
1 336
926 1
822 1
155 1
1 1370
209 1
572 1
1 444
460 1
1210 1
682 1
231 1
60 1
1 181
654 1
811 1
1 801
1 663
1 1076
545 1
97 1
1 106
616 1
1 1042
1 1293
1 1385
1 582
1392 1
932 1
828 1
1 1080
810 1
1324 1
1 1403
1 151
931 1
1 94
382 1
370 1
1133 1
1 53
1374 1
1263 1
809 1
1 1273
1 486
1228 1
1 1271
1 855
1 784
598 1
1 513
1330 1
154 1
402 1
247 1
1 404
465 1
1 1400
145 1
1 882
1 526
958 1
655 1
1 451
1 776
1 21
1 1162
665 1
1 1303
1334 1
1253 1
1 30
1 223
1 1146
1115 1
1 92
1 1163
1 1383
1 1380
535 1
1 1097
1 913
224 1
824 1
1 723
1 18
359 1
322 1
1 684
1 1337
1 108
553 1
838 1
381 1
1 726
1 403
1 159
1 534
1 674
335 1
1 517
1 138
1 798
918 1
739 1
1 34
186 1
1 1249
867 1
1333 1
1032 1
1 968
619 1
1 1055
1 135
1244 1
425 1
1119 1
1065 1
595 1
1 886
1 1056
943 1
1302 1
1 1124
639 1
1 1007
1 1398
157 1
892 1
1 993
144 1
1 164
1 257
743 1
1 1399
1 874
1 1199
839 1
1 162
1 1023
387 1
1 318
1 1039
379 1
827 1
1 848
1 617
198 1
653 1
1 1221
628 1
1 354
1 578
1 52
1 28
1 695
1 214
1 933
1 1320
1 377
1 131
1 792
559 1
1 856
1 1093
45 1
428 1
391 1
1 1125
1 219
1 2
1 464
192 1
1 312
1 80
783 1
1 733
1 88
1 221
1154 1
1 142
422 1
1 27
863 1
1 367
1013 1
1 659
573 1
1190 1
1 99
1 1037
1 48
1224 1
737 1
1128 1
1 189
1 348
1 116
1098 1
1 602
1 1204
1 887
47 1
915 1
469 1
1 163
696 1
1 1352
1236 1
1 521
1089 1
1 1160
1 671
962 1
1 587
1 5
1 1376
1109 1
1183 1
1 313
761 1
1 979
498 1
1 1248
563 1
1235 1
873 1
755 1
1 1259
93 1
454 1
1 326
1090 1
1 494
1 1185
879 1
1 493
1 55
1 569
960 1
70 1
1 272
1 165
1 666
10 1
540 1
298 1
1 1219
1 951
506 1
610 1
533 1
441 1
942 1
1 632
581 1
1 919
477 1
1340 1
1 177
1191 1
1 1382
1147 1
1 510
43 1
492 1
1102 1
1 736
343 1
1 171
1 496
1043 1
1113 1
1 427
220 1
13 1
1 356
286 1
985 1
532 1
436 1
1 646
1 744
556 1
912 1
1 1140
742 1
308 1
395 1
1 1338
252 1
1220 1
1 251
1049 1
119 1
1 1252
1 168
649 1
1 1215
174 1
1 178
1 392
42 1
1 929
1 288
1 778
1 803
333 1
1 236
1402 1
264 1
1 315
631 1
1134 1
473 1
1 46
689 1
1 1314
1 740
1 476
1279 1
1 925
1 1088
1 1167
1 539
1 1308
1 448
880 1
203 1
520 1
1 1017
1 765
1 1323
1 648
1 1096
489 1
1135 1
819 1
1 1122
1 134
1 1009
1 1062
1275 1
40 1
1 1051
1 1151
180 1
1 146
1291 1
1 1309
414 1
1 699
1 1099
657 1
837 1
1 937
1 594
1 1126
340 1
1 368
179 1
1 230
1 1344
1091 1
1 841
176 1
1 123
1 658
1 7
554 1
1 1312
1 316
1 829
1393 1
113 1
1081 1
1 285
1 1347
1378 1
1 350
132 1
622 1
1 258
1 104
1 750
558 1
1075 1
1 1212
1142 1
1304 1
1 626
1 969
1086 1
1141 1
681 1
1 1176
1 869
1 411
980 1
722 1
1148 1
986 1
1 844
499 1
11 1
710 1
112 1
1 396
1 275
806 1
851 1
1 999
898 1
282 1
1 529
1 420
1 1209
847 1
1 528
593 1
89 1
1 550
1 50
158 1
1006 1
1 963
1 143
1 1234
678 1
127 1
1 1377
1389 1
1 843
193 1
1 786
1 8
95 1
1 1149
1 770
1 227
1 941
296 1
1022 1
259 1
816 1
1 846
568 1
1 1319
1 446
1 349
707 1
1 944
1 752
1156 1
753 1
1 1083
1 283
1 865
1 1170
1 1321
1 673
1 718
1298 1
1 195
1 633
1 949
1 386
1 600
767 1
1 717
207 1
939 1
1 15
1 623
458 1
1 549
895 1
1 884
1 680
1 248
1050 1
1059 1
305 1
1 1077
491 1
1 148
1 57
1 1143
1 1390
1310 1
664 1
1 449
1100 1
1305 1
1 859
1 384
1 781
1 1034
1 1085
455 1
1 669
1 1233
1 702
1 161
1 965
747 1
1 265
1 538
1 754
121 1
457 1
1 1262
618 1
1 759
603 1
1172 1
564 1
1285 1
1 904
1 1369
1348 1
324 1
1 242
605 1
1336 1
79 1
1 56
101 1
1 562
976 13 175
1 766
957 1
346 1
1 169
1 626
1 33
760 1
103 1
606 1
1 404
1 873
899 1
1 244
1 757
1 8
204 1
1 454
853 1
1 761
647 1
470 1
1 710
1 305
364 1
1 627
1 912
1 274
1 872
484 1
242 1
683 1
847 1
1 494
1 387
1 80
1 629
695 1
681 1
1 198
1 588
776 1
1 310
923 1
558 1
1 18
1 650
1 398
1 742
595 1
460 1
1 206
1 498
1 302
804 1
582 1
1 137
1 887
1 255
1 699
1 522
440 1
572 1
837 1
337 1
1 792
1 65
1 474
1 881
1 747
958 1
1 769
817 1
828 1
160 1
1 331
355 1
1 852
122 1
90 1
1 315
253 1
168 1
1 183
1 937
260 1
1 312
1 465
507 1
307 1
1 851
1 292
361 1
9 1
1 877
1 410
844 1
1 726
133 1
1 713
1 343
1 362
1 576
583 1
51 1
1 882
1 561
256 1
946 1
1 403
247 1
386 1
127 1
1 342
508 1
1 374
798 1
1 884
831 1
961 1
194 1
889 1
263 1
1 366
1 67
1 287
1 920
31 1
117 1
128 1
1 85
4 5
1 517
571 1
314 1
1 485
936 1
46 1
322 1
165 1
584 1
1 26
1 350
1 19
562 1
1 180
437 1
593 1
1 195
700 1
156 1
1 819
1 543
283 1
1 199
825 1
966 1
551 1
401 1
1 545
389 1
1 97
702 1
1 295
1 120
1 121
1 56
1 500
651 1
44 1
1 261
1 22
644 1
1 822
796 1
1 469
250 1
1 411
375 1
308 1
370 1
1 88
1 846
801 1
476 1
1 323
1 637
841 1
1 415
1 324
1 174
1 352
1 676
353 1
711 1
744 1
933 1
1 524
141 1
667 1
399 1
1 105
55 1
1 968
663 1
325 1
548 1
974 1
24 1
1 944
200 1
720 1
797 1
482 1
694 1
581 1
585 1
41 1
1 658
225 1
1 275
967 1
1 347
867 1
1 457
257 1
1 675
781 1
1 832
1 136
73 1
906 1
385 1
1 573
93 1
1 733
737 1
1 245
1 64
829 1
592 1
580 1
444 1
547 1
1 327
86 1
1 528
70 1
1 518
116 1
1 37
1 13
1 845
856 1
632 1
425 1
1 407
1 925
1 965
777 1
1 318
382 1
1 496
367 1
1 82
534 1
1 175
1 402
1 549
682 1
706 1
956 1
124 1
101 1
1 656
42 1
565 1
1 336
233 1
1 826
400 1
741 1
1 356
3 2
1 802
1 969
249 1
28 1
1 505
1 772
372 1
622 1
1 916
520 1
345 1
1 45
1 833
1 279
1 609
808 1
388 1
1 326
1 330
1 357
709 1
17 1
842 1
655 1
1 107
1 286
1 928
1 735
76 1
1 414
1 50
359 1
211 1
513 1
1 784
1 466
1 412
1 214
756 1
619 1
940 1
189 1
834 1
132 1
1 960
177 1
860 1
1 392
883 1
135 1
1 680
1 949
1 456
1 271
1 449
698 1
693 1
1 673
1 770
869 1
1 686
197 1
900 1
1 529
246 1
1 745
467 1
1 78
1 661
395 1
142 1
1 740
1 564
226 1
53 1
91 1
790 1
1 907
1 950
219 1
205 1
207 1
1 319
971 1
1 541
6 1
1 210
1 201
1 376
947 1
1 600
1 222
358 1
557 1
1 596
1 603
442 1
705 1
538 1
1 59
1 502
941 1
824 1
752 1
605 1
280 1
1 427
304 1
146 1
69 1
1 552
1 321
1 640
1 479
840 1
691 1
1 224
1 746
1 715
959 1
339 1
1 536
1 419
1 732
1 785
66 1
515 1
1 736
1 773
391 1
202 1
791 1
918 1
806 1
919 1
628 1
1 586
1 150
1 380
1 942
1 526
1 228
98 1
171 1
433 1
1 645
533 1
1 638
1 220
1 678
151 1
291 1
267 1
1 349
708 1
276 1
1 788
102 1
1 504
1 525
885 1
696 1
1 512
1 453
1 816
2 1
483 1
6 5
143 1
1 871
1 487
1 707
1 217
1 929
1 230
1 858
134 1
1 560
1 544
1 612
475 1
854 1
435 1
495 1
216 1
1 955
617 1
499 1
1 60
762 1
1 926
431 1
1 49
258 1
866 1
409 1
748 1
807 1
365 1
1 607
639 1
1 778
1 943
643 1
1 892
1 646
1 868
1 688
727 1
436 1
94 1
1 527
173 1
1 172
1 857
719 1
1 32
1 126
1 669
1 722
893 1
1 89
922 1
1 664
1 417
1 666
1 917
418 1
1 111
751 1
299 1
780 1
1 333
1 301
1 119
897 1
953 1
1 951
810 1
1 556
1 447
1 908
452 1
1 158
1 38
1 779
952 1
1 728
277 1
1 240
516 1
896 1
1 451
546 1
162 1
1 390
1 927
704 1
1 613
1 894
1 448
434 1
1 717
692 1
1 266
1 521
1 767
1 764
1 15
235 1
1 813
1 182
590 1
1 264
1 317
1 509
1 179
1 106
970 1
1 488
1 463
284 1
77 1
587 1
1 849
140 1
1 795
1 754
1 910
1 939
1 438
821 1
1 27
493 1
423 1
1 110
377 1
973 1
208 1
422 1
239 1
1 634
1 803
1 610
1 902
1 759
865 1
1 186
1 30
285 1
472 1
1 340
468 1
1 878
1 491
1 234
1 178
665 1
35 1
1 378
739 1
763 1
895 1
1 886
598 1
1 480
1 259
668 1
47 1
83 1
723 1
144 1
1 765
1 237
1 563
1 861
471 1
461 1
1 148
1 815
1 181
196 1
192 1
1 459
290 1
1 903
383 1
1 730
1 809
1 924
309 1
1 227
1 58
945 1
597 1
1 930
954 1
490 1
642 1
368 1
92 1
1 621
1 416
1 445
43 1
1 789
1 170
938 1
1 506
962 1
497 1
864 1
1 21
1 354
188 1
1 163
1 578
1 671
1 87
1 185
1 601
413 1
1 379
782 1
1 729
1 976
1 812
1 843
1 599
113 1
57 1
48 1
1 559
193 1
289 1
569 1
1 579
52 1
793 1
477 1
1 115
429 1
231 1
481 1
1 20
191 1
1 537
905 1
1 100
758 1
270 1
1 152
29 1
1 184
1 71
215 1
800 1
428 1
862 1
577 1
1 306
1 262
238 1
329 1
161 1
297 1
879 1
1 731
703 1
232 1
1 535
157 1
1 218
1 921
1 670
1 712
1 112
689 1
1 749
1 426
1 540
811 1
1 888
1 630
1 40
1 542
1 555
1 511
446 1
293 1
1 608
1 458
554 1
1 149
1 16
1 229
1 268
1 273
421 1
566 1
1 464
618 1
948 1
750 1
1 631
1 109
721 1
1 381
914 1
738 1
1 716
1 424
1 313
975 1
662 1
799 1
1 489
130 1
768 1
1 223
1 774
553 1
1 63
786 1
1 510
1 835
1 159
1 818
1 473
1 677
823 1
539 1
1 615
964 1
830 1
1 118
1 153
1 145
104 1
1 108
519 1
672 1
213 1
1 550
84 1
1 820
1 221
1 743
1 166
814 1
1 209
74 1
625 1
501 1
11 1
1 478
1 294
311 1
1 859
1 335
1 36
1 890
1 272
96 1
604 1
1 393
827 1
351 1
1 62
1 99
1 12
1 25
1 341
1 288
755 1
1 875
1 492
1 531
1 212
1 405
701 1
1 805
635 1
371 1
1 254
1 243
125 1
783 1
636 1
1 848
1 282
443 1
624 1
775 1
281 1
532 1
911 1
147 1
1 653
753 1
1 131
1 155
1 138
620 1
68 1
725 1
1 348
332 1
1 34
486 1
394 1
1 909
248 1
659 1
1 972
72 1
1 891
1 685
1 123
334 1
406 1
1 79
570 1
1 298
1 839
855 1
1 114
616 1
718 1
1 241
1 75
1 771
450 1
1 441
679 1
1 139
23 1
1 838
1 684
633 1
1 95
1 236
1 932
1 567
1 190
1 373
648 1
1 589
1 913
1 697
863 1
514 1
203 1
649 1
1 623
1 14
1 614
338 1
660 1
602 1
1 397
278 1
1 164
1 81
1 591
1 724
10 1
850 1
1 657
176 1
901 1
1 455
568 1
1 654
1 574
1 252
1 363
269 1
61 1
369 1
1 876
316 1
1 154
1 734
1 794
898 1
1 874
384 1
3 4
1 39
344 1
714 1
787 1
1 870
430 1
1 674
360 1
1 432
1 963
251 1
1 641
1 187
1 328
690 1
462 1
1 931
1 503
439 1
1 687
1 652
1 420
1 296
1 934
1 167
1 904
1 935
7 1
1 530
1 611
1 523
265 1
1 836
915 1
575 1
300 1
1 320
129 1
396 1
408 1
594 1
1 54
1 880
303 1
723 466 671
189 188
663 664
709 710
704 705
420 419
404 405
138 139
621 620
608 607
287 288
93 94
127 128
39 38
551 552
146 147
223 224
466 465
129 130
519 518
341 342
713 714
3 2
575 576
495 494
63 64
466 467
489 490
299 298
256 257
468 469
6 5
144 145
464 465
203 202
455 454
658 659
268 269
484 485
639 640
311 312
334 333
469 470
676 675
305 304
27 26
500 499
474 475
690 689
477 476
503 502
388 389
439 438
478 477
401 400
372 373
668 669
662 663
457 458
499 498
672 673
718 719
618 619
443 442
122 123
540 541
231 232
41 42
377 376
589 590
2 1
576 577
326 327
296 295
589 588
87 86
180 181
216 215
78 77
224 225
131 132
83 82
293 292
288 289
273 274
706 705
230 229
337 336
338 339
279 278
548 547
458 459
166 167
337 338
92 93
157 156
413 414
32 31
48 49
612 613
558 557
506 507
482 481
235 234
399 400
239 238
175 176
505 504
301 302
35 36
290 291
461 462
280 279
27 28
380 379
324 323
148 149
149 150
84 83
40 41
580 581
38 37
248 247
577 578
156 155
573 574
7 6
88 87
164 165
152 151
37 36
73 74
99 98
60 61
561 562
203 204
682 681
524 525
169 168
160 161
85 84
629 630
339 340
372 371
447 446
235 236
55 56
71 72
249 248
46 47
662 661
82 81
357 358
194 195
344 343
200 199
695 694
699 700
30 29
329 330
125 124
172 171
697 696
160 159
429 430
375 374
366 365
192 193
654 655
535 536
603 604
245 244
267 266
564 565
202 201
42 43
393 394
308 309
355 354
55 54
31 30
544 545
656 655
206 205
461 460
201 200
3 4
382 383
75 76
322 323
90 91
511 512
558 559
100 101
332 333
373 374
416 415
450 449
702 703
368 369
211 210
674 675
646 647
192 191
513 514
410 411
116 117
343 342
277 278
720 719
442 441
107 106
634 635
299 300
65 64
324 723
498 497
642 641
213 214
184 183
708 707
517 516
449 448
155 154
317 318
255 254
714 715
572 573
702 701
435 436
666 665
9 10
133 134
542 541
220 221
514 515
530 531
554 555
143 144
79 78
56 57
320 321
344 345
619 620
593 592
595 596
163 164
353 354
145 146
174 173
723 722
535 534
167 168
712 711
468 467
20 19
376 375
380 381
532 531
625 624
527 526
250 251
182 183
621 622
225 226
130 131
606 607
609 610
197 198
79 80
404 403
350 351
670 671
348 347
110 111
269 270
199 198
263 262
484 483
259 258
110 109
599 598
70 69
141 140
61 62
253 252
429 428
180 179
53 52
396 395
39 40
633 634
366 367
640 641
536 537
267 268
681 680
556 555
673 674
586 585
491 490
49 50
266 265
386 387
346 347
303 302
213 212
53 54
19 18
322 321
551 550
529 530
649 650
89 90
346 345
652 653
507 508
194 193
682 683
553 552
260 261
483 482
492 493
205 204
501 500
174 175
594 595
120 119
264 265
65 66
625 626
70 71
296 297
564 563
396 397
550 549
403 402
187 186
645 646
462 463
412 411
433 434
341 340
424 425
527 528
8 9
651 652
509 508
454 453
68 67
582 583
598 597
617 616
118 119
599 600
565 566
557 556
287 286
432 433
585 584
361 360
208 207
431 430
464 463
491 492
520 519
242 241
659 660
686 685
370 371
562 563
511 510
450 451
129 128
623 624
113 114
58 57
255 256
417 418
17 18
325 324
587 586
522 523
261 262
408 409
361 362
473 472
660 661
26 25
497 496
315 314
254 253
272 273
678 677
89 88
351 352
300 301
271 272
85 86
98 97
570 571
685 684
410 409
329 328
423 422
548 549
150 151
694 693
290 289
50 51
223 222
637 636
307 306
698 697
485 486
121 120
143 142
352 353
538 537
238 237
721 722
390 389
695 696
597 596
370 369
502 501
13 14
545 546
16 15
11 10
243 244
689 688
437 438
95 94
58 59
470 471
609 608
594 593
12 11
638 639
668 667
139 140
471 472
664 665
686 687
382 381
112 111
440 441
197 196
717 716
358 359
45 46
540 539
367 368
185 186
701 700
97 96
711 710
457 456
453 452
395 394
247 246
713 712
96 95
417 416
310 309
251 252
35 34
414 415
443 444
240 241
623 622
104 105
480 479
92 91
392 391
543 542
533 532
439 440
8 7
23 22
32 33
638 637
444 445
243 242
188 187
171 170
427 428
190 191
434 435
75 74
629 628
635 636
80 81
602 603
456 455
643 642
233 234
125 126
667 666
320 319
521 522
274 275
480 481
610 611
318 319
122 121
574 575
311 310
460 459
513 512
271 270
393 392
147 148
402 401
123 124
379 378
419 418
230 231
406 405
587 588
134 135
114 115
365 364
718 717
356 357
715 716
332 331
570 569
657 658
560 561
313 314
704 703
432 431
137 136
721 720
264 263
684 683
518 517
100 99
360 359
391 390
4 5
386 385
493 494
653 654
601 602
23 24
452 451
330 331
364 363
578 579
445 446
476 475
488 487
691 690
584 583
52 51
28 29
547 546
280 281
220 219
237 236
165 166
115 116
246 245
687 688
209 208
195 196
627 626
554 553
209 210
153 152
21 22
334 335
294 293
48 47
20 21
17 16
283 282
63 62
161 162
325 326
611 612
45 44
104 103
178 179
592 591
473 474
336 335
648 647
544 543
605 604
679 678
126 127
206 207
249 250
153 154
221 222
232 233
306 305
294 295
670 669
184 185
503 504
227 228
571 572
384 383
218 219
355 356
505 506
657 656
211 212
276 275
387 388
276 277
680 679
312 313
229 228
226 227
421 422
528 529
559 560
190 189
72 73
136 135
377 378
398 397
617 618
107 108
67 66
399 398
117 118
615 614
285 286
137 138
157 158
630 631
633 632
707 706
533 534
24 25
328 327
568 569
292 291
691 692
257 258
60 59
77 76
424 423
605 606
303 304
421 420
709 708
260 259
15 14
568 567
447 448
672 671
509 510
436 437
413 412
283 284
692 693
68 69
478 479
142 141
173 172
515 516
102 101
217 218
407 406
426 425
486 487
632 631
699 698
285 284
580 579
649 648
538 539
12 13
566 567
651 650
348 349
239 240
34 33
525 526
523 524
182 181
216 217
489 488
297 298
590 591
316 315
109 108
105 106
643 644
178 177
615 616
215 214
132 133
282 281
496 495
103 102
176 177
600 601
163 162
112 113
581 582
614 613
407 408
426 427
520 521
349 350
363 362
44 43
628 627
645 644
307 308
384 385
158 159
677 676
169 170
316 317
883 675 738
87 88
448 447
67 66
588 587
197 196
50 51
55 54
772 773
793 792
249 248
327 326
233 234
19 18
688 687
24 25
699 698
719 718
822 821
814 813
760 759
304 303
359 358
714 713
320 319
771 770
727 728
472 473
235 234
408 407
740 741
882 883
4 5
110 109
403 402
510 509
164 163
313 314
387 388
747 748
177 176
13 12
334 335
277 278
832 833
85 86
253 254
385 386
512 511
35 36
119 120
211 210
834 833
60 59
78 79
868 869
619 618
474 475
142 141
871 870
298 297
308 309
192 193
763 762
584 585
382 381
300 299
642 643
578 577
715 716
611 612
32 33
2 153
378 377
423 424
17 16
240 239
791 790
443 444
93 94
247 248
214 215
733 734
118 117
524 523
179 178
807 806
11 12
59 58
303 302
108 107
688 689
312 311
250 251
449 450
772 771
464 463
339 340
442 441
665 664
626 627
275 274
801 800
876 877
332 333
111 112
711 710
30 31
705 704
400 399
532 533
877 878
622 621
435 436
286 285
615 616
113 114
755 754
601 600
676 675
555 554
568 567
299 3
34 35
744 743
449 448
466 467
184 183
306 307
557 556
607 608
752 753
879 880
491 490
872 871
498 497
284 283
255 256
671 670
180 179
29 30
746 747
548 549
881 882
667 666
685 686
348 347
65 66
836 835
100 99
352 353
572 571
348 349
455 454
98 97
774 775
588 589
140 141
614 615
70 71
147 146
823 824
727 726
866 867
453 452
819 820
605 606
261 260
794 795
850 851
847 846
867 868
560 559
6 737
218 217
768 769
296 295
602 601
720 721
223 222
513 514
722 723
434 435
780 779
82 81
186 187
717 716
191 190
165 164
457 458
518 517
166 165
672 671
343 344
372 373
488 489
194 195
504 503
440 441
227 226
669 668
412 411
77 78
603 602
500 501
329 330
357 356
848 849
137 136
91 92
135 134
708 707
593 592
540 539
421 422
660 659
456 455
71 72
136 135
766 767
866 865
742 741
162 163
335 336
310 309
633 632
704 703
232 231
507 506
125 124
824 825
739 738
658 657
822 823
381 380
655 656
233 232
702 701
214 213
844 845
390 391
349 350
721 722
785 786
554 553
709 708
6 5
570 569
550 551
426 425
144 145
854 853
770 769
150 149
869 870
73 74
840 841
764 765
254 255
696 695
24 23
469 470
69 70
451 450
479 478
48 47
544 545
874 875
712 711
374 373
339 338
484 485
47 46
229 228
564 563
808 807
497 496
68 67
516 517
191 192
855 854
118 119
785 784
488 487
700 699
633 634
647 648
495 496
42 43
43 44
28 27
279 280
9 10
132 133
296 297
528 527
446 445
537 536
568 569
471 472
698 697
317 316
63 64
650 649
432 433
39 40
815 814
58 57
204 205
127 126
594 595
323 322
683 682
679 678
55 56
797 798
33 34
326 325
115 114
575 574
855 856
94 95
864 865
566 565
462 463
220 219
680 681
65 64
262 261
123 124
350 351
773 774
522 521
857 856
669 670
624 623
409 408
434 433
837 836
281 282
362 361
763 764
693 692
26 27
851 852
762 761
151 150
832 831
406 407
837 838
198 199
246 245
445 4
8 7
22 21
640 641
791 792
800 799
776 777
98 99
788 787
157 158
88 89
101 100
543 544
3 4
129 128
337 338
693 694
635 636
85 84
243 242
126 125
576 577
736 735
371 370
495 494
540 541
476 475
345 346
396 397
364 363
596 597
267 266
318 317
829 830
639 640
509 508
782 781
207 208
654 655
355 356
394 393
360 361
676 677
236 235
184 185
375 374
812 811
259 258
90 91
715 714
415 416
529 530
681 682
597 598
808 809
62 61
270 271
421 420
237 238
166 167
406 405
32 31
3 2
241 242
293 294
108 109
105 106
72 73
590 589
148 149
839 838
679 680
259 260
558 559
465 464
646 645
653 654
744 745
753 754
268 267
380 379
862 863
519 518
873 872
700 701
321 322
468 467
220 221
247 246
134 133
53 54
292 291
622 623
86 87
843 844
759 758
483 482
8 9
591 5
637 638
817 818
342 341
673 672
556 555
411 410
476 477
354 355
842 841
76 77
15 14
146 145
830 831
881 880
438 439
617 618
402 401
45 46
211 212
860 859
346 347
534 533
668 667
251 252
686 687
181 182
810 811
305 306
547 548
200 199
757 758
262 263
95 96
413 414
285 284
552 553
805 804
645 644
97 96
567 566
188 189
173 174
454 453
276 277
788 789
717 718
155 154
511 510
458 459
595 596
751 752
724 723
781 780
502 501
850 849
663 662
471 470
576 575
177 178
857 858
74 75
15 16
724 725
499 500
581 580
706 705
129 130
709 710
266 265
728 729
492 491
206 207
417 418
532 531
666 665
578 579
221 222
354 353
446 447
546 547
127 128
269 270
806 805
159 158
629 628
848 847
861 862
733 732
852 853
634 635
748 749
790 789
37 36
707 706
288 287
734 735
286 287
147 148
290 291
778 777
40 41
379 378
387 386
131 130
321 320
610 609
52 53
858 859
383 382
25 26
537 538
797 796
493 492
395 394
20 21
170 171
520 519
685 684
561 560
279 278
239 238
392 393
457 456
557 558
396 395
783 782
245 244
522 523
84 83
642 641
156 155
783 784
29 28
104 103
327 328
599 600
243 244
139 140
684 683
17 18
281 280
171 172
593 594
486 485
13 14
616 617
61 60
314 315
612 613
22 23
729 730
202 201
414 415
827 826
562 561
385 384
105 104
69 68
328 329
7 1
482 481
316 315
873 874
237 236
169 168
607 606
107 106
180 181
661 660
426 427
50 49
416 417
257 258
678 677
398 399
809 810
431 430
845 846
487 486
189 190
552 551
793 794
663 664
161 160
825 826
202 203
725 726
404 405
843 842
272 271
231 230
293 292
840 839
628 627
565 564
52 51
170 169
494 493
526 527
193 194
174 175
289 290
264 265
536 535
159 160
256 257
369 370
713 712
336 337
787 786
156 157
225 224
689 690
217 216
216 215
250 249
212 213
383 384
583 582
653 652
343 342
539 538
505 506
288 289
431 432
273 274
121 122
252 253
219 218
263 264
535 534
376 375
376 377
580 579
637 636
20 19
817 816
419 418
359 360
295 294
110 111
241 240
451 452
625 624
89 90
479 480
304 305
428 429
478 477
542 541
186 185
474 473
362 363
351 352
436 437
203 204
301 302
646 647
570 571
80 79
422 423
828 827
674 673
614 613
365 366
397 398
389 388
515 514
76 75
82 83
208 209
795 796
273 272
802 801
503 502
750 749
768 767
461 462
760 761
584 583
144 143
695 694
751 750
649 648
420 419
631 630
318 319
490 489
38 39
629 630
499 498
116 117
745 746
513 512
481 480
604 605
631 632
620 619
121 120
367 368
182 183
92 93
661 662
574 573
644 643
860 861
313 312
205 206
403 404
691 692
345 344
604 603
691 690
531 530
542 543
521 520
102 101
357 358
586 587
176 175
879 878
56 57
400 401
545 546
224 223
820 821
49 48
139 138
198 197
526 525
331 332
429 430
427 428
778 779
80 81
439 440
45 44
392 391
41 42
650 651
196 195
550 549
341 340
366 367
115 116
461 460
804 803
621 620
739 740
324 325
738 737
484 483
657 656
697 696
626 625
766 765
675 674
200 201
743 742
816 815
6 1
308 307
372 371
209 210
112 113
585 586
864 863
610 611
524 525
161 162
188 187
731 730
132 131
516 515
424 425
331 330
598 599
592 591
659 658
818 819
324 323
459 460
310 311
703 702
508 507
142 143
333 334
409 410
563 562
572 573
282 283
365 364
802 803
755 756
300 301
275 276
798 799
651 652
413 412
122 123
269 268
438 437
732 731
226 225
103 102
2 1
168 167
875 876
38 37
757 756
812 813
228 227
11 10
505 504
390 389
153 154
835 834
62 63
581 582
720 719
638 639
828 829
468 469
466 465
443 442
775 776
137 138
528 529
608 609
152 151
172 173
369 368
230 229
808 364 248
509 510
183 184
732 733
535 536
598 599
78 77
82 81
733 734
415 416
241 242
751 752
326 327
118 119
129 128
632 631
334 333
309 308
743 742
281 282
245 244
487 488
261 260
81 80
638 637
165 166
70 69
253 252
618 617
706 707
265 264
286 285
406 405
769 768
671 670
5 4
2 1
174 173
467 466
602 603
455 454
320 321
546 545
185 186
805 804
282 283
356 357
120 119
255 256
548 549
18 17
256 257
712 713
517 518
491 490
619 620
286 287
200 199
798 799
302 303
577 576
389 390
218 217
140 2
350 349
332 331
223 224
41 42
744 743
772 771
237 236
417 418
726 727
147 148
466 465
206 205
113 112
786 785
411 410
590 591
532 531
72 71
92 91
522 523
344 345
13 12
582 581
275 274
706 705
572 573
558 559
575 574
478 479
788 789
95 96
277 276
528 529
658 657
538 539
207 208
450 449
666 667
527 528
645 646
259 258
65 66
691 692
642 643
523 524
169 170
432 433
290 289
264 263
122 121
410 409
201 200
251 252
55 56
593 592
622 623
720 719
459 460
438 439
195 196
474 473
232 233
555 554
48 49
392 393
126 127
163 162
580 579
38 39
15 14
358 359
39 40
155 154
745 744
526 525
141 142
502 501
405 404
452 451
664 663
597 596
84 85
443 444
710 709
146 145
6 1
458 457
635 634
793 792
149 148
568 569
765 764
261 262
173 172
555 556
635 636
58 59
408 409
797 798
475 474
343 344
565 566
289 288
557 556
61 60
340 339
799 800
111 112
461 460
639 640
489 488
684 683
267 268
117 118
761 760
534 535
469 470
59 60
278 279
231 230
441 442
152 151
681 682
314 313
753 752
213 212
695 696
419 420
703 704
293 292
476 477
391 390
3 2
181 182
216 217
115 114
611 610
191 190
233 234
684 685
353 352
145 144
299 298
45 46
725 724
563 564
318 319
191 192
51 52
84 83
558 557
352 351
311 310
64 65
363 362
98 99
21 22
269 270
384 383
797 796
740 741
102 101
725 726
131 132
518 519
808 807
363 364
260 259
305 304
483 484
760 759
355 356
130 129
639 638
306 305
566 567
193 194
742 741
107 108
5 541
257 258
591 592
262 263
562 561
43 42
576 575
547 546
456 457
673 672
470 471
399 398
749 750
417 416
459 458
370 371
67 68
361 360
215 216
547 548
494 495
764 763
694 693
607 606
451 450
30 31
597 598
776 777
499 498
529 530
270 271
7 1
630 631
27 28
628 629
226 225
20 19
157 156
358 357
513 514
587 586
782 783
497 496
492 493
126 125
515 516
611 612
784 783
353 354
628 627
368 367
176 177
40 41
229 228
620 621
385 384
791 792
787 788
753 754
721 720
691 690
265 266
288 287
94 95
622 621
307 308
249 250
8 7
169 168
211 210
677 676
90 91
716 717
32 31
273 3
447 448
618 619
243 244
323 322
614 613
707 708
300 301
362 361
142 143
440 439
167 168
531 530
751 750
150 151
294 295
698 697
587 588
190 189
203 202
527 526
94 93
18 19
758 759
278 277
418 419
197 198
504 505
211 212
107 106
157 158
500 501
134 135
284 283
425 426
436 435
403 404
24 23
98 97
355 354
215 214
394 393
443 442
624 625
391 392
609 610
647 646
672 671
698 699
710 711
50 51
790 789
336 337
120 121
491 492
746 747
473 472
255 254
179 180
805 806
665 666
515 514
323 324
152 153
595 596
79 80
239 238
116 115
493 494
708 709
668 667
554 553
229 230
155 156
804 803
441 440
43 44
251 250
435 434
445 444
630 629
738 737
678 677
758 757
583 584
25 26
54 55
302 301
452 453
360 359
448 449
247 248
254 253
446 447
578 577
294 293
280 279
15 16
4 3
421 420
375 376
11 12
676 675
517 516
105 106
787 786
143 144
236 235
793 794
738 739
74 73
309 310
472 471
784 785
713 714
729 730
609 608
248 249
484 485
731 730
368 369
29 30
612 613
123 122
370 369
437 438
34 35
182 183
584 585
722 723
749 748
374 373
511 512
427 428
179 178
387 388
454 453
508 507
774 775
648 649
321 322
696 697
206 207
341 342
550 551
89 90
186 187
165 164
562 563
150 149
221 222
345 346
806 807
679 680
770 771
347 348
640 641
560 559
433 434
509 508
770 769
553 552
396 395
8 9
291 290
329 328
688 689
723 724
692 693
534 533
221 220
489 490
803 802
73 72
224 225
659 658
735 736
690 689
486 485
50 49
543 542
662 661
138 139
519 520
154 153
333 332
722 721
695 694
280 281
330 329
75 74
681 680
498 497
194 195
678 679
388 389
22 23
655 656
177 178
524 525
699 700
402 403
86 85
437 436
422 423
226 227
399 400
379 378
20 21
79 78
711 712
422 421
773 772
586 585
780 779
780 781
316 315
340 341
413 412
135 136
445 446
633 632
468 469
796 795
670 669
188 189
430 431
506 507
755 754
560 561
241 240
318 317
167 166
243 242
718 719
520 521
34 33
603 604
203 204
315 314
480 481
267 266
411 412
231 232
113 114
198 199
37 38
158 159
292 291
17 16
686 687
306 307
791 790
511 510
385 386
462 463
464 465
643 644
642 641
616 615
382 383
338 339
569 570
223 222
414 415
650 651
92 93
703 702
653 652
571 570
272 271
767 766
109 108
616 617
313 312
656 657
147 146
395 394
69 68
579 578
728 729
312 311
683 682
24 25
48 47
740 739
45 44
228 227
111 110
564 565
296 295
100 99
432 431
544 545
401 402
479 480
605 606
602 601
64 63
647 648
381 380
56 57
28 29
650 649
495 496
763 762
192 193
748 747
104 105
615 614
237 238
324 325
32 33
673 674
623 624
768 767
58 57
583 582
299 300
123 124
505 506
654 655
109 110
539 540
176 175
276 275
327 328
319 320
47 46
160 159
36 35
745 746
659 660
128 127
461 462
428 429
777 778
188 187
801 802
213 214
88 89
701 700
52 53
675 6
572 571
5 6
10 11
397 398
669 668
396 397
717 718
336 335
634 633
589 590
103 104
536 537
731 732
338 337
400 401
589 588
240 239
61 62
775 776
162 161
63 62
346 347
728 727
304 303
637 636
174 175
773 774
574 573
366 367
285 284
331 330
500 499
762 761
665 664
371 372
71 70
541 542
756 755
456 455
702 701
365 366
424 423
171 170
53 54
766 765
483 482
626 625
235 234
734 735
247 246
595 594
181 180
757 756
377 376
373 372
87 86
137 138
652 651
326 325
782 781
627 626
779 778
185 184
594 593
425 424
714 715
83 82
87 88
245 246
429 430
716 715
552 551
163 164
599 600
27 26
160 161
600 601
101 100
348 349
538 537
37 36
364 365
481 482
549 550
66 67
686 685
663 662
316 317
607 608
513 512
218 219
463 464
297 298
801 800
533 532
117 116
378 377
504 503
208 209
76 75
334 335
130 131
13 14
140 141
96 97
567 568
468 467
380 379
76 77
407 408
197 196
661 660
350 351
687 688
476 475
342 343
795 794
543 544
522 521
503 502
268 269
204 205
137 136
604 605
125 124
102 103
9 10
273 274
209 210
133 132
171 172
381 382
413 414
486 487
644 645
478 477
387 386
654 653
297 296
201 202
704 705
580 581
427 426
4 407
374 375
133 134
220 219
736 737
1247 686 175
1033 357
1097 929
941 749
255 208
653 607
16 20
446 285
682 685
266 121
1016 682
373 202
8 7
964 808
230 176
487 102
1035 947
930 980
203 218
104 31
42 109
1241 1096
453 88
550 862
465 950
535 581
177 314
838 139
623 465
644 555
229 814
77 820
352 169
186 103
479 544
178 66
318 234
839 1166
154 447
30 323
529 956
419 524
225 36
707 336
396 402
407 545
274 523
320 130
409 689
3 131
1132 848
650 1107
412 839
891 537
41 455
745 946
160 158
330 1114
83 33
7 61
213 332
24 596
188 56
329 67
522 465
51 190
31 43
84 176
106 1048
137 72
334 318
849 255
27 7
426 840
99 1226
1067 99
1116 824
360 403
905 522
806 511
212 345
185 597
129 16
377 989
1050 571
738 129
117 119
399 708
573 1120
189 61
890 722
1246 402
979 812
2 4
475 368
743 829
401 357
241 58
569 1216
265 191
154 223
133 441
358 656
688 47
7 35
4 11
327 580
115 273
1010 439
899 795
277 461
377 341
973 98
288 358
908 167
450 1099
1109 44
554 633
82 939
330 321
245 641
722 392
266 430
140 14
349 799
202 546
1112 599
394 220
274 693
538 496
400 384
310 270
482 1081
818 385
791 114
115 868
1031 674
344 665
756 482
254 554
1175 1136
1127 331
664 394
592 200
3 23
21 909
357 476
194 206
410 136
1128 529
155 1130
497 1197
440 1012
1237 125
591 383
458 550
951 71
620 295
1002 580
801 536
1092 145
267 272
52 250
242 1178
89 904
207 30
949 942
674 157
360 200
97 443
531 975
193 543
86 612
442 174
227 175
393 173
182 267
202 920
718 827
895 584
742 990
505 333
307 174
190 940
804 832
399 393
251 928
195 155
703 265
22 896
1195 1194
179 859
49 822
164 9
826 9
566 351
616 65
518 716
250 932
75 135
1159 946
419 111
778 1049
7 1088
1091 261
1124 951
139 21
22 50
819 593
680 337
426 1030
128 490
744 99
180 472
344 105
552 433
149 452
13 7
1041 1056
338 127
5 646
17 107
471 273
605 411
298 324
288 103
776 356
365 783
387 574
1126 108
29 211
415 261
133 789
432 246
164 414
715 204
1143 558
793 638
861 974
1064 475
706 558
60 27
196 686
1 379
275 972
346 365
413 1055
113 75
213 1122
629 522
351 56
143 347
151 604
86 6
292 642
120 381
892 553
51 209
947 881
278 54
874 462
408 80
529 232
448 921
277 936
383 168
92 1221
823 1227
317 1037
723 1201
749 817
199 456
26 89
386 308
818 924
57 22
433 516
790 187
18 8
27 437
17 108
132 503
344 1233
168 174
159 808
169 27
7 25
341 95
339 798
132 781
345 1186
755 1000
586 163
929 556
1008 700
123 78
88 54
857 421
742 265
645 536
15 53
132 19
734 525
910 870
340 630
121 181
52 222
478 579
511 324
46 65
872 352
50 542
3 2
328 368
881 92
212 426
485 667
556 918
1101 527
97 61
118 1219
539 157
812 807
521 327
1153 178
1182 779
2 5
366 90
210 168
264 234
152 170
342 922
598 258
62 540
1220 382
468 199
390 952
344 1069
105 15
441 465
493 682
304 387
250 567
98 7
691 573
180 118
842 344
984 344
280 258
18 333
144 24
188 254
481 389
81 12
748 645
20 55
428 787
704 136
493 754
198 257
452 631
557 14
767 398
320 395
795 802
809 1098
459 413
1044 386
215 258
263 138
739 350
625 886
749 423
989 1003
32 99
901 1078
180 391
483 113
646 795
1230 727
423 378
683 1180
1174 673
106 6
436 45
710 182
439 331
982 1161
10 64
713 976
255 404
1125 1004
389 228
39 18
561 981
53 193
764 703
752 1093
84 82
8 914
852 204
423 480
531 323
131 497
630 860
221 276
74 291
115 233
164 384
90 551
444 30
139 158
236 421
804 225
2 80
1019 543
1217 927
525 506
140 219
257 356
467 256
120 208
134 213
109 405
12 7
901 788
76 13
377 599
17 59
607 91
958 474
609 948
649 737
762 1084
993 205
251 120
304 86
30 196
1135 507
139 284
263 484
279 335
436 740
1001 729
215 57
201 953
313 712
1203 1099
288 969
74 87
850 1144
117 133
224 41
388 816
354 42
1196 1122
397 274
719 497
244 1011
765 580
314 502
968 102
864 587
611 253
85 61
374 1007
68 59
1156 506
474 1236
700 794
201 163
687 805
1118 206
204 337
660 614
331 182
435 96
20 40
409 784
1202 1148
1 4
828 406
552 931
494 110
637 598
203 48
726 573
159 119
583 1141
231 875
100 769
559 162
738 1245
42 312
167 21
70 889
270 370
95 116
1040 739
175 1005
585 308
374 863
1134 444
1053 642
32 231
961 7
520 380
621 1051
449 132
74 63
73 60
2 102
392 204
745 81
16 15
127 165
117 424
11 21
851 365
390 887
543 713
700 356
675 636
27 44
55 115
233 870
1172 1087
978 757
573 873
22 121
697 313
287 609
562 121
13 58
1133 715
1004 101
158 311
205 81
55 200
1019 1138
30 512
427 202
485 472
229 79
6 90
17 19
762 1079
865 611
330 683
277 281
27 93
721 603
1032 10
269 54
608 313
340 291
492 206
26 24
382 603
73 290
726 1170
894 637
458 583
17 14
650 166
199 32
583 676
963 621
560 519
679 86
1106 1038
618 591
27 289
486 622
598 893
310 759
1068 761
96 464
694 314
3 1
554 696
11 473
467 638
601 81
458 10
1 22
1027 900
970 912
204 201
711 1103
571 673
348 714
1115 1242
363 122
269 634
134 659
293 135
633 729
328 440
1042 734
355 982
798 883
1006 927
681 444
811 517
37 1188
37 361
412 96
1036 885
22 96
1115 1036
218 632
586 1157
649 614
727 381
270 219
143 915
1025 296
183 129
375 100
934 647
9 1
757 92
70 45
571 758
652 523
122 184
382 65
62 1244
72 809
125 179
333 457
588 506
140 561
44 49
774 332
220 138
469 73
271 1061
129 1145
767 833
569 77
670 210
65 82
923 874
848 518
1212 1128
429 102
9 32
1113 593
485 1238
994 121
850 398
29 16
172 86
1139 698
912 246
498 235
1045 554
134 185
69 470
299 144
601 1162
294 89
907 189
385 198
59 171
858 269
878 291
1058 396
1171 328
651 796
1131 255
207 930
196 902
698 512
753 692
1240 194
491 595
89 145
874 1158
615 50
701 551
41 2
335 572
677 341
125 413
841 466
146 31
265 636
204 463
54 274
87 187
663 186
933 803
245 141
63 118
1046 815
477 11
343 1149
44 45
380 109
613 154
1121 603
692 955
636 678
69 553
625 78
494 733
48 624
344 741
58 252
453 626
388 1185
292 735
371 220
655 1060
141 606
555 648
455 584
216 249
103 4
498 888
723 347
141 2
19 496
17 78
918 938
533 437
182 146
1075 379
714 770
22 374
194 198
1059 775
935 303
517 72
531 1151
750 667
1187 1111
399 962
475 570
119 1038
1199 1160
65 917
129 390
313 926
275 180
1105 143
55 122
537 1034
28 124
326 161
540 1232
134 856
556 1123
418 138
236 183
262 111
619 534
311 416
138 577
319 499
1057 895
292 269
357 35
943 315
313 898
622 1090
143 121
198 996
271 367
1 14
24 5
12 117
1013 763
526 484
207 232
301 755
50 157
459 1065
92 564
162 89
527 807
1137 193
482 189
163 916
154 29
788 1
177 42
22 197
763 286
33 7
41 372
246 13
578 768
428 966
268 610
450 541
10 6
988 649
49 156
310 530
177 565
750 1150
834 724
760 675
303 230
27 126
64 867
146 348
37 5
14 15
187 202
271 250
134 116
425 149
705 830
761 732
535 171
142 192
1026 548
201 655
2 306
1160 193
474 107
111 76
1189 328
337 575
369 11
953 1054
225 1072
147 253
751 192
339 22
311 409
1071 1067
1063 513
558 99
479 431
247 245
802 879
246 1211
346 563
880 45
1051 1086
233 1154
1215 498
104 954
582 239
1198 217
222 428
19 153
651 180
854 808
1223 361
186 433
504 383
1185 1218
549 129
14 125
166 168
118 163
69 31
417 166
36 148
111 243
202 1111
661 38
771 1205
9 38
507 72
792 243
1193 246
420 639
527 57
447 614
29 100
149 98
122 627
135 746
225 398
438 415
803 166
671 540
447 515
47 277
508 731
500 30
1009 51
121 217
778 464
1070 747
687 1028
1229 264
161 95
162 695
463 1117
514 213
782 669
63 411
199 234
150 130
1017 1041
779 183
77 313
327 114
38 46
573 728
662 344
694 1043
166 150
864 1083
416 1096
256 78
609 711
151 23
164 861
797 71
747 1209
476 766
75 155
777 102
63 35
13 285
687 107
786 688
977 491
58 316
309 280
175 95
327 1089
945 613
121 578
978 1017
621 444
586 1184
343 95
132 1224
884 586
165 240
888 900
13 66
853 626
1155 900
586 1148
1 147
346 310
780 504
342 341
27 321
1104 262
135 235
74 454
252 602
146 226
188 666
903 90
692 589
838 987
173 48
843 554
821 635
877 32
353 11
709 292
208 537
493 57
364 1147
988 1023
54 95
885 140
1074 390
300 238
857 1052
654 240
243 991
88 986
559 925
109 736
241 282
587 264
31 142
228 21
127 92
10 34
913 825
390 1142
590 290
301 59
216 169
268 510
82 128
329 462
1133 1179
634 724
377 1225
141 617
1085 531
1024 206
937 821
72 50
864 1228
195 295
29 31
967 706
1087 259
359 206
942 888
319 70
537 1235
1190 836
276 1163
47 26
642 785
285 869
571 396
548 250
149 486
156 1173
550 1021
96 1015
1208 86
60 191
253 1222
906 688
532 269
699 654
775 435
56 16
195 997
261 172
568 164
136 9
717 451
159 813
555 1082
1183 974
1177 209
19 221
1164 132
720 463
43 406
51 1
672 403
355 600
493 1080
112 108
658 983
1073 717
406 420
42 32
28 283
773 129
445 89
1243 111
491 174
305 1192
960 694
957 710
25 114
450 337
319 501
1059 1168
1210 679
519 309
81 92
821 992
593 460
85 287
1035 1239
29 54
482 998
1169 433
532 1095
25 71
836 505
1167 28
13 28
315 317
145 488
1191 942
298 187
845 555
159 556
478 357
847 548
815 530
897 391
1016 1020
51 94
299 594
518 277
1022 502
999 146
296 285
135 1102
528 77
47 67
310 328
26 79
30 1
800 710
971 168
622 965
253 396
26 212
308 355
270 466
771 375
36 13
258 668
144 237
91 65
48 325
4 506
687 927
647 576
554 690
76 658
7 4
120 94
1146 134
259 91
23 110
455 944
835 555
55 349
10 911
313 336
422 995
112 824
239 217
89 305
6 1
448 143
582 772
16 268
500 823
235 1110
730 276
6 407
1108 45
238 207
307 1014
230 1152
60 573
726 1165
248 102
434 177
1194 808
1039 324
509 294
100 669
206 705
44 451
477 1214
1204 1190
173 762
242 30
657 512
69 130
59 62
949 1029
588 1100
47 725
139 279
866 451
1234 239
25 52
1206 673
855 2
882 718
268 362
825 210
1094 751
361 752
366 747
1077 115
42 138
57 495
35 1181
31 260
1076 1054
824 985
302 266
1018 196
45 846
1176 796
91 376
876 766
1062 152
354 1200
1119 853
144 388
334 460
799 1066
547 79
120 589
441 732
534 28
161 308
422 139
35 77
628 58
38 555
1247 397
244 124
643 462
372 959
181 1129
635 150
130 1136
180 513
1140 660
103 214
810 714
844 1213
234 322
1207 227
431 169
378 273
684 596
361 702
3 844
42 48
274 919
350 110
856 871
118 508
286 40
364 302
315 279
831 254
40 101
1047 420
122 640
576 406
718 600
385 1231
231 536
46 75
297 35
743 82
656 837
51 194
489 141
152 46
1344 817 1012
170 677
86 41
518 525
383 437
819 1026
795 353
545 519
60 1217
104 479
11 99
378 80
380 86
757 765
1251 125
17 64
326 264
417 183
264 707
728 289
479 562
22 6
19 12
187 48
335 1279
911 717
6 5
85 964
974 405
228 178
906 281
18 8
741 904
397 17
509 136
52 23
141 196
295 508
256 232
2 3
429 187
685 303
1159 159
45 251
172 291
96 71
517 119
897 1185
281 399
73 245
493 428
150 10
383 1080
455 144
57 92
149 466
831 837
1165 182
16 161
187 1058
38 372
80 280
438 229
416 1242
353 208
592 303
849 335
462 966
901 249
19 115
702 1257
510 6
442 548
559 195
624 152
89 797
565 1085
16 26
445 908
585 789
947 985
9 922
106 903
72 147
1016 1103
42 215
324 431
480 1215
885 675
351 467
525 1030
1025 481
829 471
690 366
177 383
1237 1118
124 16
738 1199
1033 180
1 239
393 55
518 241
471 170
703 1328
39 19
429 706
578 786
132 1189
1303 757
706 1301
463 33
621 327
759 98
1210 4
1258 23
282 148
1101 536
143 1316
224 675
511 1175
295 412
9 268
516 416
119 190
420 1295
397 486
350 250
690 1293
328 1087
689 583
1047 828
79 929
996 985
511 329
821 858
1059 602
399 687
327 146
100 622
65 173
527 1108
10 7
8 816
125 168
842 1041
159 365
73 492
1266 101
79 72
418 302
752 747
1286 996
443 612
152 698
697 1173
927 671
442 1094
270 265
300 396
425 237
383 551
610 440
411 177
20 3
750 39
146 16
1115 1200
168 203
1205 475
80 132
389 77
221 1045
740 157
1138 759
335 356
310 313
1170 795
672 131
681 271
647 113
852 591
234 607
93 25
1318 1176
417 487
225 148
400 583
17 7
910 947
687 1287
49 29
884 393
51 97
292 788
111 278
134 89
115 1196
1314 1240
576 384
738 763
110 308
691 1274
968 442
992 1202
47 20
44 66
11 144
238 122
430 245
775 477
166 812
382 186
1004 510
876 77
171 169
686 856
826 113
1186 1219
1233 743
626 84
959 1097
401 232
82 39
1144 1032
1191 810
567 524
128 4
324 346
894 126
269 402
1164 1253
1075 1338
261 221
454 588
207 299
252 544
764 503
822 1009
112 50
303 111
118 1
786 1178
325 719
864 634
961 1049
793 749
456 914
511 1117
56 122
214 367
895 267
1148 682
62 743
252 62
59 409
1152 564
48 27
909 847
132 226
89 602
526 153
104 442
55 1137
179 972
491 586
883 1224
552 507
55 1040
86 288
80 19
379 753
751 1099
55 2
1123 906
623 303
1164 341
18 69
1079 1232
1221 335
935 325
527 150
1069 338
485 249
298 152
461 63
174 131
1052 1022
164 1190
119 103
636 841
482 1023
443 528
559 680
52 591
211 470
150 572
889 780
404 248
18 109
1153 235
617 351
20 32
17 62
631 651
720 1236
1326 832
581 1106
727 351
369 194
134 152
581 1116
894 1158
489 952
1014 629
1122 757
189 893
254 123
730 579
1333 947
366 439
1150 855
59 1043
849 1238
859 961
782 1006
67 756
70 129
391 17
610 854
641 63
362 790
315 181
526 941
13 15
83 997
489 524
565 670
1061 663
916 531
1029 590
217 53
688 261
16 169
575 495
638 1156
1184 1144
628 21
426 448
601 277
123 154
37 142
324 519
252 292
676 418
368 61
344 819
817 1218
447 120
541 825
25 538
110 615
250 156
344 139
1146 222
785 6
1120 545
934 56
495 1174
177 22
678 1034
315 1276
1152 1194
642 1308
186 932
701 980
33 331
788 1226
334 1018
2 12
93 1260
1053 862
368 384
1 5
386 1283
991 1310
289 307
991 466
923 5
597 274
844 677
1255 162
434 389
725 192
565 905
820 74
150 1324
75 89
88 345
8 40
836 834
996 1344
37 655
80 90
28 276
117 56
114 489
68 7
125 1075
758 578
53 30
125 19
565 1064
66 606
801 152
151 249
1183 1024
504 187
656 375
1294 947
919 23
293 473
709 937
350 420
1098 754
868 473
994 294
72 69
550 379
617 1039
200 68
436 981
733 235
272 285
684 582
35 87
86 114
49 986
620 103
263 28
713 99
405 257
1283 1299
1264 677
1228 201
292 794
866 1181
716 796
1342 570
840 80
900 493
989 1139
453 1297
466 1072
60 10
1320 804
760 221
95 39
335 413
1154 1208
520 243
75 9
679 259
898 121
40 614
658 455
1211 646
512 1149
504 1093
768 585
319 1267
48 354
951 372
202 546
1112 592
967 358
839 105
561 183
290 491
399 936
376 1245
283 197
788 962
91 100
458 354
135 33
236 838
751 326
1109 1132
476 273
151 565
270 330
851 551
1327 917
1192 450
340 360
643 645
217 494
600 234
802 100
763 863
194 514
484 273
653 674
120 35
812 907
773 19
913 614
469 418
371 21
347 664
774 783
813 125
570 1207
909 1111
11 4
210 850
147 202
293 143
1214 1289
853 386
475 781
1332 1299
351 2
232 328
667 1167
501 287
239 296
107 468
530 630
1177 323
191 133
1082 1035
1017 133
443 45
834 429
541 1088
648 205
393 1067
758 1042
5 7
18 297
43 16
247 342
227 21
566 157
534 195
861 672
648 1140
304 170
519 1296
1305 1285
78 1019
499 1187
779 342
94 84
281 280
1195 1190
170 386
549 1223
74 36
566 843
76 357
877 720
1113 419
1068 1119
761 460
173 694
2 4
500 897
312 304
984 978
157 50
382 762
106 859
27 22
1322 3
625 520
293 1020
898 1317
73 700
173 811
804 71
57 1334
753 776
108 41
1243 124
1081 1114
456 746
709 832
295 137
92 294
139 896
197 103
364 930
271 465
647 717
12 881
514 515
956 1209
619 118
206 199
182 113
243 160
369 377
1046 140
916 1037
63 14
349 649
422 888
441 400
1193 516
64 542
21 41
371 1222
81 422
366 135
241 827
640 359
1104 1052
1235 548
319 87
984 1263
1015 170
306 98
935 1066
274 75
328 1133
361 407
273 683
293 446
459 179
133 73
581 121
57 141
240 176
438 723
107 101
590 14
370 652
1240 119
639 9
113 1056
940 1016
660 644
598 940
120 194
954 1086
86 692
318 62
102 16
167 60
1008 811
434 772
35 16
85 18
540 228
1311 1106
766 758
955 417
716 542
242 129
1186 746
574 508
809 709
290 1024
480 481
724 122
373 791
279 90
511 1284
787 848
77 917
885 1188
289 123
317 298
54 45
16 564
1244 1175
11 435
527 556
682 946
69 309
1135 816
241 128
342 665
521 113
403 344
440 100
853 1329
403 842
31 236
806 472
23 70
177 234
185 712
1275 524
410 1169
507 11
400 871
25 9
715 356
1013 341
514 580
27 76
375 203
983 968
220 427
305 137
846 277
100 807
22 338
999 357
188 134
279 643
1038 1302
860 491
460 435
563 332
910 597
5 866
208 24
464 569
618 554
257 117
357 635
56 48
135 573
14 30
1249 397
227 258
125 143
45 1124
771 27
1077 814
91 103
1130 1180
497 291
1011 68
69 1269
217 1163
989 295
1102 1214
770 815
159 147
199 230
971 930
1027 894
19 126
1134 216
178 1262
1154 743
19 42
857 537
352 43
596 855
519 638
948 353
131 364
569 609
141 155
849 1198
5 8
77 26
1304 502
805 516
589 703
844 874
1129 669
1220 655
1 3
353 370
1107 863
1309 1197
135 1038
1063 594
1115 1203
498 347
60 554
182 1179
763 1121
635 1091
1145 132
65 137
171 1005
115 116
636 188
345 348
145 28
837 953
830 286
1241 377
1128 731
228 464
165 52
875 694
53 67
317 570
87 343
668 216
374 103
219 780
78 12
379 9
346 973
1280 1174
880 272
599 954
614 993
112 207
42 701
583 1155
939 894
119 978
361 179
709 1340
795 1225
926 33
811 979
36 179
96 189
1088 1105
605 601
752 1323
34 37
915 877
742 398
408 310
550 799
424 872
335 254
71 106
899 756
1052 1079
798 668
192 53
926 1007
227 474
1268 504
64 1157
720 170
423 193
1216 835
1 4
166 867
156 166
37 950
1070 44
106 340
212 115
563 1141
637 262
162 9
695 548
1002 901
12 101
188 210
15 23
117 472
225 555
745 567
83 163
79 247
1182 73
266 587
84 70
48 59
60 172
385 119
399 1051
468 754
921 105
1206 394
149 76
958 3
784 678
191 314
80 1330
1313 818
53 213
370 1092
119 175
834 1270
303 394
28 111
1272 1267
31 233
15 232
156 114
271 94
1115 850
1 332
691 635
123 96
24 260
354 376
722 378
263 774
523 325
40 195
361 627
692 736
657 503
400 734
58 747
84 269
918 228
12 13
1251 1282
985 1204
243 718
235 320
444 132
634 484
419 43
1078 405
63 277
53 529
34 27
102 1292
1001 577
1171 315
726 66
541 515
172 1176
57 153
858 1321
363 428
549 79
119 127
380 810
783 1071
364 787
498 557
349 1291
358 292
51 28
735 410
123 355
522 399
514 693
255 737
214 229
290 1065
709 465
1300 1265
757 429
1133 1335
83 478
1010 918
457 59
847 636
506 212
401 755
373 496
237 78
175 424
267 1161
323 203
451 382
1343 1137
1089 398
170 116
1277 1206
208 262
1229 234
83 891
1201 353
1254 67
51 341
195 822
107 1022
158 47
110 87
155 211
433 292
87 1032
1096 1109
230 426
301 30
17 180
777 508
16 13
503 383
23 46
603 992
600 969
632 233
82 1076
611 100
60 224
833 64
253 44
170 267
14 1031
579 28
1054 673
1278 296
949 776
749 1118
59 316
970 14
211 878
9 130
224 817
1197 242
324 279
721 835
1151 802
81 74
830 1125
928 185
35 1252
302 144
568 192
647 744
1175 1312
88 15
686 1142
828 678
514 535
307 488
1136 465
662 157
975 118
110 181
26 1246
28 26
311 185
392 8
500 537
506 920
454 382
121 65
150 388
75 184
104 39
425 1250
60 490
118 334
1057 990
34 770
2 113
122 140
1147 936
226 943
198 321
917 1160
542 633
220 12
261 678
205 235
202 1319
598 453
103 782
110 845
270 714
1331 210
1068 503
1239 997
205 195
987 1000
1261 996
222 231
171 696
221 128
414 170
956 860
98 1325
711 288
758 1073
1034 1035
199 114
241 938
384 571
164 86
201 153
376 582
620 710
390 585
412 594
595 179
436 1271
235 513
344 500
72 286
963 433
738 186
104 483
148 193
124 1003
539 388
597 792
686 645
194 204
153 347
160 3
705 98
243 532
833 1036
554 892
995 113
207 608
1193 1213
593 402
69 1166
117 138
287 1234
1053 1055
390 87
14 58
223 26
54 778
259 336
531 467
925 823
303 1143
57 1
1046 1259
33 264
1095 967
102 219
339 31
509 596
1265 1187
1100 930
282 1168
745 1044
449 439
1208 1307
584 92
317 558
748 408
362 324
310 75
1060 724
119 300
741 23
284 124
1298 119
769 302
289 603
432 1
573 1021
416 75
27 38
879 640
53 139
1341 831
80 990
633 699
447 682
1033 1172
405 1050
705 869
564 960
170 547
83 8
101 831
499 1288
666 808
1 24
663 449
152 400
577 287
1012 649
176 59
290 959
53 865
767 750
536 378
158 1285
599 814
862 601
689 957
148 661
114 333
450 264
275 731
1336 703
205 1162
248 988
44 23
673 522
197 1096
722 803
1044 1131
148 482
135 198
25 255
886 770
1212 160
642 55
88 669
998 445
21 3
231 945
105 97
578 265
33 395
194 248
170 702
185 40
159 1048
616 1230
666 352
39 646
248 322
1126 850
381 152
41 1247
1028 972
1084 895
800 472
492 505
942 73
387 205
5 61
933 137
924 146
1083 1030
981 1102
320 415
499 409
113 477
252 259
894 944
45 15
644 497
272 53
214 170
612 654
45 363
631 519
25 50
957 1062
677 977
697 678
982 734
34 287
431 436
633 659
873 740
66 209
987 51
5 33
882 704
406 262
732 61
57 325
113 456
289 870
1231 286
462 81
105 902
730 976
275 421
15 604
495 389
293 1281
36 178
659 708
216 118
249 650
290 104
821 134
326 329
589 137
65 38
887 844
616 339
70 73
405 1074
1248 261
337 57
876 1290
80 266
1081 1010
290 1130
313 349
203 445
475 105
85 502
17 148
96 222
151 90
13 71
323 373
1127 1064
240 480
298 890
695 818
265 59
10 29
458 599
1306 853
110 653
136 54
739 282
183 94
36 246
273 115
9 729
398 368
129 453
444 560
336 931
544 824
542 1315
58 91
370 629
230 613
304 512
749 140
671 495
721 453
1090 839
452 183
386 883
102 823
294 410
218 47
530 1273
912 698
1 98
667 164
1256 229
985 1337
8 131
1227 324
965 793
200 359
9 5
189 1110
4 14
331 704
16 36
31 25
553 514
1339 1079
393 533
186 40
543 44
244 113
383 530
164 275
1161 672 833
1 1084
1 1061
1 856
1 502
744 1
1 533
1 278
656 1
1 427
1 89
602 1
663 1
1 148
1 866
1 881
1 592
1 66
1137 1
415 1
1 1100
1 365
681 1
1 462
1023 1
1 711
1 74
691 1
577 1
1 1033
1 204
1 438
158 1
671 1
164 1
1 442
1 896
1 736
1 284
1 487
1 929
530 1
1 773
1 1012
987 1
62 1
1 1035
606 1
1 651
1 1040
764 1
774 1
1 886
1 248
258 1
1 554
1 31
166 1
1 132
844 1
783 1
1 133
256 1
1147 1
1 341
1 496
1 423
1 532
144 1
999 1
751 1
336 1
1 24
17 1
1080 1
1 786
891 1
358 1
1 288
366 1
346 1
180 1
1 222
1 441
1153 1
1 1028
2 1
1 1118
579 1
1 176
451 1
1 87
99 1
234 1
1 1070
1 521
192 1
188 1
833 1
1 228
345 1
945 1
457 1
1 619
255 1
1 563
1 378
196 1
931 1
1 6
1029 1
137 1
516 1
1006 1
634 1
1 9
1 654
1 1138
1 662
1 901
142 1
1 364
1 990
118 1
1 373
1 281
1 529
1 661
1 700
1 893
712 1
209 1
749 1
1072 1
1127 1
1 298
1 680
203 1
1026 1
726 1
1 19
1 918
1 342
982 1
1 855
1 1160
1022 1
550 1
743 1
1 597
1130 1
491 1
1 557
624 1
776 1
666 1
919 1
839 1
1 10
531 1
1 702
1 816
1 124
1 359
134 1
645 1
1 219
1 657
424 1
964 1
294 1
320 1
588 1
752 1
1 473
42 1
1 683
1 324
1 582
1 953
398 1
760 1
1142 1
1 798
372 1
318 1
461 1
1111 1
1 175
414 1
951 1
790 1
290 1
1 224
860 1
16 1
1 402
488 1
1 564
766 1
1 385
1 1065
978 1
244 1
230 1
559 1
1 673
737 1
1 746
1 482
1102 1
449 1
1 41
1 131
21 1
1 1145
1 843
1 173
1 84
1 1067
1 862
1 93
1 710
1 876
552 1
875 1
1 636
1 1139
1098 1
52 1
1 840
1 995
1 370
1095 1
1 198
644 1
1 46
303 1
595 1
1 348
1 460
1 126
1 486
519 1
986 1
825 1
1 803
1 81
1 832
363 1
1113 1
1039 1
1 892
720 1
1 888
1 524
583 1
220 1
1 962
872 1
466 1
1 805
1 771
413 1
1 1013
1 235
1 455
693 1
1 481
976 1
1 732
1076 1
355 1
80 1
1 1043
1 741
1 254
1 53
1 977
1 263
1 472
1 998
957 1
1 357
1045 1
1 390
1 483
1 750
29 1
739 1
95 1
1 966
389 1
756 1
1 419
1 913
1 664
55 1
779 1
311 1
223 1
1000 1
1 514
560 1
1 890
450 1
1 909
127 1
1 117
153 1
1 181
149 1
1 446
622 1
350 1
920 1
1 195
162 1
1 381
1 331
1 917
1 672
1 266
971 1
1 1008
648 1
343 1
1 197
247 1
1 542
425 1
933 1
817 1
594 1
1 316
1 795
1 835
1 545
356 1
915 1
584 1
1 653
829 1
187 1
1 242
573 1
1 748
871 1
1 334
1 30
1 489
534 1
1001 1
1 631
1 1099
1 510
63 1
1 828
1 172
1025 1
1 410
469 1
1 8
1007 1
191 1
1 543
1 1004
1 1093
1 1003
520 1
895 1
1085 1
640 1
518 1
1 629
610 1
1 1105
1 969
1 240
1 961
1 836
788 1
1 375
56 1
1 1101
232 1
1 515
1 467
1 574
1 733
1 1005
1 260
1 689
1157 1
1058 1
1 349
1 282
845 1
1 778
1091 1
1 184
859 1
251 1
250 1
775 1
4 5
231 1
57 1
903 1
1 347
1 1042
1 382
1 596
136 1
612 1
1 120
200 1
1 421
914 1
1 722
870 1
67 1
868 1
1 1011
849 1
996 1
791 1
1 214
1 649
605 1
1 1121
1 307
1 388
899 1
69 1
1 535
1 768
275 1
1 430
436 1
1 974
1 614
1063 1
448 1
1 88
1 319
1 431
1052 1
1 1032
1 1086
581 1
1 513
556 1
1 537
1 980
1 1096
1 428
238 1
679 1
1 86
1 587
1 541
603 1
285 1
1069 1
1 400
1 1092
1 770
1 698
1 1128
1 68
1 1149
1 287
47 1
154 1
1 60
572 1
393 1
703 1
1 848
1 753
139 1
1 586
813 1
1 940
1 49
1148 1
1 1079
392 1
1 1094
1 1114
1 809
1 650
470 1
1 218
1 738
727 1
959 1
159 1
1 512
1 787
1 289
994 1
1 954
291 1
565 1
523 1
578 1
1 128
1 379
1 163
1 330
1 985
593 1
707 1
1 387
1 794
685 1
210 1
1 728
1 1144
1 119
1 397
1 569
1 1119
1073 1
1 873
1161 1
747 1
351 1
1 1133
623 1
4 3
1 975
1 1088
834 1
652 1
1050 1
227 1
1 1038
1 32
322 1
1 646
1110 1
1 479
772 1
321 1
926 1
690 1
1 121
1 983
1 306
1 140
1 1055
1 850
498 1
906 1
1 801
1 1020
145 1
910 1
1 329
262 1
1 411
1 635
338 1
1 229
1034 1
1 249
36 1
1 544
458 1
988 1
1 171
815 1
165 1
723 1
1 724
201 1
1 847
1 297
950 1
1 1087
495 1
997 1
944 1
1 955
686 1
1 468
884 1
474 1
1 807
493 1
717 1
1 718
1 553
682 1
1 1017
979 1
858 1
1 111
725 1
277 1
1 94
1 1112
1057 1
1 611
1 797
1 280
1 169
1 157
1 1146
989 1
216 1
1 73
1 79
269 1
1 1068
938 1
304 1
837 1
20 1
64 1
963 1
408 1
1 800
1 453
1 1074
207 1
1 313
91 1
1 1152
1 116
272 1
221 1
1 447
1 1030
874 1
1 257
299 1
665 1
1103 1
1 459
851 1
1 45
1 887
23 1
632 1
1 327
14 1
1 878
599 1
792 1
637 1
1 300
947 1
1 123
1 562
1 615
730 1
1 76
1 405
763 1
1 729
295 1
601 1
1 434
1 440
1064 1
1097 1
1 1123
112 1
820 1
1 454
1 558
103 1
1 831
1 1066
765 1
939 1
406 1
1 401
1 626
1 812
156 1
1 265
485 1
1 253
1 1089
1 793
1 546
1 155
1 1019
641 1
898 1
928 1
1 301
130 1
1 526
1 315
1 616
1 245
1156 1
1 956
114 1
864 1
380 1
1 1024
1 647
335 1
1 70
942 1
555 1
177 1
352 1
1 924
185 1
1 762
141 1
1 687
1 51
478 1
236 1
376 1
1 302
922 1
1 952
967 1
1 715
1 38
1056 1
1 1126
660 1
115 1
742 1
33 1
274 1
1 854
981 1
317 1
1 1062
1 129
604 1
1 628
1 949
484 1
1 1141
1036 1
1 105
799 1
841 1
1 50
1 675
1 984
970 1
548 1
39 1
168 1
1018 1
259 1
908 1
1060 1
340 1
1 399
1 150
1 475
697 1
789 1
1 713
1010 1
1 416
92 1
755 1
1 353
576 1
958 1
1 48
241 1
948 1
1077 1
96 1
1 785
40 1
1 360
678 1
1 826
761 1
1 1158
1 456
1 90
1 668
1 830
1 268
1 782
1 1120
1 802
464 1
1 617
867 1
412 1
823 1
1143 1
1 907
237 1
705 1
504 1
1 205
1 719
369 1
706 1
1 344
1 108
921 1
1132 1
1115 1
1 735
1 276
499 1
1 433
1 296
1 806
477 1
1 225
838 1
1 270
1 1104
642 1
500 1
395 1
1 714
852 1
1 842
1 480
1 522
97 1
383 1
589 1
138 1
1 82
167 1
1155 1
1 625
354 1
1 1044
1 669
941 1
22 1
1 305
930 1
547 1
1 151
1 27
1 688
1 403
44 1
1 1150
1 471
1 1002
1 810
1 273
1 1125
1 1129
936 1
213 1
1 879
1 1109
1 659
1 202
1 814
1 147
429 1
12 1
1 293
1 1059
538 1
1082 1
26 1
1 476
417 1
1 422
1 1107
1 452
1049 1
1 630
1 1048
1046 1
811 1
734 1
190 1
1 61
1021 1
1 25
824 1
643 1
409 1
1 897
861 1
217 1
1071 1
1 361
1 1131
368 1
992 1
1 186
1 1136
1 35
784 1
271 1
1 694
113 1
1 292
1 754
1 72
125 1
709 1
1 59
883 1
1 463
1041 1
932 1
674 1
1 1047
418 1
110 1
846 1
1 927
161 1
135 1
1 740
71 1
549 1
769 1
1 143
435 1
1 968
1 591
676 1
507 1
1 286
721 1
314 1
1 716
638 1
15 1
239 1
1 880
1 639
1 261
264 1
1 386
960 1
497 1
1 536
1 902
1 407
1 194
101 1
326 1
1 1016
1117 1
1 575
1 551
1 199
1 701
7 1
1 183
973 1
916 1
337 1
65 1
332 1
1 193
1 731
539 1
1 179
1 58
1 900
1 505
1 28
1 695
371 1
1 246
1 905
1 808
863 1
1 1106
1 1159
1 490
1 233
279 1
1 1090
527 1
1 432
613 1
1 633
1 182
2 3
1 252
1 1053
1027 1
696 1
11 1
1 566
621 1
1 75
178 1
1 267
1 494
1 211
1 607
1 506
894 1
1 212
1014 1
608 1
923 1
767 1
993 1
1 704
1 78
580 1
1 1054
1 943
965 1
426 1
362 1
308 1
1 1124
501 1
1 122
1 708
1108 1
1 925
1 561
1 310
904 1
1 567
1 934
1 503
1 911
1 1116
37 1
1 600
528 1
1 109
1 882
1 912
1 420
540 1
1 590
77 1
1 1140
1 571
1 1151
1 937
1078 1
1 618
1 43
511 1
745 1
83 1
684 1
1 853
189 1
1 865
1083 1
1 699
391 1
1 758
1 627
1 885
328 1
1 1031
781 1
18 1
1 598
1 323
394 1
609 1
54 1
104 1
1 339
1 827
509 1
1 312
517 1
208 1
670 1
13 1
796 1
1 34
877 1
1 1081
1 384
85 1
396 1
1 991
1 777
1 857
525 1
1 98
1 243
1 667
443 1
107 1
1 1009
1 174
822 1
465 1
333 1
1 102
100 1
492 1
1 972
692 1
1 819
1 170
404 1
759 1
106 1
1 620
1 1051
1 780
1 374
325 1
1 889
1 309
1037 1
1 283
1 1122
1 821
946 1
5 1
1 1134
1 437
206 1
1015 1
1 818
1075 1
377 1
1 146
1 1135
1154 1
1 160
677 1
1 585
658 1
1 439
568 1
757 1
1 215
1 804
1 226
935 1
367 1
869 1
508 1
1 655
1 152
1 444
1 445
570 1
870 472 709
570 572
578 260
544 235
601 683
39 701
139 842
34 325
62 300
259 352
144 27
416 376
78 126
550 547
250 305
384 635
91 208
71 13
493 528
838 214
377 687
154 472
386 183
215 512
128 533
335 393
264 467
355 566
623 133
39 562
177 679
41 327
38 851
361 3
538 385
558 693
209 353
196 84
508 89
205 95
771 740
101 57
148 688
141 437
752 496
622 248
742 749
145 407
855 710
171 244
822 100
45 24
661 52
550 677
272 283
355 281
57 3
514 540
255 11
60 68
80 703
60 5
606 47
69 57
866 520
155 248
234 41
425 665
740 223
194 223
41 203
1 6
507 818
573 454
745 112
630 662
250 722
122 93
53 159
290 362
182 426
579 13
46 92
351 228
140 644
162 155
431 124
97 603
785 64
122 278
172 382
206 292
234 631
390 177
679 765
11 25
24 26
691 650
58 696
495 146
301 324
449 298
567 78
47 49
510 260
83 96
834 482
442 354
79 19
423 189
259 151
687 767
57 219
163 419
262 37
587 820
120 807
394 505
633 209
146 289
17 743
786 62
351 457
132 296
455 75
468 769
489 503
750 140
151 406
200 76
583 571
24 23
701 768
456 707
277 808
172 511
193 80
164 155
157 175
79 103
46 38
95 233
672 633
609 191
247 286
375 289
4 104
479 340
267 354
28 26
489 543
127 360
525 770
74 128
845 303
541 348
235 98
401 380
480 486
76 619
192 831
213 293
732 406
708 88
212 168
116 591
435 15
667 727
406 832
458 29
150 79
474 287
84 60
502 784
87 112
86 500
412 165
648 594
502 65
730 555
323 580
152 109
366 103
130 62
246 312
151 149
36 7
420 332
316 43
576 24
623 643
3 9
411 789
616 475
526 706
552 574
367 190
588 288
55 62
839 65
525 427
350 341
656 174
408 409
737 379
684 456
827 426
260 25
139 799
354 427
230 22
3 777
19 755
91 137
411 719
81 400
450 493
225 114
546 54
364 632
5 16
23 363
471 321
358 620
577 104
7 867
167 231
10 391
20 237
637 391
729 823
553 38
355 368
460 794
489 870
728 661
242 484
246 152
1 52
22 41
70 28
498 507
31 21
290 279
254 323
252 133
456 325
340 160
215 71
585 551
3 273
221 95
387 217
680 615
170 20
570 762
45 186
337 466
81 42
162 329
287 343
73 731
13 163
9 118
208 751
306 247
6 415
150 166
145 204
164 295
34 26
666 554
451 498
221 346
93 183
738 54
548 653
289 344
94 134
516 310
781 302
1 64
76 45
339 215
267 447
700 274
123 66
670 756
236 275
106 41
462 25
149 101
87 91
348 76
130 157
117 14
483 501
429 93
599 303
148 12
190 414
232 675
164 202
318 358
615 450
153 30
105 173
2 5
241 234
776 660
190 821
162 440
94 59
558 63
797 404
819 258
490 87
280 497
364 227
63 18
50 46
328 127
347 476
566 835
671 649
123 218
707 715
84 504
721 276
376 374
90 710
568 723
216 836
864 483
748 393
102 41
811 671
191 84
5 8
816 299
461 360
411 547
49 349
265 50
52 61
239 85
8 14
381 8
182 165
107 199
6 5
124 51
18 72
404 451
639 441
527 65
200 410
523 403
495 657
579 841
17 733
804 681
105 25
509 299
319 205
854 494
432 99
97 96
184 35
457 862
614 187
9 206
418 192
424 142
386 403
54 779
5 168
183 787
760 124
140 397
14 48
381 582
31 53
778 231
197 833
600 605
694 491
152 279
13 268
439 184
17 4
385 311
300 454
14 66
217 634
244 552
249 170
494 853
712 243
272 297
408 180
679 697
803 250
485 373
519 549
171 161
301 117
628 387
263 695
56 179
536 239
720 563
180 46
453 420
869 342
216 117
14 74
124 772
76 120
103 155
713 672
142 224
133 128
593 319
375 698
161 181
1 23
421 148
273 626
405 417
405 460
74 167
320 405
110 72
329 735
360 664
240 194
141 42
250 227
817 603
513 660
270 36
35 494
354 565
255 524
57 140
68 136
408 557
195 281
82 73
559 527
284 282
138 517
360 646
258 136
408 535
395 40
568 459
172 131
857 422
64 852
676 571
711 428
43 256
800 639
165 31
384 59
243 690
246 443
291 60
521 405
783 396
608 379
19 4
114 82
6 522
98 80
139 43
374 205
90 111
15 83
43 51
534 451
638 68
436 401
365 349
217 213
81 263
746 54
230 308
143 176
280 202
118 489
705 298
40 67
90 89
299 222
365 441
542 594
61 389
515 373
161 88
575 69
32 7
7 257
645 502
276 139
596 46
758 470
741 73
115 254
5 15
513 211
716 157
219 261
21 9
305 782
97 121
317 28
6 47
849 764
321 3
59 865
315 154
69 197
8 65
217 388
194 166
5 12
190 47
126 699
78 247
203 342
652 85
704 321
610 469
298 491
55 15
337 636
685 131
240 613
11 8
54 75
326 287
285 249
318 298
226 310
773 264
246 274
502 518
303 398
581 156
739 468
20 33
294 134
473 810
780 215
30 15
195 848
319 499
654 120
144 618
3 560
135 44
537 287
764 62
641 620
858 625
468 36
11 228
712 850
16 78
73 23
426 629
131 210
195 151
109 584
421 667
5 147
28 85
112 607
5 13
587 515
24 757
179 795
487 467
107 49
597 174
133 791
303 281
655 255
856 75
736 351
216 298
177 153
22 17
2 7
4 3
109 42
258 450
302 161
309 21
58 25
73 113
333 159
826 352
35 11
159 269
8 338
59 33
82 138
754 696
211 47
10 1
235 863
92 725
430 229
570 347
717 74
372 775
282 51
31 402
452 264
492 157
99 89
369 67
48 198
108 36
66 428
29 145
237 624
148 478
307 37
193 561
331 2
586 465
364 796
424 709
121 304
100 63
611 630
788 664
554 491
814 190
617 343
718 708
132 156
132 32
189 40
601 345
16 506
287 46
362 514
322 205
216 222
438 221
98 792
830 376
137 334
264 197
48 87
802 679
563 316
595 470
264 529
40 5
245 198
79 320
469 466
621 355
505 673
314 250
143 689
78 174
185 475
146 120
659 465
473 612
470 171
345 243
125 229
45 88
102 187
658 377
299 678
300 604
54 43
261 674
520 117
649 669
56 29
530 63
239 347
555 105
689 726
373 312
837 593
11 18
592 150
542 113
433 7
178 155
178 742
843 764
313 249
294 377
165 496
176 383
611 3
316 868
396 233
134 801
157 242
766 393
231 251
812 97
480 354
370 338
40 445
425 380
243 103
52 356
91 154
99 125
650 102
192 156
75 131
115 110
142 103
859 164
829 138
548 2
11 39
495 759
219 545
127 98
226 14
62 860
147 551
828 726
120 158
27 25
379 840
793 551
116 64
422 220
277 52
647 670
444 355
213 57
590 543
148 598
686 434
702 511
378 798
68 477
332 341
47 404
160 267
16 29
488 273
813 95
532 264
80 66
160 90
464 199
380 177
235 330
668 423
288 51
152 209
1 38
642 173
753 223
264 271
609 825
292 372
238 87
129 63
747 125
379 264
7 4
336 227
72 394
426 446
89 20
600 299
442 815
105 232
69 649
451 682
67 93
336 663
625 485
159 459
378 72
744 524
1 3
527 806
589 325
28 371
861 226
71 399
434 415
311 2
463 173
356 411
692 661
335 84
161 169
436 844
201 16
640 236
214 176
272 482
774 144
729 657
337 278
556 244
142 185
272 85
21 253
627 617
91 805
809 464
846 646
266 47
119 2
763 446
222 357
332 287
602 39
651 301
571 319
647 125
413 28
681 556
392 347
36 236
7 20
203 519
465 430
18 220
790 358
1 188
473 105
724 625
123 526
630 714
77 227
570 761
53 143
448 362
86 21
184 359
32 43
207 49
26 44
95 55
24 77
634 847
539 36
254 481
734 502
137 564
569 27
22 42
824 318
483 368
1 37
531 321
884 36 782
613 614
825 826
174 173
193 192
659 660
640 641
576 575
66 67
7 6
62 63
695 696
439 438
615 616
675 674
3 2
280 281
687 686
833 832
536 535
198 199
68 67
663 662
144 143
360 359
494 493
677 678
85 84
691 692
247 246
586 587
231 232
400 401
421 422
17 18
185 184
248 249
681 680
25 24
842 843
563 564
657 656
800 801
207 208
53 52
797 796
819 820
603 604
76 75
309 310
690 691
111 112
49 48
536 537
35 36
532 533
263 262
584 583
365 364
47 46
100 101
707 708
293 294
155 156
629 628
261 262
545 546
630 631
251 250
875 876
275 276
823 824
363 362
303 304
331 330
54 55
842 841
804 803
176 177
729 730
41 42
654 655
648 649
222 223
113 114
298 297
780 779
402 403
74 73
116 117
98 99
72 71
734 733
593 592
251 252
317 318
694 695
642 641
513 514
409 408
244 245
523 524
668 669
380 381
377 378
528 527
302 301
169 168
547 546
760 759
744 743
101 102
390 389
493 492
858 859
225 226
247 248
796 795
668 667
357 356
278 279
475 476
322 323
235 234
356 355
151 150
441 442
766 765
324 323
341 340
807 808
62 61
515 516
449 448
526 525
345 346
176 175
282 283
613 612
525 524
772 773
269 268
706 707
116 115
604 605
185 186
407 408
108 109
215 216
120 119
13 14
419 418
884 401
93 92
313 314
775 774
269 270
719 720
461 460
789 790
371 370
740 741
557 558
564 565
366 365
501 502
257 256
207 206
753 754
20 21
291 292
778 779
380 379
288 287
233 234
538 537
771 770
592 591
463 464
338 337
533 534
167 166
179 180
565 566
106 107
482 481
673 674
7 8
860 859
258 257
827 828
183 184
769 770
121 122
863 862
840 839
639 640
676 675
522 523
602 601
483 484
719 718
633 632
387 388
140 139
829 828
437 438
837 836
420 421
477 478
491 492
197 198
79 80
656 655
683 682
855 854
321 320
183 182
385 386
306 307
869 868
23 24
548 547
203 202
787 786
135 136
281 282
405 404
867 868
15 14
259 260
178 177
768 767
55 56
296 295
5 6
426 427
118 117
881 882
432 433
278 277
170 169
651 652
671 672
125 126
221 222
737 738
81 82
758 759
468 467
626 625
406 405
193 194
555 554
399 400
361 362
172 173
802 803
286 285
104 103
532 531
372 373
451 450
434 433
81 80
845 844
276 277
713 714
877 878
5 4
505 506
551 552
272 271
862 861
482 483
591 590
728 729
806 805
782 783
856 855
819 818
158 159
17 16
684 685
488 487
144 145
880 881
728 727
662 661
804 805
224 223
801 802
778 777
69 68
506 507
484 485
470 471
210 209
583 582
824 825
220 219
637 638
756 757
574 575
448 447
734 735
266 267
678 679
559 560
241 240
333 334
514 515
716 715
386 387
253 254
156 157
793 792
814 815
636 637
689 690
649 650
147 146
66 65
623 622
152 151
856 857
339 338
709 710
879 880
679 680
469 468
704 705
43 44
810 811
830 831
300 299
34 33
128 129
521 520
711 710
554 553
499 498
437 436
636 635
367 368
865 866
110 109
748 749
883 882
315 316
518 517
316 317
574 573
686 685
504 503
614 615
432 431
720 721
10 11
328 329
31 32
787 788
344 345
512 511
791 790
348 347
302 303
218 217
593 594
645 646
57 58
157 158
327 328
227 226
385 384
123 122
149 148
426 425
703 702
838 839
425 424
39 40
416 415
733 732
337 336
160 159
654 653
445 446
723 724
51 50
369 370
361 360
99 100
879 878
309 308
224 225
233 232
760 761
416 417
395 396
221 220
495 494
711 712
123 124
409 410
480 481
550 551
568 567
850 851
495 496
718 717
235 236
261 260
300 301
605 606
153 154
664 663
136 137
442 443
230 229
776 775
670 671
706 705
39 38
852 853
20 19
544 545
539 540
543 542
170 171
217 216
4 3
783 784
288 289
86 87
29 30
444 443
600 601
161 160
175 174
450 449
108 107
576 577
687 688
325 324
505 504
681 682
846 845
72 73
71 70
242 243
860 861
809 810
182 181
312 313
661 660
816 817
764 765
712 713
580 579
872 873
10 9
264 263
479 480
430 429
392 391
51 52
530 529
459 458
714 715
693 694
267 268
863 864
508 509
188 189
258 259
273 274
497 496
518 519
877 876
826 827
513 512
786 785
349 350
816 815
414 415
570 569
723 722
704 703
85 86
600 599
870 869
343 342
620 621
19 18
624 625
772 771
791 792
619 620
777 776
203 204
76 77
372 371
56 57
304 305
812 813
664 665
190 191
698 697
769 768
41 40
200 199
831 832
553 552
854 853
330 329
129 130
366 367
256 255
472 473
413 412
357 358
142 141
254 255
327 326
701 702
168 167
696 697
848 847
557 556
298 299
21 22
195 194
602 603
727 726
618 619
849 848
507 508
462 463
351 352
286 287
873 874
363 364
455 456
872 871
206 205
736 737
354 353
411 412
373 374
488 489
736 735
392 393
36 37
531 530
47 48
474 473
516 517
807 806
754 755
419 420
211 212
403 404
498 497
667 666
164 163
29 28
191 192
424 423
618 617
196 195
740 739
46 45
454 453
612 611
474 475
700 701
319 320
25 26
43 42
391 390
431 430
716 717
643 644
800 799
699 698
797 798
569 568
399 398
758 757
162 161
485 486
648 647
59 58
700 699
200 201
688 689
181 180
822 823
429 428
54 53
75 74
817 818
730 731
398 397
228 229
38 37
598 597
753 752
358 359
837 838
394 393
417 418
252 253
243 244
132 131
527 526
290 291
150 149
245 246
520 519
146 145
376 377
295 294
726 725
134 133
683 684
138 139
89 90
134 135
472 471
830 829
335 336
587 588
293 292
755 756
44 45
609 610
486 487
332 331
858 857
441 440
460 459
133 132
741 742
541 540
274 275
332 333
490 489
127 126
665 666
883 884
821 822
571 572
350 351
585 584
165 164
467 466
205 204
781 780
283 284
445 444
97 96
562 563
89 88
395 394
137 138
237 236
570 571
215 214
335 334
850 849
13 12
127 128
813 814
462 461
113 112
61 60
155 154
83 82
49 50
562 561
165 166
368 369
152 153
343 344
840 841
308 307
434 435
318 319
510 509
607 606
456 457
586 585
633 634
210 211
347 346
451 452
413 414
544 543
422 423
629 630
624 623
644 645
240 239
657 658
639 638
22 23
280 279
407 406
271 270
851 852
201 202
446 447
238 237
91 90
187 188
27 26
501 500
354 355
94 93
669 670
627 628
325 326
84 83
8 9
634 635
213 212
121 120
209 208
582 581
622 621
131 130
187 186
643 642
808 809
396 397
738 739
607 608
376 375
529 528
312 311
64 65
560 561
389 388
650 651
632 631
465 466
748 747
672 673
311 310
785 784
874 875
510 511
692 693
124 125
12 11
477 476
709 708
69 70
179 178
349 348
750 751
289 290
479 478
340 339
189 190
676 677
794 793
762 761
383 382
835 834
285 284
751 752
28 27
732 731
572 573
782 781
249 250
743 742
2 1
273 272
143 142
867 866
788 789
30 31
379 378
104 105
231 230
522 521
78 77
578 577
322 321
844 843
383 384
589 590
589 588
242 241
163 162
115 114
647 646
549 548
774 773
812 811
747 746
315 314
617 616
110 111
352 353
94 95
578 579
556 555
197 196
342 341
59 60
103 102
659 658
469 470
724 725
297 296
611 610
92 91
214 213
35 34
63 64
559 558
171 172
598 599
550 549
653 652
266 265
105 106
502 503
306 305
375 374
238 239
535 534
542 541
798 799
594 595
95 96
767 766
141 140
595 596
627 626
870 871
745 746
721 722
763 764
821 820
33 32
218 219
763 762
465 464
435 436
119 118
608 609
411 410
750 749
538 539
500 499
580 581
428 427
454 455
833 834
227 228
440 439
147 148
597 596
745 744
458 457
864 865
382 381
566 567
97 98
846 847
402 401
79 78
16 15
88 87
835 836
794 795
453 452
265 264
490 491
1074 419 1002
88 947
860 952
454 752
334 1004
13 6
686 534
897 663
901 381
66 25
504 375
1051 159
21 40
2 481
158 736
853 397
250 548
1037 280
335 264
816 7
581 679
563 756
252 201
35 888
416 983
767 52
16 35
337 927
360 307
209 753
102 256
27 34
319 229
906 253
361 503
964 423
188 79
297 254
709 790
670 13
524 378
456 695
240 381
416 635
134 168
54 931
639 40
109 181
470 945
664 282
248 103
72 93
683 293
1049 671
33 663
461 387
615 224
192 445
807 544
681 907
623 812
998 699
597 706
52 176
180 110
600 631
176 366
551 795
837 273
4 60
63 651
524 586
446 265
271 3
289 930
367 400
505 28
479 152
157 66
438 319
419 458
421 258
177 281
690 728
763 496
466 118
135 18
369 712
156 497
1016 645
1005 364
208 204
3 9
230 42
166 372
19 124
251 99
61 392
482 693
495 121
90 452
114 202
289 167
413 617
62 887
440 874
336 589
490 318
709 551
891 747
894 379
1024 153
926 87
494 266
860 262
45 1028
227 157
62 772
67 101
450 357
3 407
649 1020
861 982
684 99
516 154
434 284
186 57
53 108
1 242
677 377
468 991
508 443
321 124
502 965
564 700
970 673
34 401
1057 253
201 27
653 851
783 521
390 1006
52 1054
931 1030
641 799
559 627
276 37
267 52
652 333
1022 956
778 771
59 417
128 422
264 331
818 1008
751 419
658 231
111 464
927 1039
354 454
90 118
294 491
675 166
675 703
981 421
4 205
67 43
324 71
738 333
460 1036
852 494
8 12
449 371
368 320
444 142
130 57
4 106
1014 847
921 57
21 79
155 261
854 609
6 1
87 286
1007 157
621 744
7 82
905 336
66 910
823 713
519 244
280 534
413 147
73 197
37 17
133 323
69 177
232 299
10 232
621 725
229 948
980 352
701 371
625 571
62 60
900 133
536 245
45 291
666 333
792 139
325 29
95 15
682 407
878 979
322 470
671 696
10 895
115 83
583 599
463 299
15 45
264 761
111 622
145 886
169 182
942 394
708 331
194 38
274 399
645 746
294 28
391 197
934 851
1040 16
381 521
661 510
56 956
764 131
691 266
215 290
167 204
272 157
498 21
146 121
95 178
61 167
880 1067
70 320
92 265
343 743
720 267
414 116
390 94
487 241
302 526
17 200
699 471
957 746
908 344
501 414
25 90
500 452
494 740
143 559
76 77
777 892
32 223
844 30
72 41
804 65
176 415
489 46
667 103
21 210
145 45
241 91
80 41
587 843
582 89
29 28
257 215
868 632
39 48
693 742
574 781
899 485
1053 123
628 879
40 477
71 52
230 398
1060 1058
225 944
99 51
993 863
410 66
429 525
540 119
24 357
808 329
56 85
13 245
280 637
139 593
363 426
916 697
872 706
121 58
480 328
855 212
255 230
189 16
23 24
96 155
148 73
807 1017
226 131
787 140
91 117
107 26
1048 917
734 181
428 850
132 274
543 75
1012 425
196 2
1050 547
5 6
960 393
164 546
722 567
198 190
7 28
830 1063
363 774
10 864
973 2
871 527
467 135
1029 882
328 1035
69 126
64 97
193 183
555 626
171 211
340 644
547 185
423 538
600 61
423 714
74 47
38 73
286 394
161 139
314 81
803 105
511 242
329 284
462 1066
618 340
1047 671
696 755
548 880
883 461
287 250
309 60
10 20
4 58
750 321
354 71
245 616
36 7
104 57
870 708
69 23
39 34
710 175
365 37
1072 776
132 351
262 443
129 34
375 114
713 393
351 428
293 3
2 383
97 1045
387 716
19 8
623 654
532 303
788 148
103 396
692 566
268 252
138 486
33 172
360 609
56 173
743 992
527 118
758 986
344 959
337 124
342 83
621 381
187 153
42 78
468 555
822 61
745 693
1042 873
835 990
951 553
60 64
183 551
355 62
925 909
997 736
770 924
225 431
459 1052
831 235
1015 604
584 57
83 88
1025 194
164 14
310 139
440 142
262 40
110 62
260 123
827 431
376 64
191 12
120 382
413 638
502 462
231 35
863 1031
263 893
112 3
111 476
662 387
560 610
2 14
583 640
762 1074
162 595
170 190
949 93
848 63
228 110
482 242
15 114
40 292
682 1065
5 18
185 95
647 126
537 461
212 433
373 919
495 759
139 856
420 35
6 33
47 96
390 673
60 70
646 219
306 100
86 51
890 291
397 96
108 330
12 92
2 4
332 322
423 441
601 885
418 320
23 65
570 319
427 286
29 962
911 195
984 308
786 857
300 91
253 158
478 42
218 11
334 592
269 17
697 406
341 288
273 379
514 475
859 212
688 431
579 724
57 14
2 3
619 246
39 119
332 474
164 183
903 847
432 180
12 26
794 1055
452 533
530 10
554 95
146 221
571 101
346 169
818 96
274 298
338 363
507 653
572 375
83 442
169 386
327 10
769 122
149 243
359 64
38 120
348 137
96 347
40 132
604 299
36 61
447 758
447 208
266 791
137 966
167 199
784 58
995 107
1018 735
418 629
264 211
169 39
884 855
1068 168
344 282
229 915
509 565
253 389
141 32
95 258
556 279
821 402
126 704
829 576
352 321
50 5
584 648
671 629
11 5
50 328
270 79
176 343
562 547
394 923
387 349
102 569
561 503
602 72
249 122
581 495
641 397
878 531
273 507
456 368
40 87
215 1033
1070 160
426 1061
144 770
1032 337
517 77
84 451
267 596
122 45
133 838
54 156
876 546
279 794
805 743
541 79
369 344
104 588
484 276
83 60
813 585
387 678
698 116
539 479
786 213
83 862
275 846
85 424
472 344
111 56
510 490
11 336
93 681
778 1046
567 354
54 42
235 9
155 212
773 453
219 186
8 1
237 628
778 1000
661 939
184 99
1018 1021
64 587
412 371
542 1027
266 241
322 19
113 12
798 46
447 735
842 614
28 326
768 374
520 929
619 687
165 71
471 22
159 111
96 356
7 3
70 192
645 552
545 386
588 1043
280 295
203 37
15 25
933 753
576 254
163 229
245 406
117 213
865 69
284 338
819 334
741 406
909 607
873 52
277 90
13 94
834 338
404 630
102 89
414 1001
953 756
594 801
775 941
282 259
98 233
176 388
23 19
166 165
968 500
5 4
577 13
904 593
676 199
826 806
220 225
68 63
940 697
103 48
95 601
101 280
125 163
19 21
149 9
674 422
542 633
55 131
313 57
59 731
938 446
433 810
515 243
902 542
359 374
1009 550
349 976
967 157
574 186
74 690
1023 556
94 416
504 513
495 806
13 42
312 315
311 605
403 143
303 133
16 15
910 1064
1 32
499 36
157 206
36 465
74 978
188 861
333 98
186 528
379 858
830 362
882 188
1058 739
467 496
591 825
453 366
659 460
954 667
273 305
71 75
49 142
1062 1004
869 628
612 208
254 52
41 568
343 362
1038 14
766 294
513 961
509 14
430 316
67 125
339 162
244 108
349 68
216 917
361 632
22 304
464 520
969 103
152 82
249 748
730 624
229 275
832 661
314 943
296 194
101 780
698 972
54 669
137 171
41 139
775 155
668 27
73 215
153 37
79 133
259 177
250 192
81 137
172 316
708 912
162 151
625 642
361 606
159 174
457 488
179 207
127 23
935 676
32 607
423 270
104 473
132 279
691 985
47 42
113 222
239 90
575 246
102 737
8 10
419 397
920 261
232 649
77 404
444 550
1010 630
333 380
150 147
220 120
218 833
585 162
718 287
210 240
21 485
76 40
146 425
262 395
896 913
777 599
771 1041
369 1044
308 135
196 378
646 946
601 762
134 170
493 48
1002 331
896 565
689 80
557 345
881 652
38 608
462 665
44 28
800 161
468 120
863 234
907 1026
318 975
410 841
932 144
564 261
393 126
988 440
733 510
385 96
2 91
136 11
67 373
614 918
38 41
437 430
623 200
614 385
61 195
38 214
775 1069
41 680
118 317
487 809
24 544
707 504
334 214
73 302
565 749
93 867
81 60
224 148
747 889
721 332
89 234
180 364
441 580
175 46
553 322
26 30
398 408
410 469
1056 1019
540 835
169 457
542 45
779 250
350 187
48 439
560 326
48 603
435 135
702 182
27 84
950 937
720 820
95 732
824 355
49 10
234 278
620 371
144 384
551 898
272 655
739 34
817 128
664 793
219 771
158 318
121 311
246 573
936 797
154 52
129 158
121 705
133 283
455 552
1011 446
130 483
34 353
163 789
301 274
955 831
84 660
36 579
47 409
814 78
370 342
527 563
251 405
531 410
70 598
127 263
40 455
6 17
371 201
429 80
18 27
448 47
10 22
293 436
523 181
866 782
102 134
249 729
963 946
591 277
677 845
288 116
195 411
16 144
210 367
237 118
928 526
711 84
160 145
322 512
722 958
847 321
624 294
529 504
765 733
518 391
679 785
987 590
782 996
535 102
361 91
442 719
522 505
1071 93
209 50
1073 726
23 747
256 836
796 78
758 839
121 217
51 36
59 16
312 113
340 558
613 365
21 53
20 284
650 30
246 148
109 49
757 636
459 338
594 234
782 315
1003 875
96 247
8 216
797 471
815 124
914 123
685 504
46 377
285 100
828 562
140 90
55 597
15 9
11 123
147 27
974 345
583 506
657 279
726 528
760 421
170 849
57 116
590 518
170 840
37 46
98 63
875 810
23 358
152 345
179 62
815 999
672 581
105 14
811 170
699 802
621 636
505 727
643 294
424 1034
989 930
7 1
405 475
272 656
67 100
38 12
31 18
392 694
128 61
462 104
877 422
757 776
1013 198
38 89
273 34
340 323
525 1059
611 43
717 381
43 7
634 366
578 379
506 4
64 138
238 18
533 754
218 492
236 214
56 34
133 566
151 128
723 679
278 402
370 937
1019 964
994 531
922 79
345 977
549 481
612 715
52 42
143 51
93 460
229 307
63 30
55 12
971 793
1373 98 116
277 276
1327 1328
757 758
248 249
641 640
671 672
368 367
298 297
541 540
294 295
439 438
349 350
494 493
1143 1142
1326 1327
161 160
270 271
176 175
747 748
290 289
135 136
1056 1055
233 232
1318 1319
1244 1245
548 549
1051 1050
283 284
1066 1065
794 795
1151 1150
679 678
1236 1235
1356 1355
1303 1304
1023 1022
498 497
137 136
646 647
575 574
410 411
1208 1209
985 984
1149 1150
777 776
751 750
268 267
266 267
592 591
1183 1184
676 677
1294 1295
986 985
976 977
292 291
361 360
1360 1359
812 811
1157 1158
152 153
852 853
1073 1072
1227 1228
845 844
931 932
676 675
1140 1141
130 131
550 551
1085 1084
129 128
862 861
262 263
434 433
1110 1111
81 80
548 547
1362 1361
414 413
719 720
122 121
523 522
257 256
242 241
961 960
835 836
711 710
954 955
801 802
192 191
51 52
288 289
928 927
1226 1225
1144 1143
1329 1328
807 808
838 839
642 643
797 796
252 253
257 258
1348 1349
886 885
93 92
974 975
1188 1189
837 838
387 388
962 963
323 322
266 265
222 223
91 90
888 889
825 826
1357 1358
1196 1197
1267 1268
380 381
952 951
25 26
245 244
737 736
234 2
640 639
465 466
877 878
559 560
87 86
448 449
373 374
482 481
1161 1162
917 916
171 172
605 604
181 180
905 906
173 174
1200 1201
138 137
768 769
766 765
635 636
1354 1353
1140 1139
397 396
1195 1196
774 775
690 691
1307 1308
1232 1231
1078 1077
500 501
802 803
818 817
1018 1017
468 469
879 880
757 756
564 563
598 597
187 186
562 563
1167 1168
1041 1042
496 495
133 134
933 934
855 854
680 681
393 394
327 328
874 873
316 315
584 585
787 786
629 630
556 557
1261 1262
216 215
631 632
281 280
83 82
824 825
373 372
1253 1254
751 752
536 537
492 493
70 69
627 626
377 376
533 532
443 444
113 112
268 269
969 970
313 314
1262 1263
1050 1049
296 295
632 633
118 119
1120 1119
716 717
330 331
164 165
61 60
142 143
170 169
1147 1146
1154 1155
509 508
895 894
1332 1333
180 179
1288 1287
176 177
803 804
1159 1160
976 975
56 55
980 979
884 885
1333 1334
567 566
545 544
1094 1093
1243 1244
1064 1063
744 745
1062 1061
899 900
820 821
891 892
1022 1021
427 428
1012 1011
398 399
430 429
1079 1078
1173 1174
95 94
425 424
282 281
1072 1071
1080 1081
938 937
318 317
1 6
1323 1324
114 113
254 253
470 469
1013 1014
118 117
436 437
573 572
216 217
226 225
1187 1188
371 372
275 274
727 728
1180 1179
365 366
228 227
728 729
1360 1361
396 395
225 224
68 69
1114 1115
581 580
687 688
901 900
851 852
608 607
255 256
513 512
1269 1268
1306 1305
1163 1162
771 770
918 5
1315 1316
616 617
67 68
455 454
763 764
706 705
379 378
593 592
527 526
992 991
419 418
53 54
123 122
871 870
893 892
348 349
1092 1091
1239 1238
717 718
939 940
1146 6
525 526
420 421
652 651
982 983
1089 1088
1018 1019
1211 1212
279 278
374 375
418 417
1336 1335
704 703
220 219
201 202
487 486
859 860
576 575
307 306
515 516
1112 1113
1185 1184
865 864
143 144
1127 1126
980 981
909 908
409 408
510 511
993 994
86 85
639 638
221 220
358 359
607 606
40 41
1371 1370
590 589
660 661
76 75
362 363
9 8
859 858
3 2
1117 1116
305 304
1193 1192
437 438
141 140
897 896
1316 1317
57 56
631 630
699 700
359 360
712 713
303 302
694 693
603 602
356 357
363 364
822 821
1369 1370
103 104
1035 1036
648 647
1202 1201
311 310
1320 1319
41 42
1037 1038
39 38
629 628
1004 1005
1020 1021
156 157
1341 1340
145 146
499 500
221 222
989 990
1083 1082
874 875
1216 1217
23 22
726 727
226 227
999 1000
111 110
589 588
834 835
911 912
421 422
1082 1081
1042 1043
1225 1224
127 126
993 992
400 399
660 659
1092 1093
847 846
555 556
579 580
1209 1210
615 614
1336 1337
649 648
692 693
1213 1214
1265 1266
806 807
464 463
702 701
544 543
1024 1025
1019 1020
601 602
27 26
935 936
43 44
518 517
624 625
272 273
475 474
1153 1154
520 519
1104 1103
9 10
366 367
554 553
753 754
558 559
412 411
125 126
105 104
190 191
239 240
426 425
167 166
1206 1207
792 793
974 973
654 653
1219 1218
1007 1006
816 817
716 715
742 741
651 650
812 813
288 287
405 406
1295 1296
1289 1290
1169 1170
981 982
313 312
129 130
552 553
1256 1257
43 42
968 967
29 30
1239 1240
125 124
6 5
692 691
800 799
1234 1235
1323 1322
1165 1166
698 699
741 740
1155 1156
206 207
571 572
823 822
206 205
354 355
293 292
1210 1211
87 88
1311 1310
1083 1084
766 767
1306 1307
1087 1088
72 73
1045 1046
983 984
463 462
944 945
1182 1183
883 882
1372 1373
353 354
862 863
967 966
947 946
84 85
324 325
1343 1344
1191 1192
1109 1108
1266 1267
402 403
834 833
345 344
912 913
392 393
95 96
228 229
101 100
1145 1144
1106 1107
462 3
644 643
1372 1371
412 413
861 860
773 772
889 890
212 211
450 449
1052 1053
200 199
376 375
52 53
1060 1059
370 369
10 11
1247 1246
1261 1260
110 109
472 471
1238 1237
238 239
247 246
194 193
270 269
1271 1272
1040 1039
612 611
175 174
666 665
508 507
525 524
1223 1224
788 789
1152 1153
78 79
431 432
341 340
759 758
464 465
1115 1116
1122 1121
672 673
1214 1215
459 460
996 997
506 507
369 368
520 521
569 570
37 38
898 899
1346 1345
241 240
926 925
1217 1218
698 697
1138 1137
346 347
1256 1255
353 352
1051 1052
970 971
950 949
720 721
63 64
236 235
445 444
1200 1199
1274 1273
866 867
1121 1120
1353 1352
386 387
715 714
1170 1171
1139 1138
337 336
960 959
106 105
1135 1134
801 800
787 788
286 287
978 979
707 706
356 355
1271 1270
938 939
911 910
1208 1207
659 658
725 724
150 149
642 641
1039 1038
96 97
1141 1142
1259 1260
1355 1354
282 283
1057 1056
1132 1131
1363 1364
39 40
101 102
65 66
814 815
569 568
485 486
1128 1129
335 334
112 111
154 155
988 987
709 710
78 77
601 600
936 937
1110 1109
773 774
1299 1300
1085 1086
924 925
856 855
662 661
1134 1133
492 491
670 669
658 657
385 386
1164 1165
796 795
251 250
163 164
1257 1258
820 819
1346 1347
67 66
119 120
519 518
208 207
1204 1205
315 314
435 434
321 322
310 309
107 108
1054 1053
1032 1033
868 867
756 755
685 686
565 566
505 504
390 391
293 294
441 442
909 910
1122 1123
1330 1329
361 362
1101 1100
211 210
594 595
1240 1241
1054 1055
903 902
687 686
571 570
1178 1179
723 724
255 254
539 538
79 80
786 785
1017 1016
1032 1031
1279 1280
1076 1077
1222 1223
920 919
562 561
435 436
335 336
1222 1221
921 920
778 779
704 705
1318 1317
1325 1326
587 586
16 17
593 594
407 406
833 832
1233 1234
950 951
784 785
524 523
1337 1338
305 306
384 383
941 942
398 397
1152 1151
203 202
978 977
810 811
135 134
23 24
243 244
1070 1069
132 131
97 98
382 381
1203 1204
261 260
944 943
776 775
610 609
106 107
430 431
1227 1226
352 351
394 395
1341 1342
153 154
1284 1283
883 884
681 682
456 457
50 51
923 922
969 968
1181 1182
804 805
140 139
179 178
88 89
487 488
504 503
48 47
793 794
1026 1025
378 377
1015 1016
1097 1096
752 753
271 272
347 348
972 973
45 44
185 184
1320 1321
584 583
1008 1009
334 333
1068 1069
986 987
684 685
428 429
1177 1176
158 159
423 424
959 958
1344 1345
497 496
1282 1283
1004 1003
285 284
196 197
539 540
734 735
440 439
827 828
1198 1197
568 567
2 1
680 679
866 865
729 730
546 545
13 12
312 311
1010 1009
365 364
849 848
250 249
988 989
841 840
546 547
344 343
235 234
182 183
55 54
1285 1286
769 770
1229 1228
480 481
123 124
665 664
28 29
927 926
232 231
1276 1275
636 637
1276 1277
529 530
1187 1186
452 451
277 278
1046 1047
389 388
512 511
1125 1124
200 201
781 780
162 161
965 964
1291 1290
767 768
712 711
1087 1086
219 218
1013 1012
1232 1233
876 877
263 264
17 18
682 683
703 702
764 765
1125 1126
722 723
1302 1301
275 276
83 84
1001 1002
1286 1287
1273 1272
731 732
633 634
1253 1252
522 521
1169 1168
483 484
790 791
904 903
213 214
474 473
479 480
565 564
1237 1236
1297 1298
653 652
1263 1264
655 656
619 618
924 923
536 535
697 696
789 790
446 445
433 432
832 831
871 872
1199 1198
194 195
843 842
1105 1106
209 210
1128 1127
957 958
1212 1213
578 577
1177 1178
204 203
307 308
74 75
1312 1313
1135 1136
784 783
1369 1368
258 259
600 599
1161 1160
1269 1270
326 327
490 489
542 543
318 319
422 423
1315 1314
73 74
830 829
515 514
713 714
342 341
379 380
1331 1330
792 791
966 965
31 30
827 826
1338 1339
998 999
761 760
261 262
777 778
1359 1358
725 726
1158 1159
167 168
814 813
265 264
576 577
21 22
186 185
1074 1075
1073 1074
997 998
1194 1193
809 808
663 664
908 907
1132 1133
1275 1274
484 485
279 280
245 246
477 476
612 613
28 27
453 454
1124 1123
1258 1259
506 505
1293 1294
637 638
694 695
215 214
1149 1148
482 483
1350 1349
818 819
478 477
963 964
533 534
401 402
746 747
102 103
458 459
1176 1175
887 886
620 621
869 870
846 845
671 670
224 223
1129 1130
404 403
617 618
1297 1296
668 669
178 177
596 595
748 749
319 320
1367 1366
494 495
1229 1230
1265 1264
695 696
323 324
1024 1023
189 190
881 880
173 172
468 467
1076 1075
184 183
733 734
247 248
1102 1103
358 357
780 779
333 332
385 384
991 990
339 340
1313 1314
204 205
46 47
1206 1205
1007 1008
1365 1366
934 935
1304 1305
604 603
1241 1242
762 761
598 599
150 151
1190 1191
242 243
331 332
942 943
941 940
626 625
141 142
197 198
59 58
1090 1089
410 409
830 831
738 737
304 303
1321 1322
918 919
745 746
1342 1343
854 853
1111 1112
346 345
823 824
187 188
189 188
581 582
1062 1063
14 15
1156 1157
1367 1368
1101 1102
252 251
391 392
721 722
843 844
1130 1131
146 147
762 763
887 888
1066 1067
260 259
1057 1058
160 159
610 611
158 157
148 147
456 455
510 509
1308 1309
1324 1325
857 856
995 994
1252 1251
953 952
690 4
116 117
162 163
1173 1172
1311 1312
325 326
405 404
1034 1035
489 488
198 199
12 11
708 709
442 443
878 879
528 529
338 337
700 701
1028 1029
453 452
48 49
1300 1301
218 217
5 4
654 655
1091 1090
841 842
754 755
466 467
955 956
896 895
650 649
89 90
1028 1027
1190 1189
58 57
621 622
230 231
668 667
954 953
1119 1118
62 61
451 450
530 531
922 921
931 930
627 628
736 735
491 490
615 616
196 195
949 948
1040 1041
946 945
320 321
1059 1058
857 858
100 99
1289 1288
440 441
1137 1136
92 91
881 882
166 165
237 238
108 109
416 417
1298 1299
929 930
956 957
1015 1014
579 578
782 781
296 297
1281 1282
1352 1351
1202 1203
1186 1185
36 35
285 286
806 805
619 620
1048 1047
516 517
551 552
139 138
169 168
996 995
20 21
290 291
390 389
149 148
171 170
666 667
863 864
426 427
760 759
24 25
32 31
622 623
1175 1174
744 743
15 16
299 298
1292 1293
749 750
850 849
542 541
209 208
588 587
535 534
677 678
1064 1065
531 532
230 229
114 115
656 657
182 181
1096 1095
1010 1011
916 915
809 810
145 144
1099 1098
1067 1068
1061 1060
7 1
446 447
1080 1079
77 76
46 45
400 401
554 555
1108 1107
1230 1231
503 502
62 63
32 33
783 782
37 36
237 236
193 192
121 120
1364 1365
1195 1194
893 894
94 93
156 155
302 301
1000 1001
479 478
472 473
419 420
415 414
1249 1248
875 876
743 742
1220 1219
798 797
947 948
1027 1026
771 772
476 475
890 891
1181 1180
34 33
836 837
1070 1071
962 961
901 902
560 561
1048 1049
19 18
815 816
213 212
872 873
1167 1166
675 674
1281 1280
1104 1105
81 82
329 328
739 740
4 3
684 683
527 528
1216 1215
932 933
1335 1334
1006 1005
458 457
623 624
1114 1113
1247 1248
329 330
538 537
1284 1285
1037 1036
574 573
606 605
868 869
274 273
609 608
558 557
1278 1279
1221 1220
1332 1331
1147 1148
1347 1348
644 645
350 351
1045 1044
1302 1303
308 309
906 907
71 72
1097 1098
1254 1255
20 19
635 634
316 317
34 35
972 971
850 851
1172 1171
1351 1350
1363 1362
1242 1243
586 585
300 301
707 708
718 719
338 339
408 407
65 64
913 914
1029 1030
1291 1292
1164 1163
151 152
71 70
128 127
1002 1003
905 904
1339 1340
13 14
498 499
343 342
582 583
371 370
1117 1118
1310 1309
1044 1043
133 132
299 300
1356 1357
98 99
689 688
1249 1250
590 591
501 502
1095 1094
8 7
549 550
739 738
915 914
829 828
514 513
49 50
732 733
898 897
614 613
730 731
1099 1100
1278 1277
929 928
839 840
673 674
471 470
1250 1251
799 798
59 60
847 848
646 645
1034 1033
116 115
663 662
415 416
1030 1031
460 461
382 383
447 448
1245 1246
596 597
1177 232 869
1 18
1 202
1 979
763 1
649 1
738 1
1 619
1 1090
612 1
360 1
1 447
1 984
1 635
1 638
482 1
63 1
790 1
71 1
1 382
79 1
1 436
348 1
151 1
1008 1
255 1
1 1140
1 796
1 497
1 648
486 1
1 268
36 1
94 1
1 322
504 1
1 1107
1 778
1 1174
281 1
159 1
1 867
1 1172
1 557
1 283
1 325
4 3
83 1
1 609
879 1
130 1
1 616
688 1
1 869
1 521
1 767
1 109
112 1
1 1007
1095 1
1 809
1 537
280 1
1 45
1 689
777 1
229 1
1 267
21 1
1 1040
82 1
1124 1
1 942
1 75
258 1
43 1
1 1142
786 1
1 1086
1 1141
434 1
1 1026
42 1
28 1
1 810
327 1
1 445
1078 1
1 102
520 1
252 1
1066 1
1 375
1 10
1 761
1 538
1 349
554 1
105 1
1 146
457 1
1 1109
534 1
1 361
729 1
483 1
1 870
1 700
55 1
179 1
627 1
470 1
1 924
1139 1
1 463
1 437
1138 1
532 1
1 439
67 1
818 1
1091 1
194 1
645 1
1 854
1 571
331 1
1 987
1 95
313 1
599 1
1 1098
1 594
490 1
455 1
834 1
351 1
282 1
1 1176
975 1
608 1
1 1012
1 958
295 1
1 544
1161 1
1 187
1112 1
947 1
1 90
462 1
380 1
1 1096
1 412
1 779
357 1
1 956
1 550
141 1
1 188
1030 1
1 284
762 1
492 1
1168 1
211 1
1 646
65 1
1 271
1 514
625 1
741 1
1097 1
666 1
1 358
1 515
1 8
467 1
750 1
1114 1
694 1
298 1
1037 1
1100 1
495 1
1 701
687 1
752 1
529 1
832 1
1 872
1 303
169 1
803 1
602 1
1 56
1 356
1 261
1 296
113 1
1 1038
213 1
1 397
1 1055
1 1016
270 1
1 344
1 562
1 548
402 1
1 657
478 1
1 481
1 999
236 1
1079 1
873 1
1 1151
1 308
115 1
1 967
1 710
1023 1
1 140
902 1
1 479
1 433
531 1
231 1
1 1058
981 1
59 1
720 1
647 1
1126 1
1 842
1 908
166 1
618 1
560 1
330 1
536 1
1 176
1 683
456 1
791 1
345 1
1 781
1 237
1 851
1 1035
524 1
1 592
1 120
370 1
278 1
1164 1
1 251
576 1
878 1
844 1
1 171
1 840
1 362
724 1
61 1
1 309
450 1
1 824
1031 1
1 755
758 1
443 1
22 1
747 1
1 1145
410 1
317 1
1 1073
792 1
1131 1
1120 1
1 69
1 787
441 1
1 1044
414 1
749 1
1 156
1 1159
876 1
1 819
1 305
1 363
1 607
1 663
1 189
1 793
1 1170
1 678
181 1
1 385
99 1
1 823
1 959
20 1
491 1
1 730
995 1
1 421
1175 1
820 1
1 589
677 1
1 24
76 1
1 559
578 1
1059 1
1 563
808 1
1 711
27 1
1 335
1 66
1 1062
1 275
101 1
665 1
1119 1
1 33
138 1
774 1
1 1113
661 1
411 1
742 1
898 1
376 1
1 1077
1024 1
1 1143
1 936
833 1
500 1
1 1027
1 783
23 1
1147 1
153 1
1 547
1 693
44 1
389 1
1152 1
1 1083
274 1
1 829
1 1123
1 58
269 1
727 1
916 1
1 294
1 466
413 1
1 230
1 1017
1 667
1 883
640 1
346 1
1 866
770 1
655 1
1 173
1 1160
98 1
1 315
1 1169
662 1
388 1
460 1
1 600
1 418
1 409
1167 1
60 1
41 1
484 1
1 855
890 1
1 111
1020 1
1 496
1 668
257 1
1 746
243 1
709 1
1 49
526 1
1162 1
935 1
835 1
865 1
1 549
1153 1
1 1061
996 1
1155 1
1 259
699 1
210 1
523 1
884 1
127 1
238 1
154 1
1 937
914 1
1 465
1 586
1 142
119 1
574 1
961 1
1 704
570 1
353 1
1 603
868 1
624 1
1 658
161 1
1 732
1 302
1 969
1 881
1 841
1 1165
971 1
29 1
128 1
1 214
1074 1
776 1
1 606
1 1006
1 664
1 14
323 1
1 863
329 1
1 1004
97 1
1 1009
804 1
420 1
1166 1
1110 1
1001 1
1 843
1071 1
422 1
1 860
1 721
318 1
198 1
122 1
1 400
1 288
1 949
241 1
1 1014
690 1
1 11
1 561
1 944
1 590
1 569
1 954
910 1
1 277
1 232
1 909
191 1
1 633
1 299
1 203
927 1
1 208
1 381
1 737
458 1
1 1082
1 769
1 386
1 575
1 471
1034 1
1 992
731 1
1 543
40 1
1 904
545 1
838 1
527 1
1 453
1 1019
775 1
1 745
1 656
1150 1
593 1
918 1
1 416
1 134
1146 1
1 407
1 118
1 81
505 1
1018 1
938 1
468 1
369 1
1 712
1 849
1 290
1 162
1 674
1154 1
163 1
1 828
583 1
419 1
901 1
1118 1
340 1
1 530
1 234
464 1
1 626
19 1
857 1
725 1
5 4
1 1067
1 190
223 1
1 501
1 644
1 623
1 206
1 147
1 72
256 1
1 472
978 1
57 1
736 1
1 861
1 25
847 1
1 424
1039 1
276 1
1 104
1 34
951 1
1 1033
212 1
1 1048
1 733
1 9
1 1108
253 1
50 1
1 831
311 1
1 541
1130 1
300 1
1 966
347 1
1 396
228 1
1 182
1089 1
1 925
307 1
636 1
196 1
54 1
1 850
342 1
1 78
507 1
1 1052
1 7
406 1
1 1022
1 1053
1 143
1 566
1 444
1 438
1 125
1 659
1 446
558 1
899 1
1 836
907 1
1 773
912 1
660 1
1 759
585 1
1 811
1 31
1 148
398 1
1 794
511 1
1 670
744 1
1 631
604 1
1 795
53 1
1 404
383 1
366 1
3 2
15 1
1157 1
1 1042
1 324
1 905
698 1
1148 1
1 16
1 508
1 1068
91 1
32 1
1 285
1 377
1041 1
1 695
1 13
1 6
780 1
1 448
310 1
1 1163
980 1
1 172
782 1
1 239
1 1064
1 734
1084 1
1 1056
681 1
1 748
1 629
799 1
1 30
789 1
1 939
399 1
756 1
1 931
359 1
1 38
509 1
155 1
219 1
643 1
461 1
615 1
1 431
1 1094
1045 1
800 1
825 1
1 577
933 1
1 1050
217 1
917 1
152 1
1 817
568 1
888 1
1 632
977 1
920 1
1047 1
1093 1
587 1
998 1
1 328
1 48
365 1
1060 1
1 715
426 1
204 1
1 654
1 200
1 1137
703 1
716 1
1 368
1 930
1 955
1065 1
1 1099
1 706
158 1
1 493
1 567
1 985
1 525
131 1
1 597
963 1
533 1
957 1
266 1
1 1028
1 249
1 487
1 87
1 921
1 336
1 319
1 718
719 1
1 837
218 1
1 988
1 582
1 339
428 1
1 394
1 62
337 1
70 1
1 51
684 1
1117 1
1 675
1 5
1043 1
1 93
17 1
1 1156
180 1
986 1
1 889
1 551
1 474
1 735
1 1003
751 1
1 291
1 1021
1 827
354 1
1 1072
1000 1
1 175
170 1
1 814
186 1
685 1
1002 1
1 35
1 1135
84 1
1 1010
1 535
314 1
512 1
1 488
1 235
1 913
816 1
1076 1
1103 1
1 92
1 1106
1 617
246 1
1 882
425 1
650 1
1 1069
1 379
964 1
1 167
1 367
177 1
588 1
1 1171
1 1046
226 1
263 1
929 1
1 900
546 1
107 1
454 1
262 1
1 1063
221 1
1 279
1 320
292 1
233 1
1 391
184 1
1 205
192 1
1 374
254 1
830 1
1 429
1 862
1 260
1 518
110 1
1 928
1 321
1 757
1015 1
1 209
1 1057
1 160
333 1
1 839
1128 1
611 1
248 1
1049 1
1 696
1 880
785 1
1 80
1 201
46 1
788 1
965 1
528 1
1 85
341 1
522 1
784 1
1 73
1 596
1 821
772 1
301 1
807 1
129 1
393 1
68 1
272 1
1 1136
1 372
743 1
485 1
1 1125
108 1
974 1
1 250
1 513
1 858
1 932
705 1
287 1
1104 1
123 1
673 1
1 132
1 480
1 139
1 580
970 1
581 1
1 613
135 1
1 1025
1 639
1 316
891 1
1 1054
1 919
556 1
242 1
601 1
475 1
1 642
1005 1
1 552
503 1
1 853
591 1
427 1
1 802
387 1
1 653
1 953
798 1
845 1
1 403
100 1
1101 1
1 573
993 1
1 519
962 1
1 89
702 1
943 1
1 874
1 408
1 477
1 885
1 871
1 494
1 1088
692 1
1 289
1 430
553 1
1 572
1 1032
174 1
1 459
96 1
896 1
1 469
1 12
1 579
1 417
1122 1
997 1
1 415
207 1
1 926
506 1
1 489
1 1158
1116 1
754 1
121 1
1 1105
106 1
502 1
1080 1
1 195
1132 1
714 1
1 848
373 1
1 686
1 852
183 1
1085 1
1 442
1 822
1 165
923 1
753 1
691 1
378 1
948 1
1 137
555 1
355 1
680 1
1 306
1 983
499 1
1 723
1 88
934 1
989 1
641 1
423 1
1 915
806 1
2 1
510 1
1149 1
1 1075
401 1
1081 1
124 1
1 114
1 877
1 976
1 895
451 1
168 1
392 1
1 136
1 722
1013 1
630 1
1 682
595 1
304 1
826 1
1 47
1 144
1 116
1 815
1 293
564 1
634 1
1 565
1 26
1 540
1 859
1 621
1 610
1 297
726 1
440 1
225 1
222 1
1 740
1 1115
1 952
390 1
945 1
1 652
452 1
539 1
713 1
157 1
364 1
813 1
1087 1
227 1
1 598
672 1
334 1
240 1
941 1
1 220
1 765
1 679
622 1
1 244
1 405
1 676
245 1
1 911
1 265
1 117
637 1
1 797
395 1
886 1
199 1
628 1
216 1
498 1
671 1
149 1
875 1
1 856
1 906
801 1
1 312
74 1
922 1
1 1127
1 760
1 37
103 1
1 150
178 1
1 542
894 1
1144 1
1 193
1 435
1 352
1 707
332 1
1 1051
1 1102
805 1
1 991
764 1
1 973
1 846
1 946
605 1
1 449
1 86
1 350
708 1
476 1
1036 1
1 1029
384 1
1 286
1 584
1 517
77 1
1092 1
1 145
1 887
864 1
52 1
1 185
1 247
64 1
1 651
1 133
768 1
739 1
990 1
1173 1
1 215
950 1
1 343
1 264
897 1
771 1
1 371
903 1
1129 1
1 940
1 338
1 982
893 1
1 994
1 1070
968 1
697 1
1 224
1011 1
972 1
1 669
1 812
1 273
1 1177
717 1
1 197
1121 1
1 126
1 620
516 1
1 960
432 1
1111 1
1 164
1 728
473 1
1 1134
1 614
892 1
1133 1
39 1
1 326
1 766
1209 327 52
410 501
36 88
381 716
74 92
628 897
163 919
173 764
245 1078
36 524
165 600
695 455
358 708
490 63
480 521
338 272
1186 308
708 905
285 113
678 253
29 86
227 794
273 168
823 66
228 999
1109 747
595 717
660 125
351 339
167 264
753 257
221 39
696 17
563 896
1019 7
747 273
81 230
234 17
337 206
869 890
204 850
970 451
20 642
208 773
985 322
144 858
57 25
412 782
155 79
372 88
954 71
65 90
121 901
723 1082
493 438
592 647
599 1003
17 31
27 216
2 3
209 300
748 982
277 734
443 533
72 10
706 279
85 471
515 677
570 788
112 215
170 25
240 125
137 711
161 667
940 752
11 20
253 888
317 291
1203 453
813 989
87 61
552 326
329 157
824 865
1046 361
132 587
22 425
83 209
20 44
401 359
390 102
38 50
419 261
21 82
724 500
743 288
497 1036
406 883
924 13
774 1196
1033 155
312 288
1017 700
214 876
438 480
959 671
38 142
1146 45
649 569
462 317
119 69
256 269
35 391
239 979
470 428
464 1182
117 134
415 294
27 38
762 293
22 670
38 368
593 957
332 442
889 557
94 143
511 104
235 106
205 836
369 172
914 1199
798 590
810 234
80 570
440 355
17 18
65 313
460 520
495 464
894 602
1010 930
245 727
459 111
595 525
146 99
564 1067
405 184
253 672
175 336
1093 913
1209 1004
367 952
1056 944
777 827
225 89
961 1026
874 602
697 631
324 447
202 233
1075 696
978 816
1084 10
114 842
584 655
245 277
1129 560
46 407
1024 1086
140 662
82 124
19 37
183 319
105 52
1096 631
1011 1028
849 20
518 976
1038 1165
298 269
293 444
1021 675
882 559
1066 80
675 537
496 510
25 1201
681 950
250 247
821 234
276 341
42 67
1031 729
54 257
364 1104
202 159
1185 58
46 328
944 742
47 17
154 199
488 791
437 386
33 21
333 99
476 61
137 1184
51 11
51 55
681 53
21 879
606 395
197 52
177 9
688 363
499 494
314 586
1098 1079
48 78
266 280
568 1120
180 937
229 36
406 990
525 900
947 269
696 826
152 755
938 579
843 857
236 610
1101 949
566 1091
10 3
548 323
261 658
77 326
769 47
1042 1040
277 1197
455 934
499 875
730 1087
629 623
1029 710
610 751
487 202
117 4
12 14
981 955
263 140
853 1124
461 447
838 349
307 473
52 789
101 102
359 424
346 927
296 653
522 470
243 529
128 267
1150 1168
628 405
451 1001
192 117
871 545
43 590
23 187
180 441
792 665
20 527
300 756
21 46
287 145
223 98
109 536
335 358
475 359
1039 1033
65 283
912 406
361 676
892 126
5 362
276 170
408 193
185 1044
40 114
820 188
721 120
25 1027
1 65
560 161
226 427
757 324
85 8
15 1
571 91
367 997
11 99
119 385
204 30
877 615
67 426
429 66
289 274
12 23
767 216
682 622
164 418
220 143
361 438
1015 880
822 818
27 43
800 4
387 367
1128 194
498 262
9 4
1188 323
427 1164
396 102
885 980
417 324
1088 934
1142 146
348 404
394 971
93 861
845 73
393 645
281 3
121 167
967 1205
750 33
683 439
231 248
307 124
298 780
835 1074
83 46
65 519
187 255
436 489
1141 496
881 351
1003 1062
126 380
79 1147
169 181
744 136
598 796
714 752
577 309
443 64
916 722
298 371
160 948
304 1151
876 964
1140 1026
104 112
29 232
15 422
677 936
563 664
155 599
486 476
355 40
1138 266
31 357
247 114
152 149
1206 391
766 49
474 1011
1137 413
535 251
1035 973
1177 81
10 352
596 886
580 575
52 48
1149 660
65 260
962 255
211 140
724 1161
61 42
243 170
129 87
12 148
403 185
175 929
710 155
569 898
211 270
14 98
158 508
113 350
340 186
258 116
101 1041
818 760
556 445
22 8
433 13
413 460
420 534
519 740
373 466
483 917
157 74
930 845
968 459
178 434
995 391
42 53
605 369
802 479
949 853
397 745
297 63
785 295
321 488
910 184
987 142
1052 310
804 732
482 951
8 48
316 634
2 13
635 870
705 868
132 33
339 102
384 199
850 869
639 499
257 908
502 153
609 374
49 33
316 1068
650 191
1038 868
864 153
134 928
406 41
1040 220
343 1111
164 217
9 59
324 335
624 1173
974 482
509 347
840 204
583 41
75 238
399 689
807 484
958 236
1135 945
174 169
219 55
42 32
70 343
761 224
986 64
221 553
364 76
531 758
239 117
7 116
539 765
326 671
428 263
979 1171
576 221
777 227
375 558
1114 309
44 125
704 15
125 222
208 503
38 68
552 1107
644 1018
516 466
690 1115
11 10
472 329
8 3
848 1159
1166 663
776 115
6 7
206 157
1095 28
103 1132
635 627
1060 80
926 561
830 984
786 292
448 737
619 423
435 269
386 604
94 309
573 972
176 394
457 517
30 115
107 101
734 833
213 38
247 859
382 29
102 210
1013 144
180 398
308 90
828 411
468 738
110 1070
44 71
593 956
722 942
4 195
69 58
396 450
172 663
351 616
400 215
714 793
815 383
188 111
736 584
1009 256
367 465
1 282
1204 10
171 774
204 274
1055 267
183 138
228 608
514 680
14 104
120 11
4 6
514 500
324 464
1049 241
694 66
85 1150
679 1126
75 16
704 714
96 56
304 1071
416 341
97 69
76 286
621 265
8 1180
96 386
749 702
725 779
290 360
361 258
157 537
97 530
5 2
863 775
668 646
693 574
141 1145
301 106
79 42
35 18
285 674
179 9
732 97
149 381
441 992
998 365
379 918
180 315
315 899
140 111
198 412
47 64
700 533
694 1090
34 11
5 26
483 656
967 529
363 79
128 246
19 551
487 585
455 415
31 1154
268 3
161 74
318 1167
308 607
232 389
562 107
299 20
160 25
122 935
28 41
228 872
860 822
26 63
73 1069
214 353
1170 904
29 256
36 504
79 130
283 347
469 145
1 7
1191 105
852 613
660 679
652 428
172 30
124 853
994 820
584 519
78 127
56 26
279 26
20 76
136 953
643 188
376 30
111 30
9 150
317 367
464 759
411 39
482 258
32 194
919 1195
722 221
290 122
566 623
1162 917
410 157
874 946
594 521
163 100
554 23
5 565
82 542
287 641
36 100
772 235
855 613
24 323
74 291
241 436
104 1181
1127 922
644 135
649 1016
178 196
208 185
118 102
215 718
666 33
217 266
36 14
582 333
496 296
93 673
615 669
73 61
335 829
524 713
483 1136
138 304
181 198
448 257
452 90
640 295
32 5
712 557
198 541
909 39
327 19
522 887
813 345
109 1054
523 135
211 771
873 483
686 273
95 110
201 190
56 1123
42 613
224 179
775 397
34 70
922 565
12 525
824 78
349 463
1094 550
748 233
1058 1033
426 563
577 814
698 154
108 24
168 92
366 648
904 1112
718 1081
649 741
479 1190
649 1004
939 301
270 891
991 706
342 31
85 332
124 526
461 579
988 1099
205 4
84 25
525 612
395 21
400 707
94 40
151 48
478 597
145 432
627 243
1092 760
28 122
1174 725
330 299
893 522
370 269
709 575
955 196
880 32
558 1183
133 20
144 109
135 841
362 559
137 11
185 42
144 453
742 778
84 106
24 22
430 409
379 925
1208 545
366 1194
314 397
692 361
656 1032
182 75
450 1102
6 835
2 19
1187 440
25 1080
601 98
699 269
83 334
805 278
824 1079
39 169
62 4
421 720
507 545
483 343
323 1134
163 278
430 832
265 131
661 617
222 723
180 159
226 220
650 1152
159 100
729 61
943 345
1045 599
819 540
993 589
99 126
372 557
507 84
983 693
742 525
702 17
735 533
209 1179
91 69
97 164
625 368
299 365
69 816
763 214
35 589
646 354
637 1192
808 175
37 375
245 1193
1053 275
24 109
1050 73
653 903
227 272
140 310
63 145
305 622
480 500
282 567
1200 165
414 411
326 555
64 138
1076 573
811 552
895 226
63 103
172 186
378 272
108 214
80 28
46 271
513 381
591 290
728 497
97 685
447 733
147 171
321 28
544 21
140 1072
965 728
914 42
788 839
53 77
1198 19
16 5
120 348
579 963
401 479
867 255
34 574
206 803
941 615
267 349
911 705
528 575
59 249
945 335
74 275
878 384
440 1105
99 324
421 162
237 485
120 374
249 770
450 931
921 822
239 388
701 424
989 1048
1148 598
456 1073
81 431
297 636
41 592
13 81
825 571
465 834
701 933
173 67
1065 143
505 113
426 1108
730 2
811 1163
174 578
51 705
851 1063
302 598
759 1117
510 611
63 1064
445 226
768 1189
489 1059
449 932
847 395
1089 930
85 135
573 67
138 454
1119 1029
1024 791
84 966
531 1077
165 288
532 416
703 20
477 23
265 969
449 106
784 659
4 657
296 193
906 809
123 61
452 1002
558 691
21 259
1103 124
712 973
837 210
491 166
797 497
212 16
101 38
230 439
244 225
251 512
1068 1207
238 373
201 316
15 603
1065 1116
552 783
113 254
795 454
253 9
532 731
715 66
228 377
423 806
8 21
899 902
814 1139
278 456
252 659
71 284
149 66
718 799
449 760
665 273
13 237
144 147
484 347
3 17
478 308
672 1005
844 386
884 98
540 172
326 684
593 25
543 119
1012 976
220 366
156 1000
306 1122
618 483
474 379
528 32
949 1022
437 1057
1126 1160
217 294
4 5
303 5
628 1008
719 624
801 304
907 717
137 190
236 143
746 671
392 326
128 28
830 777
603 1043
10 141
265 481
923 47
314 115
260 550
237 322
1100 766
337 637
152 166
547 44
7 45
30 3
1118 933
27 16
295 27
203 413
150 176
241 1158
85 189
266 862
343 572
3 29
846 505
1144 856
596 353
606 687
218 128
227 913
1172 581
1125 327
93 41
515 305
994 1110
977 855
14 40
262 158
129 156
904 130
402 339
617 348
514 866
58 790
228 492
450 564
402 467
227 359
189 632
590 602
113 292
345 843
1037 225
398 633
739 33
106 569
539 197
768 754
255 1155
506 1006
481 1106
178 203
457 158
325 354
36 95
54 33
26 311
960 107
468 221
624 615
16 325
345 140
15 690
67 305
208 252
809 556
1113 1069
451 89
346 568
975 636
18 58
383 47
401 458
654 419
209 318
154 42
5 28
121 38
401 546
452 812
848 450
60 74
45 293
93 620
1169 29
356 264
165 103
754 560
581 1143
302 138
193 190
626 1202
1028 1083
111 420
293 549
1051 719
307 331
725 363
1130 720
383 988
47 506
25 24
531 30
175 37
477 1023
970 1156
1 3
25 781
124 497
227 197
596 1030
97 630
372 446
1020 470
933 1121
686 1133
80 346
615 446
171 245
789 1097
897 1061
140 242
352 854
320 20
610 1157
12 4
89 20
158 33
103 251
1034 723
139 55
148 961
651 424
162 130
920 602
817 321
139 538
94 423
311 399
91 996
344 112
207 92
410 851
50 136
6 379
1007 162
24 231
409 199
411 581
199 885
103 626
708 1153
149 638
39 17
112 178
25 831
494 419
856 234
191 24
470 614
135 153
452 915
62 631
726 423
5 66
163 393
21 113
576 1085
1025 688
131 121
1096 1131
1175 865
306 8
113 184
588 272
603 787
870 1176
917 1047
261 242
74 241
316 1014
561 263
167 200
566 338
518 250
940 1178
60 21
228 78
1211 100 518
834 833
709 710
228 227
306 305
1067 1068
920 919
607 606
649 648
1185 1184
551 552
960 959
485 486
436 437
447 448
790 791
1105 1104
6 5
997 998
613 612
178 177
138 139
732 733
674 675
260 259
326 327
230 231
680 679
1202 1201
768 769
347 346
238 239
795 796
95 94
68 69
336 337
846 847
539 540
450 451
292 293
49 50
1132 1133
726 725
1043 1042
489 490
103 104
718 717
208 209
86 85
272 273
792 793
569 568
991 990
43 44
275 276
800 801
690 691
527 526
474 473
344 343
974 973
429 430
472 471
268 269
316 315
472 473
104 105
888 889
928 929
810 809
1168 1169
672 671
1012 1011
415 414
281 282
476 477
77 76
1038 1039
864 865
1135 1134
1121 1120
270 269
717 716
1013 1014
328 327
143 144
513 514
310 309
519 520
333 334
881 882
36 35
994 993
1114 1115
978 979
241 242
880 879
931 930
46 47
176 175
1196 1195
468 469
903 902
1113 1114
430 431
191 192
389 390
499 498
685 684
915 916
899 898
600 599
1007 1008
421 422
1131 1132
447 446
301 302
477 478
659 658
1026 1027
535 536
1021 1020
288 287
1131 1130
700 701
461 462
1189 1188
443 442
908 907
4 5
1199 1198
1029 1030
211 212
1102 1103
1167 1166
506 507
13 12
1175 1176
842 843
733 734
194 193
79 78
960 961
88 89
910 909
89 90
815 814
770 769
19 20
562 561
935 936
367 368
250 251
803 804
1210 1211
578 577
561 560
687 686
98 97
236 235
1157 1158
406 407
816 815
1050 1051
186 185
682 683
358 357
839 838
689 690
512 513
634 635
1035 1036
1151 1150
848 849
1198 1197
1022 1021
558 557
282 283
14 13
663 664
1185 1186
1053 1054
855 856
687 688
442 441
1163 1164
836 835
673 674
962 961
40 41
735 734
27 28
176 177
260 261
523 524
489 488
918 917
14 15
824 825
987 986
979 980
32 31
3 2
553 554
1069 1070
555 554
134 135
386 387
965 964
971 970
428 429
267 266
458 459
901 902
1139 1140
24 25
897 896
93 92
1076 1075
471 470
778 779
1086 1087
30 29
1045 1044
372 373
998 999
1179 1178
516 517
501 502
696 695
423 422
761 762
10 11
691 692
125 124
475 476
207 208
556 557
1167 1168
480 481
528 529
444 443
18 17
525 524
425 426
80 81
364 363
810 811
693 694
149 150
967 966
202 201
1025 1024
633 634
628 627
1204 1205
1159 1160
625 624
493 494
1176 1177
1026 1025
594 595
503 502
748 747
37 38
296 297
1013 1012
774 773
878 879
405 406
903 904
585 586
934 935
216 215
837 838
296 295
96 97
1100 1099
1094 1093
883 884
814 813
1062 1063
219 218
1124 1125
356 355
1127 1126
140 139
923 922
700 699
452 451
1074 1073
321 322
182 183
368 369
1182 1183
496 497
870 871
228 229
199 200
588 587
980 981
616 617
1055 1054
867 868
413 412
456 457
610 609
246 247
64 65
503 504
803 802
719 720
47 48
1065 1066
1060 1059
478 479
914 915
787 786
1067 1066
1136 1135
376 377
440 439
635 636
1008 1009
1190 1191
646 647
268 267
23 22
202 203
872 873
921 920
1116 1115
73 72
181 180
568 567
519 518
1065 1064
825 826
588 589
781 780
797 796
1095 1094
759 758
606 605
1129 1128
1202 1203
107 106
1057 1056
657 658
304 305
581 580
494 495
491 490
795 794
946 945
167 168
714 713
482 483
1156 1155
210 209
265 266
833 832
345 346
239 240
515 516
341 342
534 535
1073 1072
75 74
100 101
683 684
30 31
445 444
1030 1031
314 313
886 887
367 366
858 857
231 232
178 179
376 375
1046 1047
258 257
459 460
148 147
759 760
679 678
565 564
114 113
1136 1137
217 218
840 839
892 891
1171 1172
973 972
619 618
1104 1103
704 703
984 983
455 454
504 505
583 582
1107 1106
1015 1014
1016 1015
883 882
46 45
1091 1090
863 862
326 325
811 812
284 285
288 289
184 183
755 754
573 572
532 531
287 286
591 592
15 16
156 157
1084 1083
714 715
924 925
62 63
784 783
861 860
316 317
544 543
866 865
630 629
174 175
627 626
487 488
584 585
498 497
354 355
172 171
942 943
219 220
948 947
482 481
256 257
195 194
203 204
900 899
200 201
339 338
115 116
1188 1187
670 671
775 774
722 721
1032 1033
1184 1183
847 848
855 854
1076 1077
1154 1153
506 505
637 636
272 271
689 688
712 711
165 164
96 95
225 226
842 841
427 428
329 330
1143 1144
818 817
449 448
157 158
1181 1180
248 247
131 130
643 642
56 55
958 959
668 669
789 790
255 254
435 436
712 713
591 590
858 859
56 57
59 60
730 729
276 277
949 948
647 648
1203 1204
737 736
464 463
1108 1109
518 517
799 800
1 2
52 51
1170 1169
1207 1208
1122 1121
798 799
150 151
653 652
1157 1156
299 298
70 69
137 138
765 766
121 122
650 651
912 911
1190 1189
675 676
1006 1007
982 981
491 492
727 726
716 715
373 374
224 223
685 686
1128 1127
394 393
620 621
1146 1147
644 643
71 70
807 808
65 66
711 710
370 371
1023 1024
39 40
396 397
586 587
956 955
752 753
370 369
909 908
750 751
227 226
125 126
866 867
1146 1145
625 626
248 249
154 155
789 788
572 571
1099 1098
399 400
584 583
362 363
1154 1155
335 334
487 486
1097 1098
562 563
1063 1064
605 604
926 925
79 80
607 608
1043 1044
278 279
905 904
589 590
896 895
3 4
1117 1116
45 44
1109 1110
707 706
170 171
1096 1097
992 991
1085 1086
311 312
350 349
352 351
300 299
672 673
565 566
889 890
112 113
187 188
1080 1081
1092 1093
601 600
290 291
371 372
921 922
359 360
845 844
985 986
426 427
53 54
1187 1186
86 87
18 19
816 817
1149 1150
212 213
965 966
415 416
1192 1191
1033 1034
61 62
1161 1162
748 749
1028 1029
546 547
1173 1172
308 307
401 400
913 914
550 551
1171 1170
719 718
954 953
1058 1059
294 293
48 49
351 350
237 236
67 66
169 170
437 438
12 11
1036 1037
1108 1107
342 343
543 542
77 78
854 853
465 466
932 931
85 84
703 702
313 312
168 169
788 787
241 240
1095 1096
1160 1161
28 29
597 596
977 976
1199 1200
356 357
820 821
742 743
801 802
1200 1201
111 112
1005 1006
829 830
1001 1002
917 916
216 217
1075 1074
1031 1032
234 235
923 924
1158 1159
806 807
317 318
399 398
395 394
391 390
464 465
278 277
975 976
900 901
270 271
1182 1181
1118 1117
391 392
950 951
360 361
320 319
26 25
566 567
974 975
784 785
777 776
73 74
918 919
645 644
1100 1101
152 153
954 955
160 161
823 822
84 83
286 285
1004 1003
290 289
83 82
340 341
410 411
229 230
791 792
843 844
559 560
533 534
386 385
1084 1085
137 136
119 120
646 645
876 875
348 349
926 927
134 133
462 463
225 224
868 869
468 467
402 401
548 547
538 539
264 263
951 952
243 242
191 190
275 274
53 52
911 910
68 67
22 21
1174 1175
117 118
116 117
387 388
304 303
723 724
678 677
1041 1042
933 932
1165 1164
857 856
109 108
745 746
820 819
881 880
179 180
1111 1110
396 395
944 945
891 890
542 541
670 669
1193 1194
166 167
632 633
934 933
164 163
574 573
402 403
100 99
576 575
315 314
665 666
707 708
598 599
608 609
637 638
329 328
617 618
651 652
756 755
37 36
416 417
41 42
656 655
640 641
874 875
457 458
893 894
1177 1178
828 827
631 630
863 864
1016 1017
898 897
298 297
182 181
793 794
133 132
819 818
1078 1079
245 244
323 322
549 550
393 392
593 594
597 598
729 728
1017 1018
461 460
330 331
365 364
145 146
418 417
223 222
906 907
222 221
424 423
781 782
152 151
452 453
432 433
993 992
446 445
579 580
433 1211
456 455
840 841
1123 1124
612 611
353 352
1195 1194
779 780
735 736
984 985
325 324
1210 1209
540 541
383 382
72 71
382 381
1138 1139
834 835
306 307
197 198
249 250
559 558
1051 1052
121 120
963 962
21 20
1174 1173
1023 1022
680 681
731 730
822 821
453 454
440 441
548 549
610 611
366 365
776 775
301 300
190 189
294 295
808 809
50 51
761 760
23 24
989 990
888 887
723 722
274 273
640 639
603 604
103 102
106 105
379 380
757 758
545 546
319 318
501 500
193 192
724 725
345 344
632 631
7 8
522 521
159 158
1061 1062
1142 1141
613 614
830 831
185 184
1027 1028
148 149
421 420
742 741
603 602
196 195
420 419
538 537
484 485
413 414
1069 1068
76 75
946 947
469 470
496 495
768 767
666 667
812 813
894 895
132 131
161 162
1019 1018
704 705
90 91
628 629
16 17
1055 1056
1162 1163
870 869
335 336
967 968
852 853
614 615
938 937
563 564
214 213
515 514
284 283
449 450
1119 1120
1082 1083
893 892
885 886
1009 1010
765 764
110 111
927 928
253 254
205 206
1118 1119
1060 1061
738 739
263 262
424 425
616 615
126 127
638 639
1209 1208
709 708
310 311
578 579
1130 1129
837 836
952 953
1002 1003
215 214
98 99
596 595
81 82
1193 1192
995 994
8 9
1071 1072
1112 1111
381 380
698 699
522 523
1207 1206
492 493
939 940
987 988
845 846
484 483
221 220
827 826
408 407
340 339
1000 1001
291 292
1179 1180
783 782
1138 1137
324 323
397 398
696 697
1070 1071
142 143
58 59
93 94
38 39
174 173
123 124
602 601
682 681
1092 1091
619 620
34 35
823 824
552 553
751 752
144 145
403 404
570 569
353 354
130 129
641 642
654 655
1041 1040
32 33
785 786
770 771
963 964
705 706
525 526
122 123
527 528
665 664
196 197
877 878
63 64
999 1000
740 741
859 860
233 234
832 831
871 872
1125 1126
409 408
989 988
163 162
109 110
54 55
510 509
60 61
1206 1205
1143 1142
419 418
750 749
677 676
746 747
246 245
766 767
654 653
763 764
1087 1088
333 332
537 536
361 362
1004 1005
91 92
592 593
702 701
412 411
338 337
480 479
1077 1078
508 509
732 731
1090 1089
778 777
128 127
692 693
1034 1035
533 532
744 745
943 944
623 624
849 850
1197 1196
189 188
258 259
1151 1152
434 433
650 649
1101 1102
876 877
434 435
773 772
302 303
253 252
772 771
388 389
957 956
949 950
970 969
804 805
475 474
531 530
1053 1052
135 136
1048 1049
142 141
1046 1045
1123 1122
379 378
107 108
942 941
332 331
1113 1112
996 997
238 237
1088 1089
1144 1145
141 140
119 118
280 281
744 743
438 439
1048 1047
738 737
829 828
187 186
983 982
663 662
409 410
205 204
698 697
969 968
147 146
27 26
1020 1019
727 728
88 87
1134 1133
996 995
10 9
262 261
211 210
42 43
668 667
255 256
198 199
348 347
756 757
1166 1165
520 521
806 805
101 102
1057 1058
511 510
57 58
958 957
499 500
1050 1049
404 405
1140 1141
660 661
7 6
1011 1010
862 861
937 936
851 850
320 321
128 129
695 694
941 940
154 153
661 662
1038 1037
739 740
243 244
359 358
173 172
874 873
508 507
165 166
906 905
156 155
529 530
1153 1152
851 852
570 571
939 938
556 555
1082 1081
467 466
622 623
762 763
374 375
1149 1148
207 206
511 512
656 657
385 384
265 264
377 378
930 929
114 115
885 884
1106 1105
574 575
432 431
160 159
912 913
577 576
659 660
1079 1080
33 34
384 383
977 978
753 754
798 797
581 582
1147 1148
621 622
1039 1040
720 721
971 972
232 233
544 545
279 280
252 251
309 308
704 206 429
1 250
1 50
1 244
1 47
1 403
192 1
342 1
215 1
1 380
1 527
570 1
1 457
1 633
136 1
1 220
1 140
1 686
1 198
1 349
1 372
31 1
1 447
1 294
1 504
1 595
351 1
587 1
1 366
668 1
466 1
70 1
593 1
1 38
1 299
1 107
1 637
160 1
1 496
314 1
1 135
1 543
501 1
1 40
1 462
608 1
245 1
1 67
569 1
436 1
1 262
658 1
1 322
1 685
1 87
1 701
1 79
1 204
69 1
1 238
364 1
607 1
1 500
585 1
157 1
1 441
694 1
1 2
1 29
1 692
1 687
378 1
1 78
1 277
1 495
421 1
1 419
1 202
481 1
1 62
695 1
1 700
1 291
461 1
575 1
547 1
1 344
1 516
1 49
57 1
178 1
103 1
1 396
1 352
285 1
1 273
367 1
259 1
688 1
371 1
201 1
1 335
1 489
18 1
161 1
1 427
583 1
618 1
682 1
1 483
1 644
1 509
582 1
128 1
384 1
1 183
614 1
109 1
293 1
1 651
365 1
1 125
1 655
463 1
490 1
133 1
101 1
162 1
218 1
1 332
1 345
1 16
1 478
1 675
1 359
63 1
1 422
261 1
1 368
296 1
179 1
1 325
398 1
498 1
176 1
1 81
548 1
1 51
82 1
1 282
1 620
272 1
303 1
1 394
102 1
619 1
211 1
1 634
1 132
393 1
505 1
1 71
92 1
74 1
1 377
356 1
418 1
8 1
195 1
1 206
1 122
1 73
1 471
1 151
1 127
1 28
1 94
284 1
1 557
1 154
166 1
1 674
1 641
1 138
1 184
1 565
1 225
578 1
216 1
1 369
171 1
1 165
266 1
1 35
1 542
1 672
1 95
1 248
288 1
1 287
1 652
479 1
298 1
1 64
139 1
99 1
45 1
1 180
1 91
155 1
129 1
475 1
659 1
186 1
1 438
1 392
1 319
1 289
1 519
13 1
470 1
558 1
465 1
555 1
1 331
679 1
579 1
1 235
397 1
1 412
1 621
1 278
80 1
1 673
1 203
1 105
539 1
1 267
616 1
1 538
525 1
1 584
521 1
1 310
1 53
1 559
1 34
5 6
256 1
590 1
499 1
681 1
1 146
1 280
1 589
1 536
381 1
1 150
1 77
120 1
158 1
1 426
1 390
626 1
1 283
480 1
156 1
446 1
1 257
1 502
173 1
453 1
1 594
362 1
1 97
316 1
662 1
454 1
1 523
1 270
493 1
113 1
17 1
1 86
1 430
1 556
1 12
1 88
65 1
269 1
1 76
642 1
1 196
646 1
1 182
1 334
507 1
630 1
1 228
1 243
522 1
1 326
702 1
55 1
1 191
1 528
1 32
474 1
19 1
1 131
432 1
340 1
468 1
363 1
1 205
632 1
484 1
301 1
1 411
506 1
224 1
1 263
1 137
1 305
265 1
534 1
601 1
667 1
24 1
1 21
1 649
417 1
605 1
119 1
401 1
568 1
1 647
606 1
588 1
439 1
1 68
1 425
1 379
3 4
482 1
1 533
387 1
5 4
1 676
112 1
627 1
22 1
1 671
153 1
1 72
152 1
631 1
1 232
613 1
1 231
313 1
159 1
172 1
1 108
1 208
1 58
1 85
104 1
1 635
1 106
1 164
537 1
1 444
1 315
1 290
1 485
1 260
1 249
1 545
255 1
383 1
433 1
464 1
1 341
1 629
497 1
428 1
276 1
449 1
395 1
1 399
1 443
573 1
1 663
1 459
690 1
639 1
1 360
1 348
337 1
199 1
677 1
1 517
402 1
1 514
1 11
221 1
361 1
420 1
1 580
1 328
39 1
1 274
1 370
529 1
126 1
1 654
551 1
1 625
510 1
167 1
1 596
247 1
1 338
114 1
1 591
1 336
1 669
1 665
1 586
213 1
234 1
1 241
1 343
1 456
1 115
1 307
1 623
660 1
1 54
544 1
311 1
512 1
295 1
1 36
217 1
1 281
230 1
1 600
210 1
1 144
1 571
43 1
26 1
1 666
696 1
1 174
1 163
375 1
237 1
1 116
549 1
1 227
382 1
602 1
1 321
1 450
1 511
388 1
624 1
1 562
1 429
1 604
1 494
33 1
226 1
354 1
645 1
96 1
1 407
1 246
597 1
143 1
268 1
476 1
185 1
1 409
118 1
1 467
561 1
1 175
1 229
209 1
567 1
1 168
1 214
638 1
451 1
1 518
1 14
292 1
350 1
1 346
7 1
25 1
661 1
1 149
1 253
89 1
2 3
190 1
330 1
1 566
440 1
615 1
1 574
1 437
1 535
1 275
254 1
1 233
1 400
1 44
552 1
550 1
1 98
1 212
452 1
1 306
423 1
1 100
1 448
699 1
1 460
327 1
84 1
1 541
1 141
1 323
90 1
531 1
487 1
1 477
1 697
678 1
643 1
1 200
1 302
389 1
553 1
1 83
684 1
612 1
148 1
611 1
577 1
30 1
9 1
576 1
1 61
1 357
374 1
1 617
1 130
7 6
657 1
1 353
1 526
1 134
1 297
1 60
324 1
1 169
121 1
37 1
236 1
1 170
693 1
1 508
1 680
664 1
56 1
1 242
520 1
10 1
15 1
410 1
271 1
123 1
1 181
1 414
486 1
622 1
689 1
1 386
703 1
431 1
1 258
1 309
442 1
1 455
1 503
1 193
1 492
194 1
1 48
1 592
318 1
1 329
1 488
581 1
1 355
413 1
1 41
1 458
1 653
1 117
1 42
46 1
1 219
1 385
670 1
1 264
1 554
406 1
1 564
1 572
603 1
648 1
124 1
197 1
656 1
286 1
1 222
1 75
1 376
683 1
1 609
560 1
1 424
27 1
445 1
300 1
1 66
23 1
1 145
524 1
177 1
1 408
1 373
1 347
111 1
251 1
1 472
1 240
1 636
1 189
404 1
391 1
1 239
628 1
1 110
1 304
223 1
599 1
540 1
691 1
1 59
1 698
1 252
93 1
434 1
513 1
435 1
317 1
473 1
20 1
1 546
415 1
1 333
530 1
312 1
1 610
1 358
188 1
1 52
1 147
563 1
339 1
1 491
1 532
1 650
1 308
207 1
405 1
1 640
704 1
187 1
1 515
1 469
279 1
1 598
1 142
416 1
320 1
779 374 278
468 469
404 403
211 212
121 122
736 737
421 420
102 103
779 778
427 428
611 610
88 89
650 651
662 661
163 164
476 475
417 418
301 302
777 778
113 114
730 731
104 105
303 304
769 768
767 766
433 434
146 145
694 693
35 34
388 387
596 595
696 697
112 113
329 328
96 97
54 53
281 282
654 653
221 220
362 363
117 118
529 530
533 534
380 379
641 642
90 89
643 644
729 730
59 60
203 202
523 524
168 169
549 550
182 181
277 276
322 323
321 322
483 484
167 168
57 56
629 628
21 20
193 194
9 10
685 684
92 91
604 605
288 289
184 183
61 60
138 139
16 17
58 57
274 275
84 85
250 249
415 416
237 238
317 316
472 473
76 75
382 381
289 290
377 376
354 353
453 454
677 678
668 669
582 583
559 558
500 501
706 705
84 83
477 478
438 439
291 290
259 260
733 732
648 647
123 124
294 293
152 151
250 251
107 108
462 463
479 478
566 567
219 218
324 325
311 310
225 226
645 646
772 771
512 511
767 768
71 72
411 410
633 632
308 309
577 576
652 651
240 241
461 462
343 344
2 3
635 634
253 254
556 555
769 770
600 601
27 26
399 400
347 346
235 236
480 481
755 756
535 536
636 637
385 384
125 124
342 341
101 100
700 699
746 747
392 393
397 398
334 333
272 273
254 255
701 700
489 490
721 720
319 318
252 253
765 766
144 143
470 471
739 740
743 744
50 51
541 542
659 660
87 88
394 395
112 111
43 42
155 156
366 365
691 690
152 153
327 326
70 71
572 573
98 97
527 526
722 721
73 72
400 401
722 723
748 747
508 509
530 531
396 397
711 712
158 157
285 284
228 229
713 714
599 600
638 639
312 313
277 278
39 38
452 453
61 62
129 128
258 257
683 684
637 638
107 106
671 672
561 560
656 655
350 349
138 137
162 161
381 380
739 738
663 662
456 455
445 444
119 118
592 591
248 247
166 165
367 368
384 383
423 424
37 38
266 267
279 280
198 199
343 342
496 495
373 374
271 272
534 535
26 25
329 330
355 356
728 729
606 607
75 74
496 497
119 120
586 587
24 23
386 387
48 49
569 570
348 349
443 444
608 607
702 703
367 366
706 707
227 228
709 708
317 318
149 150
499 500
433 432
76 77
451 450
624 625
449 448
559 560
584 583
604 603
466 465
258 259
305 306
748 749
759 760
316 315
692 691
578 579
635 636
314 313
745 746
232 231
707 708
200 201
698 697
144 145
531 532
170 169
756 757
470 469
247 246
8 9
663 664
669 670
450 449
742 743
440 439
630 631
459 458
457 458
93 94
398 399
464 465
28 27
307 306
613 612
565 564
296 297
764 765
675 674
510 511
673 674
665 664
217 216
670 671
417 416
344 345
683 682
710 711
51 52
64 65
632 631
498 499
358 359
409 408
426 427
211 210
260 261
451 452
751 752
40 39
422 421
710 709
241 242
276 275
199 200
330 331
100 99
688 689
617 616
68 69
195 194
104 103
629 630
447 448
735 736
725 724
274 273
224 223
742 741
593 594
685 686
443 442
215 216
571 572
264 265
159 160
569 568
487 488
292 293
148 149
338 339
376 375
207 208
715 714
428 429
220 219
320 321
761 762
492 491
243 244
102 101
624 623
773 772
137 136
242 243
580 581
44 45
577 578
401 402
486 485
599 598
167 166
474 473
295 296
5 4
248 249
25 24
690 689
6 7
147 148
245 244
82 81
378 377
191 192
435 434
661 660
231 230
667 666
725 726
174 173
287 286
18 19
223 222
615 614
350 351
576 575
548 549
621 622
580 579
519 520
225 224
634 633
81 80
86 87
495 494
702 701
438 437
78 77
567 568
363 364
590 589
317 779
481 482
311 312
544 543
11 10
720 719
419 420
403 402
353 352
492 493
63 64
590 591
171 170
157 156
477 476
29 30
187 188
609 610
299 298
502 503
776 775
412 413
647 646
287 288
713 712
731 732
673 672
479 480
58 59
46 47
506 505
300 299
436 435
262 263
501 502
11 12
515 516
504 505
324 323
133 132
570 571
346 345
240 239
773 774
539 540
29 28
8 7
357 356
596 597
79 80
582 581
383 382
14 13
760 761
653 652
304 305
193 192
759 758
430 429
657 656
455 454
762 763
396 395
332 333
235 234
518 519
488 489
617 618
494 493
457 456
55 56
214 213
23 22
446 445
187 186
461 460
155 154
677 676
532 533
681 680
361 362
430 431
286 285
122 123
609 608
268 269
727 728
374 375
178 179
515 514
628 627
541 540
335 334
164 165
188 189
550 551
407 406
282 283
385 386
52 53
776 777
391 392
370 369
208 209
239 238
86 85
227 226
592 593
750 749
303 302
110 111
485 484
307 308
446 447
602 601
738 737
141 142
336 335
573 574
95 96
246 245
561 562
675 676
115 116
472 471
539 538
595 594
509 510
752 753
13 12
204 203
337 338
404 405
237 236
67 68
196 195
65 66
295 294
536 537
657 658
716 715
517 516
36 37
524 525
558 557
297 298
151 150
521 520
437 436
440 441
467 466
678 679
679 680
411 412
718 719
358 357
2 1
512 513
459 460
699 698
528 529
625 626
598 597
143 142
694 695
507 506
291 292
525 526
360 359
542 543
281 280
325 326
391 390
257 256
379 378
314 315
623 622
74 73
650 649
556 557
497 498
750 751
99 98
284 283
184 185
564 563
521 522
185 186
618 619
47 48
198 197
351 352
695 696
319 320
69 70
131 130
602 603
174 175
758 757
43 44
162 163
442 441
654 655
233 232
121 120
172 173
503 504
301 300
310 309
474 475
255 256
266 265
425 426
734 735
19 20
191 190
183 182
644 645
627 626
615 616
50 49
32 33
180 179
755 754
133 134
733 734
22 21
621 620
91 90
206 207
553 552
181 180
269 270
160 161
612 611
127 126
15 14
252 251
551 552
639 640
233 234
331 332
340 341
563 562
263 264
369 368
585 584
129 130
213 212
140 139
741 740
66 67
372 371
643 642
614 613
408 407
92 93
693 692
134 135
31 32
126 125
176 175
105 106
141 140
178 177
177 176
3 4
172 171
108 109
774 775
423 422
36 35
682 681
546 547
347 348
464 463
34 33
229 230
419 418
42 41
490 491
327 328
687 686
146 147
405 406
508 507
204 205
197 196
40 41
55 54
5 6
555 554
665 666
154 153
658 659
424 425
339 340
409 410
136 135
717 718
668 667
518 517
586 585
215 214
17 18
588 589
641 640
31 30
390 389
537 538
354 355
268 267
110 109
336 337
487 486
210 209
554 553
723 724
770 771
373 372
545 544
115 114
527 528
649 648
606 605
468 467
703 704
565 566
131 132
279 278
619 620
726 727
128 127
371 370
547 548
575 574
116 117
588 587
754 753
704 705
744 745
261 262
415 414
522 523
221 222
414 413
271 270
218 217
82 83
201 202
360 361
95 94
364 365
79 78
687 688
545 546
514 513
716 717
393 394
45 46
190 189
389 388
158 159
764 763
62 63
16 15
431 432
482 483
206 205
1400 383 910
59 58
1082 1083
775 776
840 839
1134 1133
288 287
1212 1213
98 97
543 544
825 826
1005 1006
1180 1179
664 663
382 381
587 586
475 474
361 362
922 921
1098 1099
1275 1274
1182 1181
1059 1060
1320 1319
456 455
513 512
769 770
325 324
371 370
1090 1089
435 434
1157 1156
478 477
499 500
939 940
998 999
1182 1183
763 762
304 303
469 470
292 293
446 445
720 719
119 118
1080 1081
1278 1279
552 551
656 655
188 187
895 894
1248 1247
966 967
889 888
309 310
106 105
904 903
1392 1393
1244 1243
686 685
784 785
1023 1022
1270 1269
1233 1234
63 64
845 844
432 433
844 843
795 794
709 708
145 144
1164 1165
1152 1151
132 131
796 795
588 589
1130 1131
666 665
672 671
141 140
773 772
414 415
204 205
1047 1046
467 468
1073 1074
916 917
694 693
1034 1035
1389 1388
253 252
1386 1387
380 381
346 345
776 777
906 907
759 760
856 855
66 67
1039 1040
344 345
637 638
1398 1397
815 816
509 508
1075 1076
1146 1147
740 739
269 270
881 880
329 328
712 711
1171 1172
150 151
35 36
500 501
354 353
567 568
1197 1198
665 664
119 120
1265 1266
268 267
1043 1042
473 474
1400 1
10 9
421 420
42 41
682 683
178 177
713 712
1304 1303
175 174
952 953
425 424
441 440
160 159
443 442
451 452
180 179
50 49
1205 1206
209 210
1218 1217
1268 1269
502 501
1086 1085
398 399
219 218
528 527
817 818
1280 1281
1167 1168
1237 1238
246 245
1025 1024
687 688
1311 1310
963 962
792 791
988 987
983 982
569 570
810 809
481 480
596 595
1046 1045
599 600
1127 1126
942 943
493 494
393 392
386 387
796 797
821 820
642 643
678 679
211 210
1277 1278
319 318
949 950
36 37
1304 1305
1324 1325
13 14
497 498
892 891
91 90
221 220
1003 1004
980 981
479 478
681 682
181 182
489 488
738 739
276 275
761 762
1069 1070
577 576
931 932
1086 1087
681 680
934 933
973 974
902 903
367 368
561 562
1094 1095
1209 1208
1343 1344
463 464
179 178
360 361
302 301
1357 1356
747 746
1174 1175
447 446
689 690
183 182
786 787
849 848
850 851
448 449
840 841
557 556
106 107
867 866
1216 1217
234 235
955 956
39 40
1295 1294
1245 1244
540 541
1360 1361
1043 1044
94 95
1093 1094
1132 1131
1223 1224
670 671
822 821
436 435
298 297
257 258
88 87
1279 1280
1170 1169
794 793
730 729
871 872
654 653
236 235
813 812
191 190
1240 1239
136 137
434 433
256 255
1117 1116
969 968
1105 1104
984 983
662 661
503 504
11 10
3 2
691 692
404 403
239 240
978 977
924 925
34 35
80 79
8 9
344 343
961 960
731 730
184 185
634 635
1078 1079
4 5
772 771
662 663
1310 1309
191 192
651 650
1173 1172
261 262
642 641
868 867
724 723
1332 1333
263 262
1171 1170
957 958
499 498
219 220
1189 1188
208 209
908 907
15 16
780 779
1273 1274
781 782
936 937
652 653
1266 1267
20 21
618 617
905 904
201 200
852 853
587 588
756 757
885 886
265 266
613 612
1390 1389
539 538
1291 1292
1207 1208
1271 1272
625 624
1225 1226
734 735
356 357
571 570
747 748
1396 1397
725 724
285 284
117 118
1319 1318
1027 1028
963 964
108 109
1120 1121
1186 1185
6 7
1099 1100
1011 1012
401 402
803 802
1343 1342
322 321
1055 1054
429 430
164 165
380 379
718 717
591 590
1135 1136
108 107
485 484
228 229
901 902
760 761
431 432
277 278
1392 1391
1095 1096
675 674
1287 1288
995 996
825 824
615 616
358 357
469 468
804 805
251 252
707 706
255 254
666 667
113 114
932 933
259 260
365 364
1362 1361
830 829
476 475
197 196
869 868
744 745
1249 1248
908 909
1387 1388
397 396
1085 1084
1305 1306
457 458
563 562
725 726
122 121
976 975
246 247
488 487
1065 1064
814 813
1002 1003
1383 1384
48 49
519 520
1184 1183
1009 1008
291 292
6 5
1323 1324
887 888
147 148
602 601
453 454
872 873
579 580
128 129
160 161
652 651
1061 1060
1013 1012
365 366
1071 1070
1227 1226
373 372
383 384
244 243
1363 1364
84 83
1220 1219
1290 1289
737 738
879 880
836 835
298 299
1286 1287
283 282
817 816
11 12
42 43
1180 1181
514 515
1253 1252
1015 1016
99 98
591 592
110 109
350 349
1322 1321
67 68
741 740
437 436
185 186
728 727
918 917
1119 1118
1048 1047
1295 1296
930 931
1375 1374
767 768
1186 1187
22 23
3 4
714 715
134 133
199 200
831 832
547 546
148 149
70 69
1255 1254
884 883
1393 1394
284 283
123 124
1175 1176
1282 1281
677 678
38 37
130 131
1062 1063
1247 1246
927 926
450 451
1235 1234
115 116
763 764
575 574
1190 1189
1367 1368
606 607
1369 1370
1020 1021
1184 1185
940 941
1313 1312
1048 1049
491 490
554 553
491 492
1301 1302
1299 1298
323 322
1067 1066
303 302
1301 1300
350 351
1001 1002
1314 1313
94 93
337 336
937 938
1049 1050
212 211
81 80
1229 1230
276 277
457 456
823 824
1376 1377
439 440
638 639
326 325
1218 1219
208 207
695 694
751 752
990 991
216 217
922 923
1202 1201
545 546
899 900
249 250
428 427
971 970
180 181
585 584
1119 1120
658 659
905 906
1262 1263
1340 1339
452 453
507 506
47 46
300 301
898 897
1284 1285
1360 1359
391 392
980 979
793 792
841 842
1166 1165
1355 1356
1112 1113
1011 1010
1297 1298
197 198
143 144
623 624
886 887
1134 1135
1307 1308
333 332
218 217
1341 1342
228 227
915 916
708 707
896 895
1331 1330
743 742
1056 1057
229 230
1139 1140
592 593
524 523
1203 1204
214 215
866 865
54 55
960 959
560 561
72 73
687 686
445 444
733 734
305 306
408 409
1231 1230
993 992
809 808
566 565
523 522
337 338
385 386
1115 1116
202 201
77 76
1156 1155
1222 1221
1205 1204
608 607
992 991
233 232
923 924
1216 1215
594 593
508 507
459 458
550 551
516 515
616 617
281 280
791 790
693 692
206 205
1058 1059
282 281
195 196
911 912
1160 1159
1195 1194
368 369
948 949
295 294
86 87
959 958
250 251
646 647
1174 1173
313 314
280 279
514 513
990 989
699 698
1053 1054
242 241
1340 1341
1034 1033
1111 1112
786 785
27 26
729 728
750 751
441 442
340 341
1358 1359
1139 1138
783 784
1163 1164
1138 1137
44 43
259 258
533 532
1316 1317
447 448
1122 1121
466 467
606 605
1037 1036
1018 1019
176 175
135 136
463 462
890 889
536 535
1251 1252
798 799
2 1
347 348
1214 1215
1154 1153
1166 1167
327 328
863 864
334 333
571 572
705 704
565 564
1142 1141
112 111
1196 1195
1065 1066
997 998
204 203
864 865
1213 1214
636 635
715 716
1020 1019
775 774
253 254
1168 1169
406 405
1007 1008
65 66
1243 1242
207 206
1105 1106
285 286
623 622
1037 1038
240 241
1253 1254
1057 1058
919 918
1107 1108
56 57
1148 1147
1051 1052
589 590
1200 1199
787 788
1129 1130
314 315
146 147
807 806
920 921
648 649
630 629
309 308
245 244
1327 1328
1211 1210
353 352
836 837
142 141
721 722
95 96
51 52
310 311
516 517
342 343
273 272
492 493
127 128
853 854
370 369
829 828
966 965
764 765
33 32
1381 1380
815 814
33 34
574 573
1145 1144
460 461
172 171
860 861
44 45
583 584
130 129
76 75
339 340
16 17
869 870
700 699
290 289
58 57
645 646
1178 1177
63 62
1032 1033
942 941
111 110
65 64
862 863
273 274
399 400
1398 1399
1379 1380
750 749
649 650
913 914
1080 1079
1123 1122
132 133
1384 1385
558 559
944 943
1293 1294
555 554
162 163
123 122
1221 1220
1235 1236
1124 1125
1206 1207
483 484
378 379
459 460
800 801
417 416
1149 1150
100 99
830 831
1073 1072
595 594
984 985
293 294
741 742
138 137
703 702
556 555
490 489
766 765
1103 1102
101 100
771 770
566 567
605 604
954 953
438 439
1355 1354
312 311
117 116
1021 1022
71 72
716 717
1348 1349
125 126
153 154
673 674
756 755
534 533
1077 1078
82 83
655 654
32 31
700 701
876 877
945 946
604 603
1091 1092
318 317
668 669
348 349
833 832
85 84
405 404
331 332
783 782
577 578
851 852
789 790
323 324
1009 1010
378 377
414 413
401 400
376 375
1336 1335
374 373
1395 1394
413 412
461 462
576 575
1118 1117
157 156
1056 1055
909 910
1109 1108
726 727
510 509
85 86
1314 1315
1158 1157
166 167
885 884
1026 1025
426 427
1024 1023
632 633
1258 1259
919 920
547 548
997 996
409 410
1178 1179
552 553
1291 1290
631 630
541 542
1081 1082
673 672
1133 1132
199 198
626 627
609 608
1036 1035
158 159
994 995
243 242
487 486
858 857
376 377
248 247
520 521
1114 1115
754 755
820 819
46 45
24 23
855 854
321 320
1161 1162
1333 1334
778 777
625 626
803 804
1382 1381
930 929
696 695
1069 1068
811 810
28 27
805 806
1090 1091
957 956
1015 1014
619 620
275 274
1261 1262
875 876
1250 1249
856 857
1330 1329
1177 1176
162 161
54 53
62 61
1259 1260
774 773
1318 1317
225 226
189 190
418 417
882 883
925 926
260 261
1100 1101
73 74
1245 1246
1297 1296
47 48
1378 1379
1321 1320
749 748
202 203
296 297
1146 1145
139 140
18 19
701 702
862 861
586 585
502 503
619 618
269 268
1292 1293
69 68
733 732
610 611
355 354
974 975
155 154
1032 1031
79 78
965 964
372 371
518 517
1031 1030
77 78
17 18
315 316
525 524
647 648
519 518
679 680
808 807
1260 1261
214 213
614 613
582 581
798 797
1074 1075
342 341
544 545
1087 1088
802 801
1309 1308
170 171
406 407
999 1000
690 691
1071 1072
736 737
21 22
1103 1104
1373 1372
1363 1362
893 892
1088 1089
1352 1351
1250 1251
697 698
731 732
102 101
1018 1017
1001 1000
339 338
753 752
1282 1283
1225 1224
1256 1255
1193 1192
497 496
423 424
319 320
1338 1339
51 50
874 873
870 871
464 465
973 972
1322 1323
105 104
847 846
444 443
8 7
1191 1192
962 961
295 296
483 482
152 153
330 329
1128 1127
19 20
1013 1014
955 954
839 838
1400 1399
411 410
628 627
193 192
1331 1332
29 30
558 557
753 754
677 676
194 195
299 300
271 270
668 667
859 860
394 393
714 713
766 767
581 580
639 640
1395 1396
657 658
476 477
26 25
511 512
1137 1136
383 382
408 407
248 249
505 506
1111 1110
390 389
1376 1375
632 631
264 263
330 331
186 187
1232 1231
1106 1107
1028 1029
157 158
1125 1126
56 55
549 550
169 170
842 843
719 718
660 661
1370 1371
421 422
1050 1051
982 981
1202 1203
538 537
1277 1276
335 334
757 758
706 705
126 127
645 644
238 237
290 291
1307 1306
878 877
1264 1265
684 685
1053 1052
659 660
155 156
1347 1348
1005 1004
473 472
1390 1391
1338 1337
1198 1199
480 479
465 466
485 486
1161 1160
231 232
1236 1237
834 835
288 289
1113 1114
597 598
172 173
735 736
1229 1228
1097 1098
236 237
1222 1223
1200 1201
656 657
304 305
306 307
979 978
239 238
1006 1007
536 537
745 746
721 720
1083 1084
1240 1241
850 849
834 833
1345 1344
364 363
227 226
900 901
769 768
496 495
1029 1030
710 709
422 423
1352 1353
313 312
93 92
1273 1272
1042 1041
912 913
946 947
455 454
697 696
134 135
326 327
419 418
1239 1238
875 874
759 758
615 614
971 972
1286 1285
928 927
528 529
535 534
879 878
951 950
1367 1366
743 744
360 359
24 25
789 788
15 14
1017 1016
1158 1159
1365 1366
636 637
168 169
167 168
781 780
986 987
481 482
1303 1302
609 610
993 994
398 397
387 388
945 944
1143 1144
222 223
1045 1044
1151 1150
1373 1374
74 75
335 336
1334 1335
899 898
1350 1351
176 177
600 601
317 316
684 683
629 628
264 265
92 91
1097 1096
1353 1354
1316 1315
307 308
882 881
146 145
257 256
778 779
827 828
510 511
1264 1263
411 412
845 846
52 53
914 915
212 213
1329 1328
60 61
1027 1026
271 272
347 346
437 438
426 425
374 375
165 166
143 142
1041 1040
722 723
193 194
819 818
151 152
505 504
525 526
1101 1102
938 939
531 530
1038 1039
402 403
97 96
1312 1311
1077 1076
976 977
838 837
1153 1152
1350 1349
1196 1197
1140 1141
1233 1232
1187 1188
1149 1148
564 563
894 893
41 40
71 70
548 549
1209 1210
389 388
366 367
1242 1241
572 573
526 527
287 286
89 90
703 704
494 495
139 138
812 811
621 620
124 125
363 362
670 669
1142 1143
1064 1063
986 985
351 352
529 530
934 935
1347 1346
621 622
431 430
356 355
104 103
385 384
1067 1068
390 391
429 428
1110 1109
1129 1128
542 543
103 102
188 189
59 60
611 612
897 896
1325 1326
688 689
967 968
1155 1154
395 394
231 230
1275 1276
38 39
634 633
531 532
1289 1288
449 450
1385 1386
184 183
1327 1326
1377 1378
969 970
415 416
540 539
396 395
358 359
1364 1365
936 935
578 579
215 216
800 799
1299 1300
28 29
1337 1336
115 114
1190 1191
1284 1283
858 859
597 596
225 224
1256 1257
929 928
988 989
569 568
602 603
644 643
521 522
82 81
1371 1372
822 823
1258 1257
472 471
1062 1061
1346 1345
952 951
948 947
1227 1228
267 266
582 583
560 559
471 470
1268 1267
30 31
640 641
890 891
164 163
120 121
224 223
848 847
1162 1163
234 233
221 222
1212 1211
13 12
278 279
420 419
173 174
1193 1194
1092 1093
88 89
150 149
1270 1271
827 826
1369 1368
911 910
598 599
1383 1382
675 676
711 710
1357 1358
112 113
1124 1123
1181 214 913
1 1053
1 1123
1 315
1 331
734 1
1 344
1147 1
1071 1
354 1
1 497
345 1
1124 1
657 1
190 1
1 775
225 1
535 1
1 33
1 377
1 576
1 370
1 338
1 532
1 1130
189 1
1 63
1 844
30 1
1 918
556 1
1 328
1 394
1 507
1 392
837 1
1 423
1 384
1 438
1 840
1 528
513 1
643 1
1 428
469 1
668 1
362 1
1 911
128 1
1004 1
885 1
240 1
1 151
426 1
283 1
1 813
25 1
839 1
1 554
5 1
1 828
214 1
1 51
1 160
1 94
1 948
255 1
1 1084
381 1
161 1
713 1
244 1
1 478
1 470
925 1
487 1
79 1
226 1
1 376
1 184
662 1
1 1031
1 1046
411 1
560 1
661 1
222 1
1037 1
97 1
1 1034
243 1
181 1
332 1
1 326
1 748
1 791
1042 1
1 632
711 1
231 1
746 1
966 1
1060 1
1 316
1018 1
292 1
806 1
1 1157
1 804
209 1
952 1
1 1116
669 1
177 1
1 990
1 301
1 198
1 524
1 886
1082 1
1 353
1 698
1 673
1 584
1 1025
1 609
1 750
267 1
1 446
1 880
1 386
233 1
1 1154
481 1
1 351
1 141
1133 1
935 1
852 1
603 1
1 443
773 1
1 398
1 54
1 466
1 490
516 1
196 1
1 614
260 1
1 230
715 1
335 1
987 1
1 1146
1 571
640 1
1 1086
1 997
720 1
1 693
1 597
1101 1
991 1
1 629
1 983
518 1
1 973
1112 1
1 551
1 529
39 1
247 1
1111 1
946 1
638 1
888 1
1 176
8 1
1 553
259 1
127 1
126 1
1 574
1 820
1 409
333 1
1 85
1 261
1 368
1 1131
1 586
391 1
517 1
496 1
1 687
1 498
1 1093
1 500
541 1
1 786
1 1078
1 112
533 1
743 1
1 350
1 986
1 531
1 389
2 1
1 1120
767 1
1 34
199 1
714 1
1005 1
1 635
1 38
68 1
396 1
1061 1
705 1
1 602
504 1
653 1
1 652
1 1040
1 864
965 1
583 1
232 1
1 82
1 1174
994 1
1 262
1 780
685 1
1 1073
1 1144
1 955
860 1
798 1
1030 1
264 1
458 1
1 322
367 1
70 1
1 1049
799 1
172 1
1052 1
1 765
1083 1
850 1
1 1079
1 49
1 180
343 1
194 1
24 1
1 1166
1 797
644 1
103 1
1 228
219 1
87 1
9 1
1 917
1 970
1 637
519 1
1 297
1 143
348 1
1 593
623 1
419 1
1 191
26 1
113 1
1 651
1 821
1 314
617 1
1 927
1 122
1 115
1 1066
851 1
981 1
1168 1
135 1
1 1115
1 99
1 505
1 675
1 1113
974 1
678 1
1 1094
92 1
1 742
1 1104
1 795
62 1
1 1107
138 1
1 271
558 1
1 395
1 1087
667 1
618 1
825 1
1 1038
1 312
740 1
691 1
1145 1
1140 1
951 1
1 425
379 1
23 1
1 1176
980 1
1 670
205 1
1 626
731 1
1 511
1 568
258 1
1 1106
412 1
299 1
1 582
1 21
1 772
287 1
257 1
620 1
1 904
358 1
777 1
1 285
1 861
866 1
647 1
1172 1
794 1
1 1178
1 36
1 591
708 1
1 625
1 832
1 365
684 1
855 1
1 907
1 476
116 1
1 1156
1 406
961 1
984 1
784 1
388 1
237 1
1 919
978 1
1072 1
279 1
889 1
1 64
251 1
420 1
1 327
439 1
1 402
1 213
69 1
1 1023
1 848
42 1
220 1
908 1
1167 1
1 241
1 988
1 950
1 74
719 1
162 1
564 1
1091 1
834 1
1 452
460 1
1 537
546 1
501 1
843 1
1 156
549 1
1 1109
319 1
1 845
542 1
1 356
1 674
688 1
1 899
206 1
1 682
1 355
1 170
514 1
217 1
1 608
1 671
649 1
1 680
878 1
1 1102
1 802
1 634
769 1
1 22
1088 1
1026 1
738 1
1 761
1 300
1 78
1 210
1 489
495 1
1 887
1 72
1 755
1 763
1 751
1 812
270 1
164 1
385 1
1 1135
140 1
1 695
1 502
67 1
383 1
185 1
884 1
1 109
1 468
783 1
1 972
1162 1
1 831
536 1
1 1089
1 41
916 1
938 1
83 1
915 1
727 1
1092 1
552 1
525 1
1 1138
758 1
1 709
789 1
1 1180
579 1
1 171
20 1
906 1
959 1
329 1
1 595
796 1
1 43
1 853
1 982
325 1
1 943
47 1
810 1
1 10
86 1
1 808
304 1
922 1
703 1
1 550
1 66
1 581
1067 1
281 1
448 1
1 1171
1 149
266 1
1 672
1 931
1 242
295 1
1 846
1 598
1 956
1 694
1070 1
1 204
216 1
1 760
467 1
248 1
1 193
340 1
1 724
1 50
324 1
371 1
480 1
1 1044
1 633
1 15
118 1
1 656
1 534
1055 1
1 996
375 1
1 134
1 1096
976 1
896 1
1 664
479 1
613 1
619 1
1 1009
641 1
1 683
998 1
1 169
1 463
1 429
1 1074
630 1
1 700
457 1
1 701
803 1
153 1
1 1177
733 1
1 1056
453 1
1 1064
93 1
1 835
594 1
96 1
1 818
590 1
1 565
1 699
1 702
341 1
499 1
1 133
999 1
150 1
1 1175
1 252
1 1110
107 1
778 1
957 1
1 723
1 969
781 1
636 1
1 55
1 624
1 238
1 211
144 1
1 1108
123 1
1 195
1 895
310 1
1 1033
1 1007
306 1
1 578
1 527
1161 1
1 745
1 816
1 18
311 1
1 1022
1 718
774 1
1 921
1 540
1 200
167 1
284 1
80 1
488 1
1 1002
1 182
1 447
410 1
1 838
616 1
119 1
612 1
1 1127
318 1
1 995
1 728
1 1032
1 567
771 1
1 679
1 770
1 645
1 862
563 1
1 1063
464 1
892 1
1 101
787 1
277 1
431 1
1 958
1 942
1 764
1 415
875 1
1 1125
1 1081
893 1
726 1
1 88
1 1160
1 515
1 1153
1 145
929 1
876 1
757 1
508 1
1 561
732 1
1015 1
654 1
1 756
1 473
187 1
308 1
1 801
1 676
1 48
707 1
347 1
1 1012
686 1
842 1
1139 1
1 450
1 32
1043 1
1 1137
1 110
1 1159
407 1
1 296
1 814
75 1
721 1
712 1
752 1
1 19
1 81
16 1
1 71
1 964
207 1
1 45
1 201
1 282
1 646
538 1
975 1
1 503
1 800
1105 1
494 1
1 1058
1 245
1 137
1 136
1 313
836 1
1 342
276 1
1 289
1 102
472 1
1118 1
792 1
1 523
1 572
573 1
1 869
1 462
909 1
1 31
433 1
1 939
1 197
1 1114
73 1
459 1
1 378
1 449
1 188
442 1
521 1
1 155
1 739
1016 1
52 1
1 905
639 1
1 417
1 35
1 330
1 689
1164 1
203 1
1 493
1129 1
1 570
132 1
186 1
1 405
1 1024
1 530
741 1
1 95
1 139
1100 1
1 1155
1117 1
1 159
65 1
1 1099
1 474
1069 1
13 1
1 735
1 427
1 477
1 218
1 454
1 944
1143 1
288 1
1 575
1 321
1 152
1 357
660 1
1 793
249 1
1076 1
1 44
1103 1
940 1
1 912
1 273
4 5
1 418
1 183
1 256
1 543
117 1
1 1077
1 111
1 599
1 275
1 215
1 309
1 1095
1 1085
483 1
4 3
37 1
1 566
208 1
1 1059
1 815
1039 1
202 1
100 1
58 1
1 352
1 545
179 1
1 29
1090 1
1 941
286 1
1 953
509 1
1 12
1 562
1 120
1 57
934 1
441 1
165 1
722 1
1 1136
1 924
1151 1
174 1
307 1
1 881
520 1
547 1
1 589
1 1050
1 1011
665 1
317 1
403 1
1 268
1 253
785 1
506 1
1 1054
60 1
334 1
1 146
1 704
1 788
1 46
1 236
1 1029
833 1
1001 1
744 1
1 903
1 569
89 1
747 1
993 1
393 1
677 1
28 1
1 374
580 1
1 269
1 1165
1 305
1 436
1 280
1 1075
1 90
754 1
1 873
124 1
1 1013
1119 1
1 776
826 1
1 293
1 223
622 1
1 461
867 1
1 337
346 1
106 1
936 1
823 1
1 817
1 898
856 1
339 1
1 526
1036 1
98 1
1 827
1 1000
1 302
320 1
1 963
455 1
923 1
1 121
163 1
1 212
1 829
883 1
1 901
1051 1
1 360
1150 1
1 544
736 1
868 1
77 1
1 373
967 1
192 1
696 1
1 178
779 1
604 1
1 737
1 76
859 1
1014 1
1 445
1 1128
1 1158
1 710
1 841
1 559
1 272
1 692
1 465
1 858
822 1
1 154
1 611
790 1
971 1
1 902
766 1
1 1041
484 1
706 1
265 1
627 1
1 399
1 142
716 1
1 1098
890 1
56 1
1 291
1 759
588 1
977 1
510 1
1 129
1 857
1 413
1121 1
1 221
512 1
1 53
1 397
1 615
11 1
475 1
960 1
1 1057
894 1
1 229
1 424
1 900
1 246
1 725
1 872
1 105
254 1
492 1
401 1
1 1142
1 1149
1 434
1 1141
1 485
1 451
1148 1
1 173
650 1
1 666
1 945
879 1
1 749
587 1
1 824
2 3
1 1048
168 1
1 949
1 539
648 1
416 1
577 1
1 658
1 430
1 303
1 874
954 1
1065 1
1 158
1 854
234 1
913 1
1 471
27 1
363 1
1 400
1 382
1 323
979 1
1 1045
1 930
1 610
1 404
1 349
607 1
1 897
1 962
1 1134
989 1
631 1
1 364
1 926
372 1
819 1
1 369
91 1
1 863
1 1179
290 1
440 1
985 1
1 130
61 1
486 1
1 847
1 390
1 437
294 1
1 1062
1 1047
1 933
131 1
1 239
1 690
681 1
235 1
768 1
1 914
1 1173
1 655
380 1
227 1
1 601
1 17
1 482
1122 1
642 1
1 432
870 1
1 1020
1 849
992 1
1 730
278 1
366 1
1 336
1 7
1 882
1126 1
1 1068
147 1
1 1170
659 1
762 1
809 1
1 1010
40 1
1 947
1 435
628 1
811 1
1 298
1 807
1 1097
1 14
1 585
1 697
600 1
1 408
1 891
1 491
1 422
224 1
1 557
1 937
1 865
1 263
1 1006
1 421
1080 1
1 59
1 621
1 1035
1 663
717 1
1 6
1 920
1 522
359 1
782 1
1 1019
1 1132
166 1
1 250
108 1
548 1
1 596
1 1017
1 928
871 1
805 1
414 1
1 114
361 1
1 1181
830 1
1 753
592 1
1163 1
1 148
1008 1
1 1003
1 456
877 1
1028 1
1 605
1 910
1152 1
968 1
1 444
387 1
84 1
125 1
1027 1
1 104
157 1
1 175
729 1
1169 1
1 1021
555 1
606 1
932 1
274 1
1424 88 667
143 144
273 274
907 908
1191 1190
2 243
1097 1096
308 309
89 90
71 70
30 31
1364 1365
543 542
55 54
486 487
198 199
1266 1267
288 287
229 230
1209 1210
604 603
615 616
1172 1171
1321 1320
1244 1245
910 911
13 12
943 942
820 819
595 594
741 742
48 47
483 484
726 727
214 215
623 622
496 497
415 416
972 971
121 120
1324 1325
845 844
1075 1074
773 774
147 146
1168 1167
449 450
360 361
176 177
981 980
409 410
290 289
537 538
1184 1183
612 613
1163 1164
363 362
1292 1293
1370 1371
747 748
403 404
456 457
821 820
1140 1139
388 389
643 644
1101 1100
217 216
526 525
430 429
78 79
1232 1233
1306 1307
249 248
447 446
406 405
1398 1397
1403 1402
1319 1320
393 394
735 736
1009 1010
804 805
45 46
636 637
1065 1064
611 612
1407 1408
350 351
1200 1199
792 793
80 79
1127 1128
694 695
1143 1144
1298 1297
300 301
46 47
653 652
1241 1240
444 445
1058 1059
576 575
115 114
972 973
973 974
892 891
437 436
606 605
1416 1417
600 601
535 536
25 26
356 357
965 966
1413 1414
797 798
801 800
1018 1017
1078 1077
241 240
88 87
687 688
506 507
751 750
132 131
186 185
62 63
709 708
931 932
443 442
985 984
103 102
1053 1052
766 765
1235 1234
355 354
655 654
988 989
889 888
548 547
982 983
400 401
951 5
1385 1386
1324 1323
776 775
89 88
358 357
129 130
760 761
469 470
398 397
825 824
1340 1339
817 818
1102 1103
589 590
949 950
1104 1103
1061 1060
1177 1176
91 92
1119 1118
772 773
187 186
1421 1420
1315 1316
734 735
1174 1175
940 939
577 576
608 609
896 895
715 4
960 959
756 757
52 53
1031 1030
1062 1061
157 156
759 758
1135 1136
466 465
138 139
558 559
257 256
1308 1309
166 165
882 881
269 268
864 863
660 659
519 520
435 434
340 339
183 182
1045 1044
1019 1018
1345 1346
193 192
29 30
1185 1184
996 995
827 828
1155 1156
464 463
1011 1012
946 945
1092 1093
492 491
570 569
1036 1035
282 281
936 935
767 768
251 252
763 762
211 210
337 338
159 160
296 297
1305 1304
237 236
596 595
540 539
418 417
24 23
255 256
260 259
283 282
468 469
778 779
829 828
1273 1272
1024 1023
1065 1066
1224 1223
1283 1284
1229 1228
837 838
1421 1422
42 41
1158 1157
229 228
192 191
1404 1403
532 533
45 44
1375 1376
7 8
1395 1396
209 210
1342 1341
1358 1359
1318 1317
1392 1391
1091 1090
1310 1309
763 764
196 195
1233 1234
1001 1000
1265 1264
1258 1259
678 677
554 553
259 258
919 920
649 650
1093 1094
1137 1138
1389 1388
440 441
1138 1139
157 158
656 657
390 389
442 441
21 20
922 921
681 682
206 207
384 385
124 125
1080 1081
998 999
1043 1044
618 617
632 631
512 511
599 598
817 816
391 390
745 744
1361 1360
37 36
240 239
1067 1068
976 975
284 285
694 693
1141 1140
1231 1230
723 724
955 954
1404 1405
433 432
986 987
467 466
397 396
1335 1334
509 508
590 591
56 55
1373 1374
74 75
708 707
1007 1006
758 757
93 94
1253 1254
566 565
164 165
1029 1030
460 459
60 59
1244 1243
913 914
1021 1022
180 181
607 606
376 377
887 886
360 359
1348 1347
860 859
1385 1384
1412 1411
883 884
1088 1087
333 332
1131 1130
276 277
1213 1214
239 238
1142 1143
563 562
1123 1124
952 951
104 103
475 474
472 473
348 349
592 591
1158 1159
1162 1161
10 11
317 316
783 784
504 503
1063 1064
965 964
341 340
168 167
14 13
915 916
35 36
1380 1381
916 917
705 704
631 630
621 622
64 63
1097 1098
286 287
1157 1156
745 746
1098 1099
322 323
522 523
905 904
852 853
971 970
39 40
834 833
411 410
1160 1161
865 864
512 513
17 18
486 485
451 450
687 686
613 614
352 353
1108 1107
1300 1299
1259 1260
319 320
380 381
699 698
1013 1012
993 994
983 984
263 262
1072 1071
307 306
695 696
440 439
1313 1314
334 333
1377 1376
18 19
1311 1310
376 375
190 189
696 697
32 33
1105 1104
471 472
1155 1154
934 935
572 571
1215 1216
368 369
1401 1402
414 413
685 684
963 964
109 108
1207 1208
838 839
871 870
604 605
1142 1141
312 313
1227 1228
128 129
1186 1185
1388 1387
206 205
1023 1022
637 638
975 974
891 890
933 932
1352 1353
589 588
197 196
1037 1036
1269 1268
1343 1344
587 588
1291 1292
1221 1220
1358 1357
168 169
35 34
812 811
680 681
1089 1088
692 691
927 928
1269 1270
1003 1002
1350 1349
173 174
1280 1279
1054 1055
571 570
771 770
1350 1351
275 276
990 991
326 327
874 873
535 534
583 582
1025 1026
700 699
625 624
1390 1391
728 727
656 655
215 216
596 597
324 325
279 278
640 639
521 520
72 73
342 341
1069 1068
1027 1026
731 732
100 99
1049 1048
226 227
12 11
926 927
837 836
193 194
130 131
808 807
218 217
325 326
1136 1137
1360 1359
829 830
1406 1405
818 819
1192 1191
455 456
909 908
1265 1266
1194 1195
978 977
768 769
1251 1250
584 583
993 992
1277 1276
281 280
1196 1197
728 729
863 862
624 623
1282 1281
305 306
358 359
744 743
1223 1222
243 244
884 885
1121 1120
301 302
644 645
1201 1202
952 953
202 201
1246 1247
675 674
1255 1256
1146 1145
1399 1398
1239 1240
858 859
1178 1177
1397 1396
188 187
226 225
65 64
666 667
1351 1352
1010 1011
418 419
991 992
528 529
903 904
375 374
1115 1114
452 451
853 854
1275 1276
1032 1031
1272 1271
115 116
563 564
415 414
98 97
1056 1057
910 909
780 779
504 505
888 887
1109 1110
942 941
473 474
264 265
854 855
542 541
968 967
905 906
873 872
1111 1110
976 977
134 135
1134 1135
636 635
1067 1066
274 275
678 679
1330 1331
849 848
270 269
482 481
567 568
28 27
172 173
979 978
1382 1383
980 979
841 840
701 702
15 14
1315 1314
855 856
584 585
188 189
947 946
1289 1288
171 172
1373 1372
1284 1285
780 781
1325 1326
455 454
710 711
544 543
660 661
737 736
143 142
1232 1231
617 616
497 498
895 894
857 858
913 912
1188 6
367 368
1190 1189
883 882
1047 1046
1333 1334
1106 1107
875 876
515 516
489 490
304 305
212 213
94 95
1034 1035
523 524
461 462
383 382
501 502
1126 1125
367 366
1226 1227
1049 1050
50 51
915 914
1152 1153
1212 1211
1336 1335
48 49
93 92
1205 1206
553 552
422 423
545 546
1312 1313
786 787
641 642
76 77
483 482
1355 1356
1101 1102
1247 1248
756 755
530 529
233 232
1205 1204
1197 1198
343 344
721 720
810 809
286 285
479 480
621 620
1 6
197 198
98 99
1169 1170
427 428
66 67
22 21
1312 1311
178 177
801 802
1267 1268
879 878
1249 1248
1038 1039
1210 1211
600 599
791 790
578 579
459 458
541 540
648 647
562 561
135 136
527 528
657 658
510 509
1149 1148
407 408
1327 1326
220 221
1262 1263
1274 1275
1329 1328
381 382
1407 1406
1113 1114
677 676
652 651
1207 1206
95 96
924 925
377 378
1080 1079
163 162
199 200
159 158
545 544
1015 1016
759 760
722 723
424 423
294 293
740 741
923 924
321 320
207 208
428 429
784 785
1180 1179
408 409
1091 1092
799 800
104 105
123 122
137 138
145 144
445 446
139 140
385 386
843 842
1346 1347
1002 1001
876 877
500 499
203 204
106 105
501 500
1111 1112
1294 1295
454 453
722 721
960 961
480 481
353 354
1355 1354
841 842
931 930
467 468
1424 1423
1242 1243
849 850
225 224
463 462
731 730
1283 1282
839 840
311 310
262 261
777 776
179 180
133 132
1322 1321
420 421
556 557
149 150
183 184
1163 1162
328 329
1116 1115
1072 1073
331 332
1409 1410
126 125
253 254
1096 1095
57 58
949 948
645 646
1165 1166
141 142
892 893
754 755
245 244
1394 1395
514 513
266 265
1025 1024
569 568
530 531
347 346
271 270
1149 1150
1183 1182
1330 1329
52 51
516 517
1332 1333
1084 1085
827 826
633 632
233 234
1366 1365
1249 1250
647 646
1075 1076
796 797
1338 1337
706 705
1220 1219
322 321
310 309
1257 1258
499 498
477 478
363 364
546 547
753 754
1078 1079
43 42
898 897
85 84
785 786
713 714
944 943
291 292
1318 1319
752 753
1082 1081
148 149
1341 1340
803 804
185 184
1270 1271
86 87
96 97
899 898
674 673
1167 1166
934 933
515 514
771 772
464 465
247 248
133 134
608 607
1218 1219
403 402
1209 1208
5 6
372 371
823 822
488 487
897 896
1221 1222
1085 1086
311 312
642 643
1174 1173
426 427
488 489
1317 1316
141 140
361 362
939 938
870 869
493 492
890 889
641 640
379 378
1277 1278
175 174
28 29
851 852
373 374
921 920
1126 1127
1413 1412
700 701
734 733
925 926
1086 1087
298 299
339 338
901 902
219 220
1021 1020
150 151
1073 1074
223 224
1261 1260
812 813
330 331
152 151
318 319
2 3
720 719
65 66
724 725
1217 1218
810 811
787 788
53 54
1034 1033
560 561
317 318
1422 1423
998 997
22 23
425 426
1419 1418
471 470
1381 1382
1134 1133
956 957
1196 1195
1344 1345
1361 1362
1 7
1194 1193
160 161
127 126
869 868
761 762
137 136
981 982
987 988
83 82
1378 1377
1286 1287
716 715
1236 1235
1372 1371
846 845
162 161
686 685
1408 1409
1013 1014
578 577
726 725
107 106
351 352
9 8
866 865
1055 1056
431 430
747 746
371 370
749 750
73 74
328 327
1387 1386
1029 1028
703 704
1285 1286
283 284
536 537
832 833
679 680
1378 1379
444 443
610 611
1099 1100
1411 1410
717 718
875 874
1059 1060
1237 1238
1175 1176
419 420
587 586
219 218
1153 1154
200 201
1165 1164
365 366
1393 1392
1239 1238
1287 1288
659 658
1296 1295
277 278
227 228
178 179
238 237
343 342
1071 1070
1128 1129
31 32
61 62
194 195
1168 1169
316 315
907 906
552 551
222 221
293 292
739 738
1280 1281
871 872
743 742
372 373
203 202
919 918
836 835
1172 1173
966 967
1289 1290
730 729
1390 1389
388 387
315 314
795 796
437 438
867 868
491 490
266 267
697 698
213 214
1367 1366
155 156
128 127
1179 1178
1364 1363
1257 1256
866 867
1212 1213
475 476
928 929
1042 1043
1357 1356
254 255
619 618
364 365
302 303
534 533
1090 1089
880 879
313 314
955 956
585 586
152 153
25 24
692 693
1017 1016
826 825
1331 1332
1047 1048
356 355
560 559
519 518
628 627
100 101
670 669
1380 1379
1370 1369
349 350
1302 1301
345 346
806 805
900 899
263 264
300 299
72 71
602 603
1200 1201
267 268
421 422
719 718
689 690
1203 1204
629 628
344 345
153 154
1180 1181
231 232
748 749
386 387
556 555
767 766
395 394
117 118
1274 1273
1375 1374
399 398
1336 1337
1062 1063
1028 1027
815 816
619 620
273 272
1132 1133
1343 1342
1040 1041
1354 1353
250 251
1264 1263
296 295
1051 1050
257 258
902 903
1203 1202
190 191
1005 1004
1077 1076
50 49
663 664
550 549
1246 1245
1121 1122
954 953
602 601
707 706
582 581
651 650
675 676
1144 1145
821 822
738 737
164 163
702 703
1109 1108
580 579
120 119
567 566
1401 1400
860 861
1338 1339
245 246
337 336
1083 1084
379 380
494 495
510 511
1188 1189
33 34
654 653
84 83
1014 1015
558 557
101 102
824 823
1241 1242
260 261
148 147
110 109
396 395
59 58
383 384
900 901
1122 1123
1229 1230
1160 1159
294 295
20 19
90 91
406 407
304 303
155 154
460 461
111 112
1116 1117
806 807
1252 1253
985 986
671 670
1 2
881 880
672 671
635 634
996 997
223 222
247 246
334 335
290 291
683 684
212 211
1033 1032
231 230
803 802
271 272
111 110
947 948
878 877
911 912
1004 1003
1054 1053
1236 1237
929 930
739 740
1297 1296
1261 1262
1051 1052
80 81
938 937
452 453
67 68
503 502
113 114
597 598
1414 1415
970 969
548 549
995 994
1008 1009
793 794
170 171
1181 1182
941 940
765 764
1106 1105
1125 1124
1113 1112
5 4
918 917
809 808
711 712
790 789
626 625
1225 1226
1303 1304
505 506
1130 1129
572 573
592 593
448 447
26 27
1299 1298
484 485
181 182
44 43
663 662
688 689
1255 1254
86 85
324 323
1069 1070
81 82
1214 1215
769 770
78 77
594 593
1322 1323
1046 1045
167 166
961 962
457 458
1082 1083
496 495
494 493
1225 1224
235 234
526 527
1363 1362
1151 1150
250 249
1399 1400
846 847
1305 1306
1193 1192
1328 1327
435 436
477 476
1038 1037
1291 1290
401 402
1148 1147
683 682
792 791
962 963
713 712
208 209
1119 1120
40 41
969 968
112 113
412 413
176 175
886 885
204 205
1383 1384
1303 1302
146 145
574 575
16 17
1394 1393
1216 1217
664 665
626 627
241 242
815 814
551 550
37 38
121 122
434 433
522 521
1368 1367
775 774
1252 1251
564 565
554 555
330 329
393 392
1419 1420
1000 999
4 3
615 614
989 990
830 831
668 667
1007 1008
649 648
581 580
288 289
1278 1279
847 848
56 57
170 169
1132 1131
438 439
814 813
673 672
936 937
1041 1042
1187 1186
733 732
298 297
610 609
1058 1057
782 781
1147 1146
1300 1301
1348 1349
252 253
107 108
669 668
1368 1369
851 850
893 894
117 116
923 922
1019 1020
405 404
518 517
666 665
957 958
798 799
958 959
843 844
1117 1118
1308 1307
717 716
9 10
348 347
862 861
391 392
280 279
370 369
1418 1417
1171 1170
1415 1416
944 945
783 782
633 634
424 425
448 449
1039 1040
662 661
118 119
69 70
857 856
752 751
638 639
416 417
573 574
76 75
777 778
399 400
831 832
1094 1095
524 525
124 123
61 60
1294 1293
834 835
432 431
630 629
710 709
795 794
789 788
532 531
3 479
335 336
236 235
1151 1152
1005 1006
39 38
69 68
16 15
1198 1199
308 307
690 691
507 508
412 411
538 539
1272 1028 881
420 421
907 906
118 119
942 941
192 193
1109 1110
657 658
746 745
200 199
1244 1243
401 402
1069 1068
810 811
978 979
145 146
777 776
181 182
409 408
1185 1186
464 465
266 267
1265 1264
982 981
590 591
803 804
494 495
71 70
619 620
45 46
1152 1151
321 320
205 204
125 124
585 586
630 631
449 450
727 726
1269 1270
15 14
426 427
641 642
81 82
629 628
1178 1179
268 267
1141 1140
607 606
30 29
911 912
923 924
1227 1226
677 678
369 368
344 343
660 661
113 114
453 452
972 971
160 161
682 681
1031 1032
390 389
1024 1025
725 726
606 605
186 185
6 1062
867 868
1197 1196
966 965
674 675
1263 1264
452 451
206 207
980 979
578 579
173 174
1130 1129
309 308
147 148
588 589
114 115
559 560
41 42
122 123
85 86
1058 1057
363 364
956 957
1167 1166
519 520
271 270
21 20
317 316
83 82
385 384
426 425
458 457
773 772
354 353
332 331
284 285
190 191
650 649
187 186
919 918
466 467
359 358
928 927
929 928
177 176
292 293
1133 1132
315 314
877 876
889 888
92 91
304 303
1037 1036
796 797
1093 1092
536 535
468 469
718 717
76 75
499 500
286 287
994 995
686 687
184 185
106 105
856 855
725 724
937 938
49 48
377 376
864 865
396 397
33 34
400 399
399 398
125 126
89 88
781 780
1022 1021
277 276
133 134
308 307
273 272
333 334
568 567
1034 1035
789 790
111 110
823 824
904 905
535 534
765 764
43 44
1005 1004
667 666
86 87
462 463
1239 1240
1205 1206
229 230
1048 1049
1231 1230
433 434
155 156
420 419
773 774
268 269
1178 1177
484 485
581 580
130 131
785 784
1146 1147
646 645
1086 1085
1163 1162
556 555
1037 1038
1191 1192
1076 1075
916 917
33 32
443 444
184 183
771 770
653 652
1056 1057
736 735
273 274
692 691
1180 1181
36 35
29 28
654 655
213 212
597 596
266 265
78 77
28 27
170 169
741 740
738 739
806 807
250 251
555 554
1017 1018
613 614
195 194
550 549
965 964
1130 1131
516 515
386 387
920 919
1096 1097
232 231
1 2
996 995
149 148
890 889
577 578
479 478
882 881
841 840
211 212
208 207
695 694
1232 1231
1063 1064
886 887
1089 1088
445 444
798 797
163 162
1257 1256
1006 1005
1255 1256
744 745
461 462
339 340
1007 1006
985 984
1199 1200
600 601
58 57
1139 1140
1160 1161
280 279
667 668
328 329
278 277
951 952
615 616
925 924
708 709
285 286
427 428
38 37
303 302
283 282
175 174
455 456
605 604
714 715
401 400
1181 1182
831 832
692 693
960 959
842 843
480 479
379 380
1188 1187
867 866
442 441
188 187
1043 1044
471 472
108 107
406 407
874 873
1173 1172
34 35
1195 1196
1077 1076
380 381
538 539
109 108
675 676
160 159
509 508
320 319
775 776
123 124
412 413
816 817
1235 1234
5 4
639 638
475 474
63 62
986 987
1216 1215
939 940
933 932
691 690
775 774
1271 1272
274 275
974 975
183 182
168 169
173 172
477 476
1073 1074
1154 1153
737 738
1070 1069
4 640
249 250
1184 1185
429 430
1103 1102
972 973
1061 1060
210 211
299 298
472 473
1042 1041
39 38
627 628
453 454
51 52
1131 1132
888 887
21 22
910 911
1040 1041
1046 1047
970 971
571 570
1148 1149
650 651
808 807
1002 1003
116 115
1190 1191
806 805
323 322
549 548
812 813
1204 1203
581 582
595 594
1065 1066
77 76
710 709
317 318
219 218
524 525
349 348
515 514
616 617
609 608
480 481
728 727
22 23
1021 1020
958 957
423 424
419 418
527 528
393 392
414 413
393 394
630 629
349 350
259 258
1086 1087
96 97
432 433
686 685
834 833
945 946
653 654
1164 1163
93 92
171 172
575 576
203 204
166 165
79 78
248 247
712 713
493 492
440 441
89 90
359 360
931 930
409 410
227 226
405 404
72 73
1072 1073
299 300
683 682
584 583
100 101
694 693
446 447
690 689
1190 1189
37 36
909 908
1241 1240
159 158
1116 1115
404 403
720 719
1035 1036
735 734
463 464
17 16
323 324
871 872
659 658
1029 1028
905 906
1014 1015
87 88
66 67
562 561
724 723
244 245
782 783
126 127
811 812
1183 1184
862 861
337 338
1011 1010
1170 1169
880 879
3 429
1031 1030
527 526
1100 1101
787 788
1169 1168
442 443
83 84
329 330
391 392
129 130
1203 1202
626 627
301 300
298 297
601 602
512 511
1158 1157
923 922
661 662
914 913
878 879
680 679
1188 1189
341 342
929 930
370 371
1210 1211
1019 1020
107 106
26 25
716 715
502 501
375 374
1255 1254
233 234
637 638
234 235
937 936
518 517
417 416
477 478
1242 1243
833 832
593 592
705 704
157 158
132 133
258 257
438 437
1174 1175
356 355
949 950
752 753
228 227
32 31
1108 1109
721 722
1251 1250
730 729
828 829
139 138
1117 1116
1044 1045
1105 1106
1022 1023
152 151
311 310
1119 1118
955 954
208 209
1015 1016
767 766
1247 1248
952 953
1002 1001
779 780
530 531
456 457
494 493
869 870
617 618
932 931
4 3
755 754
885 884
1258 1259
809 810
411 410
544 543
1112 1111
729 728
1049 1050
417 418
943 944
141 140
854 855
659 660
778 779
482 483
332 333
1212 1211
802 803
563 564
414 415
120 119
839 840
101 102
620 621
238 237
878 877
1025 1026
495 496
894 893
294 295
821 820
1124 1125
933 934
1248 1249
786 785
445 446
916 915
1120 1119
1180 1179
144 143
805 804
685 684
819 818
291 290
346 345
984 983
483 484
1251 1252
1223 1222
334 335
1151 1150
1197 1198
121 120
1176 1177
374 373
239 240
491 492
838 837
624 625
1091 1090
425 424
963 964
1236 1235
367 368
154 155
72 71
1027 1026
1070 1071
632 633
1192 1193
566 565
247 246
188 189
532 533
819 820
949 948
516 517
760 761
171 170
12 11
1028 1027
521 522
623 622
254 255
827 828
151 150
1019 1018
1091 1092
559 558
95 94
9 10
1194 1193
551 550
953 954
672 673
823 822
756 757
1094 1095
915 914
1238 1237
740 739
1233 1234
1183 1182
772 771
997 996
1263 1262
1083 1082
976 975
1141 1142
817 818
1118 1117
753 754
758 757
439 440
837 836
279 278
835 834
1045 1046
141 142
373 372
897 896
679 678
50 49
1096 1095
795 796
835 836
1038 1039
792 793
378 379
1108 1107
164 165
14 13
1172 1171
57 56
1165 1164
128 129
1017 1016
556 557
166 167
1250 1249
821 822
489 488
750 749
898 897
1122 1121
1209 1210
920 921
1129 1128
122 121
1187 1186
1261 1262
312 311
117 116
1208 1207
998 997
351 350
684 683
720 721
178 177
1146 1145
790 791
47 46
747 746
469 470
766 765
1207 1206
732 731
235 236
93 94
403 402
196 195
5 851
210 209
777 778
221 222
573 572
236 237
670 669
645 644
1090 1089
545 546
482 481
460 459
460 461
562 563
846 845
312 313
716 717
1080 1081
24 25
759 760
67 68
366 365
841 842
189 190
1200 1201
382 383
894 895
689 688
342 343
800 801
347 346
240 241
193 194
396 395
586 587
1128 1127
636 635
945 944
713 714
1218 1219
576 577
1229 1230
608 607
137 136
863 862
431 432
698 699
381 382
843 844
430 431
1054 1053
1009 1008
615 614
1156 1157
289 290
10 11
361 362
921 922
73 74
1228 1227
70 69
1238 1239
569 568
858 857
1052 1053
1158 1159
251 252
327 328
991 990
844 845
261 260
1003 1004
541 540
326 325
475 476
708 707
1074 1075
632 631
799 798
64 63
75 74
223 224
364 365
97 98
756 755
861 860
497 498
853 854
656 657
284 283
1217 1218
913 912
741 742
270 269
542 541
532 531
375 376
1081 1082
961 960
991 992
558 557
852 853
220 219
263 264
882 883
341 340
322 321
507 506
903 902
468 467
233 232
327 326
56 55
1225 1224
149 150
1213 1212
1043 1042
747 748
809 808
143 142
1260 1259
13 12
918 917
567 566
1260 1261
1033 1032
732 733
695 696
395 394
161 162
259 260
592 591
99 100
872 873
439 438
664 663
1127 1126
863 864
529 528
552 551
681 680
357 358
292 291
871 870
513 514
357 356
990 989
9 8
759 758
1148 1147
218 2
520 521
225 226
1063 1062
315 316
943 942
206 205
904 903
318 319
611 612
665 664
265 264
490 491
946 947
851 852
662 663
815 814
128 127
422 423
1247 1246
977 978
895 896
533 534
1060 1059
583 582
542 543
53 54
216 217
1052 1051
384 383
20 19
677 676
215 216
611 610
437 436
109 110
1236 1237
466 465
1223 1224
351 352
1104 1103
388 389
450 451
519 518
508 507
948 947
625 626
635 634
178 179
702 703
272 271
473 474
192 191
1150 1149
40 39
197 196
537 536
1246 1245
369 370
62 61
710 711
791 792
157 156
147 146
831 830
131 132
59 58
386 385
345 344
734 733
1156 1155
1087 1088
1143 1142
890 891
6 1
281 280
565 564
3 2
707 706
60 61
671 670
306 305
588 587
215 214
1138 1137
1079 1078
648 649
339 338
761 762
241 242
596 595
257 256
768 769
901 902
718 719
1244 1245
223 222
1080 1079
999 998
363 362
229 228
200 201
221 220
17 18
935 936
19 18
969 970
1010 1009
1174 1173
561 560
624 623
784 783
153 152
24 23
1171 1170
504 503
497 496
138 137
868 869
705 706
849 848
697 698
874 875
940 941
60 59
27 26
91 90
907 908
302 301
847 846
985 986
1105 1104
434 435
546 547
348 347
134 135
571 572
613 612
135 136
959 958
471 470
1008 1007
276 275
66 65
1068 1067
688 687
1204 1205
847 848
926 927
1099 1100
64 65
547 548
1094 1093
651 652
1176 1175
41 40
794 795
355 354
1137 1136
781 782
509 510
1055 1056
723 722
1059 1058
1136 1135
52 53
642 643
1225 1226
575 574
487 486
314 313
118 117
634 633
490 489
1121 1120
407 408
892 891
397 398
1114 1113
800 799
1135 1134
254 253
830 829
1110 1111
968 967
886 885
242 243
1266 1265
447 448
618 619
744 743
512 513
826 825
1214 1215
213 214
1252 1253
951 950
287 288
599 598
1012 1013
281 282
700 699
175 176
585 584
901 900
580 579
1195 1194
767 768
939 938
1134 1133
736 737
763 764
666 665
144 145
1219 1220
1083 1084
406 405
702 701
1051 1050
1014 1013
1077 1078
422 421
787 786
111 112
860 859
245 246
838 839
593 594
876 875
224 225
294 293
1113 1112
154 153
1271 1270
1029 1030
1122 1123
816 815
961 962
969 968
1161 1162
239 238
813 814
454 455
1153 1152
79 80
801 802
1222 1221
487 488
54 55
637 636
1213 1214
988 989
1033 1034
697 696
1123 1124
203 202
1106 1107
47 48
983 982
644 643
391 390
372 371
545 544
378 377
1208 1209
296 297
262 263
1065 1064
523 524
858 859
712 711
977 976
1241 1242
994 993
261 262
604 603
1000 1001
1115 1114
522 523
1024 1023
1233 1232
967 966
485 486
881 880
742 743
1067 1066
963 962
6 5
598 597
325 324
900 899
387 388
956 955
307 306
751 752
330 331
599 600
730 731
590 589
826 827
498 499
501 500
749 748
1160 1159
1055 1054
1258 1257
655 656
511 510
610 609
1268 1267
243 244
640 641
1097 1098
974 973
884 883
459 458
505 506
553 554
603 602
794 793
910 909
537 538
360 361
337 336
503 502
113 112
99 98
622 621
849 850
824 825
288 289
80 81
763 762
1167 1168
7 8
449 448
980 981
16 15
898 899
84 85
1071 1072
540 539
926 925
1154 1155
1198 1199
44 45
1202 1201
647 648
1217 1216
248 249
1 7
892 893
672 671
1102 1101
552 553
751 750
504 505
415 416
198 199
1138 1139
788 789
50 51
703 704
95 96
168 167
202 201
1048 1047
179 180
1011 1012
1254 1253
569 570
253 252
529 530
573 574
1039 1040
366 367
647 646
1229 1228
1269 1268
256 255
1144 1143
181 180
412 411
1125 1126
1166 1165
295 296
335 336
198 197
999 1000
769 770
353 352
857 856
436 435
1145 1144
102 103
674 673
865 866
1267 1266
525 526
987 988
1221 1220
309 310
304 305
104 105
139 140
69 68
42 43
1084 1085
103 104
701 700
668 669
31 30
935 934
164 163
992 993
231 230
1098 1099
1230 691 1004
1 379
1 723
1 1106
1 754
1 154
108 1
1 688
959 1
1 825
637 1
331 1
717 1
1 886
406 1
337 1
744 1
530 1
1 573
243 1
1 812
1 438
1 173
914 1
638 1
408 1
1 1121
850 1
551 1
178 1
702 1
1206 1
277 1
1133 1
1 992
310 1
1161 1
85 1
1 822
1 936
1 511
1 486
880 1
1 357
1 938
1 241
1 32
359 1
619 1
1 343
1 18
1031 1
682 1
1 1091
1 461
254 1
1 823
1 830
351 1
128 1
1042 1
1 1196
1150 1
1056 1
1223 1
1 38
973 1
1 1198
1 1028
1088 1
1 547
840 1
1 868
1 554
423 1
36 1
1 302
1 27
1 98
1217 1
1 26
1 505
606 1
885 1
1 1007
1 495
48 1
1100 1
185 1
1224 1
1 1013
1 1132
1 588
1 412
1 834
607 1
968 1
1 428
105 1
513 1
1145 1
556 1
1 159
1 1146
1 997
876 1
917 1
459 1
739 1
1 355
1 488
1 937
388 1
1 1008
395 1
712 1
1 660
1 1208
1 972
440 1
1 1112
592 1
1 7
636 1
1 86
1 730
58 1
1 686
1 496
397 1
643 1
574 1
3 1
165 1
1 1105
1 115
1 262
1 526
1 1084
1 1107
1 586
726 1
1 769
195 1
1 294
1200 1
96 1
1 910
328 1
1175 1
1 1186
1 313
1 474
246 1
1 711
1 1034
1 349
1 144
1014 1
1 1067
1 133
152 1
462 1
1 608
1 552
164 1
1 1009
1 758
218 1
1 211
1087 1
698 1
1 656
1 903
1 431
538 1
1 932
1168 1
1 669
446 1
1 25
407 1
29 1
1006 1
307 1
1 951
747 1
1 909
1 410
857 1
1 344
1 396
1 680
793 1
1 1154
587 1
95 1
281 1
801 1
1 506
1 661
828 1
1 1026
276 1
1 639
1 290
1 1029
1 168
391 1
1229 1
1 420
1 975
224 1
625 1
727 1
1152 1
1045 1
773 1
1 286
1 375
819 1
265 1
589 1
1 19
1 366
283 1
572 1
1001 1
1 965
952 1
900 1
1 39
564 1
1 635
163 1
1 1072
1 695
207 1
1 1187
1016 1
494 1
330 1
263 1
956 1
761 1
1 887
404 1
634 1
1 824
1 757
642 1
591 1
1 766
1 703
1 687
1 389
1 523
1 233
929 1
74 1
8 1
1 50
1 87
42 1
1 463
1 1005
1 550
1 664
256 1
1 1156
232 1
1 192
1 987
1 1060
1 555
1 623
537 1
1061 1
1 865
1 790
879 1
1 1185
1 201
561 1
1 280
1 268
1 221
1 924
466 1
1 333
1017 1
1 177
931 1
470 1
671 1
1 296
1176 1
1216 1
522 1
1 1149
1 1172
581 1
430 1
1 1128
1 257
1 1064
120 1
1 426
72 1
100 1
1 216
1 676
1 122
1 675
200 1
665 1
432 1
1 614
137 1
1 704
1210 1
1 998
1 1222
957 1
1 81
912 1
1 155
1 528
445 1
1 210
839 1
1 990
1 1180
1 6
867 1
762 1
1 353
427 1
111 1
1 707
512 1
117 1
1 817
721 1
171 1
110 1
478 1
497 1
448 1
1 874
449 1
988 1
1 238
1 690
1 597
1 567
579 1
1 1140
1 877
534 1
209 1
1 419
771 1
1 752
1 188
540 1
1 683
745 1
1 498
1 985
1 1075
329 1
734 1
1 584
324 1
1 300
1 295
1 45
1 508
1 594
1046 1
1 182
418 1
1221 1
751 1
1 996
1 575
1 616
986 1
1 818
1 1125
62 1
1 441
729 1
967 1
1 913
88 1
51 1
1 288
1 80
1 180
354 1
1178 1
1020 1
1 961
1 566
1 346
1 1173
1 79
628 1
627 1
90 1
1 1209
981 1
590 1
1 20
1123 1
519 1
184 1
806 1
335 1
1 338
217 1
1 836
1 670
618 1
1212 1
309 1
1 976
1 963
1 1205
543 1
1 172
1 974
1 129
1 472
755 1
119 1
1 565
272 1
1 1044
831 1
1 833
1 1102
1 1214
994 1
1 626
71 1
652 1
1 197
1 187
1 143
578 1
409 1
21 1
1 516
443 1
1 399
1 284
1 1052
1 4
1 227
1 699
632 1
398 1
1 1081
1 373
1030 1
542 1
1 493
841 1
1 347
1 225
206 1
829 1
1 611
1 1069
760 1
1 236
536 1
1 1080
710 1
647 1
1 380
1 906
1 287
780 1
1012 1
140 1
1023 1
510 1
297 1
1 1227
1 1134
595 1
1189 1
1 2
1 995
1 1068
582 1
546 1
1 802
1 646
1 1043
1 854
291 1
457 1
1 467
881 1
1 368
1 792
601 1
1 964
905 1
1093 1
1 1022
604 1
1 162
1 856
167 1
1 1047
859 1
954 1
421 1
620 1
1 787
1226 1
24 1
1 1065
718 1
316 1
568 1
1 557
266 1
306 1
1 788
797 1
1 455
1 147
1 1111
1136 1
1 28
1 775
1 749
1 14
1 895
1041 1
1 915
1 452
30 1
12 1
492 1
1 784
1 374
1 249
1 532
146 1
1 500
1 251
1 548
1 270
345 1
176 1
230 1
99 1
966 1
222 1
1 719
1 166
1 1202
1 848
1 514
425 1
577 1
862 1
1 485
1 482
645 1
1174 1
1103 1
160 1
1 1004
1159 1
821 1
1 240
691 1
673 1
794 1
1 109
1 778
742 1
980 1
279 1
363 1
835 1
33 1
838 1
666 1
1 252
271 1
1131 1
303 1
75 1
422 1
613 1
1 1049
436 1
1194 1
439 1
1 336
1 387
92 1
1158 1
1 487
1 1215
1039 1
1 529
1 401
1 358
196 1
888 1
901 1
199 1
621 1
1 799
803 1
1 186
244 1
1 849
1163 1
650 1
979 1
44 1
223 1
667 1
89 1
1 269
1 509
1 153
610 1
376 1
1 533
1 191
962 1
1095 1
1 863
260 1
1 659
1 305
858 1
795 1
1 899
1048 1
1 693
853 1
1 891
977 1
1 949
1 384
1 950
1 641
1 1099
175 1
1 935
725 1
1053 1
350 1
732 1
1169 1
894 1
1 715
1 847
1058 1
1171 1
1 1126
1 138
1 779
920 1
1 456
1 1059
890 1
728 1
1 870
657 1
593 1
1 247
934 1
1 364
808 1
1 1063
1 259
1 1211
1 605
1032 1
585 1
229 1
1 314
1 884
569 1
475 1
386 1
1 5
1 624
944 1
1 629
63 1
104 1
1 1050
807 1
562 1
1113 1
1 158
77 1
1 204
1 746
1 904
198 1
1 941
1 842
1073 1
615 1
1 124
1 255
1 127
321 1
1 945
926 1
1 174
609 1
866 1
1027 1
121 1
789 1
112 1
1 948
102 1
10 1
1 982
1 871
1010 1
1 202
1 318
1 1153
130 1
1 970
1 161
1 342
1 756
289 1
1192 1
837 1
382 1
1 925
369 1
1 763
1 1097
1184 1
1 149
553 1
1 454
273 1
1 274
737 1
1 798
897 1
447 1
846 1
248 1
1 213
1130 1
1033 1
777 1
1 1038
1 655
1 631
958 1
1164 1
59 1
435 1
648 1
1 653
1151 1
1 97
1 214
1 340
1 181
1 918
541 1
1181 1
83 1
1 921
1 1076
1 433
1 484
1 942
1 820
1 352
978 1
1 612
1 414
1 630
1 875
311 1
815 1
791 1
11 1
37 1
1 82
1 1055
563 1
1 480
1 782
1 142
411 1
1 413
444 1
320 1
898 1
1118 1
1066 1
1 517
1 520
370 1
1 41
1051 1
1 599
434 1
1 576
170 1
1 1220
1 360
960 1
1110 1
315 1
663 1
1 518
544 1
1162 1
1182 1
1 662
1 1201
531 1
1 372
134 1
245 1
1 250
1 896
1 860
1 1167
1 261
672 1
684 1
1 312
1 317
1 327
1 902
697 1
971 1
107 1
1 93
258 1
1 1021
31 1
473 1
1 1024
1135 1
654 1
304 1
1 753
1 1003
1191 1
113 1
267 1
1 764
678 1
1 1138
1 878
947 1
1 442
193 1
1 873
460 1
437 1
1 892
1025 1
1 939
1 832
785 1
451 1
361 1
1 278
640 1
658 1
1 325
1 339
1 1101
1 1018
724 1
1 1193
1 469
1122 1
521 1
1 450
1 883
759 1
1115 1
1160 1
770 1
1114 1
1177 1
1 713
1 392
741 1
1079 1
234 1
1 1108
617 1
139 1
851 1
1 953
194 1
1 1117
1 40
1119 1
1 893
1 403
282 1
1 301
118 1
735 1
1 1137
1 103
1 774
1218 1
1 334
571 1
1 145
1 365
527 1
1 946
1 285
1 809
57 1
1219 1
15 1
1 362
1078 1
1 602
1 524
1165 1
1 696
2 3
1 477
220 1
1 943
417 1
1 740
264 1
1 933
468 1
1 1199
681 1
1 60
1 1074
381 1
1 64
1 22
1 298
700 1
1 1179
73 1
481 1
1 1035
1 781
1 507
1 644
549 1
1015 1
1 1170
1 736
179 1
116 1
1203 1
1 772
722 1
1 1207
811 1
1144 1
378 1
1 1094
1 720
983 1
1 9
783 1
1 1090
293 1
1 816
1141 1
65 1
1 844
1 545
1 458
1 559
649 1
1 308
322 1
1 125
205 1
483 1
907 1
810 1
1 123
1 1071
1 503
400 1
1 679
919 1
156 1
1054 1
930 1
490 1
453 1
402 1
203 1
786 1
1 908
1 136
1 922
1 991
35 1
23 1
1 141
1 733
215 1
476 1
1 1083
1 1002
1 55
1 1148
1 1011
1 504
1 394
1 150
1 869
689 1
1 570
132 1
489 1
852 1
1 131
1 56
1147 1
228 1
1155 1
1 377
371 1
1 1104
49 1
706 1
383 1
1188 1
1 135
805 1
1 43
993 1
923 1
1 148
940 1
326 1
1 1036
1 813
1 525
1 539
393 1
1228 1
465 1
1109 1
694 1
1183 1
1 560
827 1
668 1
385 1
231 1
1 1062
1 583
1 114
1 101
1 1000
239 1
1 415
1 16
1 969
1 84
1037 1
292 1
1 701
1190 1
1 928
237 1
1 776
1 738
1040 1
208 1
126 1
242 1
765 1
1 633
151 1
1 34
1 1116
1 332
502 1
1092 1
1 674
91 1
1 1197
1 1166
1 299
1 596
1142 1
709 1
796 1
1 464
390 1
743 1
1 479
989 1
889 1
1 235
1 558
1096 1
1 843
1 716
1 190
46 1
1 1230
1085 1
1 1098
1 356
1 692
94 1
1204 1
1 1213
157 1
1 189
1 1143
651 1
1 253
1 1120
52 1
515 1
1 598
804 1
580 1
348 1
416 1
1 53
1 750
1 600
1 219
1 501
1 731
1 471
1 1086
1225 1
622 1
927 1
1 826
76 1
212 1
1 106
767 1
1 916
1082 1
1 911
1 1057
1 66
800 1
1 999
1 677
499 1
1 603
429 1
1 1019
708 1
1 1124
748 1
67 1
1077 1
845 1
169 1
1 47
1 319
1 424
1 1089
323 1
61 1
1 275
1129 1
341 1
1 69
183 1
1195 1
13 1
1 17
54 1
1 405
1 78
1 984
1 872
1 882
68 1
768 1
1 1127
1 1157
1 1139
714 1
1 814
1070 1
1 864
1 861
1 855
1 685
1 367
1 535
226 1
1 491
70 1
955 1
1 705
764 728 172
1 410
1 409
1 281
630 1
192 1
1 118
1 403
303 1
267 1
1 56
1 470
1 107
1 358
1 236
1 225
1 392
49 1
1 136
1 695
1 317
1 561
1 184
1 47
538 1
388 1
1 731
761 1
1 764
1 420
391 1
1 147
1 427
380 1
174 1
381 1
1 715
1 569
573 1
1 256
657 1
1 214
527 1
473 1
1 352
239 1
164 1
1 231
1 574
1 169
453 1
76 1
1 98
1 401
1 13
487 1
96 1
338 1
1 551
1 725
94 1
671 1
130 1
112 1
1 204
560 1
185 1
203 1
1 312
1 95
379 1
1 111
1 226
1 188
1 219
54 1
1 131
1 464
1 599
1 540
1 627
367 1
363 1
213 1
268 1
66 1
1 79
557 1
102 1
1 459
1 7
1 584
644 1
210 1
387 1
1 30
595 1
360 1
732 1
330 1
1 664
1 275
1 73
528 1
323 1
594 1
1 12
142 1
756 1
1 62
656 1
296 1
579 1
1 466
1 477
319 1
125 1
1 568
1 40
1 655
1 179
334 1
1 11
81 1
1 87
1 315
1 440
1 237
265 1
441 1
1 314
1 10
1 394
1 294
1 621
1 20
677 1
386 1
1 18
279 1
292 1
738 1
1 172
1 32
1 506
1 34
293 1
1 180
53 1
719 1
6 1
652 1
332 1
1 368
1 255
1 148
122 1
1 183
1 262
1 60
1 701
454 1
1 755
266 1
1 558
349 1
1 653
1 713
35 1
1 36
1 200
1 750
679 1
273 1
1 691
1 617
1 290
1 8
543 1
509 1
504 1
606 1
331 1
636 1
348 1
1 659
55 1
737 1
1 324
513 1
209 1
516 1
1 245
1 195
1 390
1 340
1 191
1 246
39 1
220 1
1 544
1 532
474 1
673 1
194 1
686 1
1 605
337 1
15 1
1 518
1 22
1 676
1 698
564 1
1 5
71 1
1 123
85 1
1 77
1 745
600 1
548 1
170 1
1 283
1 26
1 4
555 1
1 708
1 253
1 549
286 1
493 1
1 471
624 1
1 356
1 666
1 228
1 63
269 1
206 1
347 1
1 92
545 1
1 707
1 598
233 1
1 663
212 1
508 1
1 748
562 1
140 1
1 593
1 503
1 366
589 1
458 1
1 757
536 1
1 500
1 9
1 649
1 84
44 1
505 1
1 559
1 424
1 721
1 375
1 674
309 1
109 1
1 86
128 1
1 685
1 280
38 1
577 1
1 162
1 329
1 74
727 1
1 488
431 1
406 1
495 1
252 1
1 103
357 1
91 1
160 1
422 1
1 535
580 1
272 1
90 1
531 1
1 552
1 407
1 547
385 1
483 1
232 1
247 1
1 150
1 108
263 1
581 1
433 1
301 1
1 143
1 682
1 647
1 229
369 1
1 485
1 697
1 610
537 1
1 628
1 234
354 1
1 311
497 1
1 151
1 393
1 68
1 724
607 1
249 1
104 1
176 1
1 242
1 313
167 1
306 1
1 521
1 752
105 1
1 146
1 224
703 1
718 1
1 566
1 423
1 307
1 563
1 376
1 730
740 1
597 1
342 1
78 1
1 741
297 1
640 1
1 116
1 704
270 1
651 1
1 486
1 539
371 1
1 370
425 1
710 1
1 603
384 1
135 1
1 254
1 19
1 133
646 1
1 570
1 399
615 1
1 45
300 1
1 546
654 1
714 1
42 1
596 1
451 1
1 101
1 522
478 1
1 618
1 626
1 631
260 1
1 763
190 1
432 1
625 1
632 1
1 187
1 99
1 567
119 1
1 243
1 93
1 668
1 258
1 700
1 702
21 1
1 661
1 482
345 1
641 1
1 346
1 141
336 1
3 2
722 1
1 587
511 1
530 1
1 608
400 1
1 469
1 58
490 1
1 578
1 153
1 223
576 1
1 484
1 709
72 1
1 208
1 396
622 1
751 1
221 1
501 1
333 1
601 1
1 59
1 178
582 1
739 1
1 145
1 553
629 1
1 152
645 1
1 16
121 1
382 1
1 361
476 1
155 1
1 198
435 1
517 1
383 1
405 1
70 1
1 17
1 414
1 461
687 1
25 1
1 749
684 1
335 1
1 144
1 398
1 602
1 372
442 1
230 1
161 1
1 706
1 52
31 1
158 1
1 321
1 278
1 583
604 1
1 642
445 1
157 1
1 726
1 762
494 1
690 1
1 754
658 1
1 199
446 1
80 1
218 1
492 1
201 1
1 276
259 1
1 328
1 364
1 28
1 304
1 670
113 1
614 1
498 1
1 373
1 322
635 1
1 126
216 1
1 189
205 1
1 524
699 1
326 1
82 1
139 1
88 1
325 1
1 365
43 1
202 1
514 1
1 430
97 1
1 572
197 1
1 2
1 590
525 1
154 1
1 411
27 1
633 1
1 523
1 717
637 1
1 586
1 173
1 716
489 1
1 694
378 1
1 723
1 418
168 1
1 744
1 106
1 648
1 667
571 1
1 475
1 318
1 67
1 496
683 1
1 728
295 1
65 1
669 1
1 491
1 729
1 472
227 1
692 1
550 1
681 1
1 437
1 238
1 261
1 257
734 1
1 760
1 529
1 502
1 285
344 1
100 1
520 1
1 623
137 1
1 759
397 1
733 1
747 1
1 743
1 448
1 479
33 1
320 1
519 1
1 282
1 672
1 712
1 251
1 515
696 1
1 462
1 643
1 181
1 299
75 1
1 166
688 1
355 1
1 443
541 1
611 1
1 639
1 289
186 1
678 1
404 1
359 1
1 662
1 115
402 1
533 1
1 591
24 1
481 1
499 1
1 327
1 244
1 426
134 1
308 1
1 463
29 1
211 1
575 1
507 1
1 609
1 240
1 416
592 1
1 41
353 1
1 542
447 1
248 1
638 1
1 457
46 1
1 120
250 1
1 222
196 1
1 37
1 585
742 1
377 1
1 467
1 512
48 1
1 619
1 182
159 1
456 1
1 534
175 1
1 680
1 57
110 1
287 1
89 1
50 1
665 1
1 339
1 565
1 117
1 415
288 1
413 1
1 468
1 616
1 460
1 421
264 1
1 450
510 1
1 612
284 1
298 1
235 1
408 1
51 1
556 1
434 1
1 362
758 1
132 1
1 343
274 1
138 1
1 650
1 438
1 350
693 1
1 64
660 1
588 1
452 1
429 1
1 439
163 1
207 1
1 705
217 1
1 310
1 69
1 127
83 1
480 1
1 302
1 735
389 1
156 1
351 1
1 114
1 193
61 1
1 271
1 526
675 1
1 149
1 753
1 165
177 1
419 1
1 428
1 449
1 711
4 3
374 1
720 1
1 341
1 620
171 1
395 1
305 1
124 1
1 215
1 455
613 1
1 436
1 291
417 1
1 277
1 316
1 689
1 444
1 736
1 465
1 241
23 1
1 634
1 554
1 14
129 1
746 1
1 412
1157 298 132
912 913
174 173
216 217
78 77
834 833
801 802
737 736
120 119
704 703
795 794
62 61
727 726
1026 1027
139 140
76 75
224 225
937 936
35 34
276 275
985 984
243 244
438 439
1035 1034
181 182
380 381
593 594
283 282
812 813
570 571
1109 1110
966 967
349 348
569 568
356 355
746 747
845 844
620 619
224 223
230 231
164 163
1148 1149
890 891
858 857
48 49
558 559
156 157
1057 1056
118 119
732 731
420 419
772 771
403 404
1131 1130
938 937
101 102
702 701
257 256
1105 1106
983 984
111 110
134 135
903 904
782 781
898 899
555 554
603 602
951 952
1129 1130
583 582
1072 1071
1121 1122
172 171
824 825
407 406
915 914
768 767
114 113
596 595
458 457
128 127
1122 1123
234 233
653 652
988 989
406 405
312 313
475 474
770 771
814 815
917 918
871 870
572 573
25 26
721 722
14 13
447 446
328 327
314 315
616 615
1039 1040
197 198
362 361
831 830
647 648
549 548
285 286
488 487
1081 1082
161 160
450 449
222 223
1145 1146
1064 1065
703 702
1146 1147
1056 1055
788 789
92 93
757 758
742 743
894 895
1020 1021
24 25
290 289
694 695
104 103
683 682
197 196
141 142
669 670
158 159
913 914
490 491
199 200
1009 1010
725 726
640 639
47 46
624 625
704 705
304 303
770 769
939 938
252 251
901 902
150 151
576 575
240 239
875 874
843 842
653 654
42 41
540 539
786 787
1002 1001
284 285
318 319
543 544
437 438
541 540
39 38
413 414
761 760
474 473
899 900
922 923
6 7
80 79
734 733
484 483
1084 1083
880 881
1149 1150
748 749
250 249
1091 1092
205 204
888 889
706 707
578 577
735 736
793 792
59 58
1032 1033
1007 1008
664 663
441 440
440 439
597 598
18 19
430 429
983 982
552 553
352 353
1024 1023
29 28
179 180
325 324
772 773
655 654
493 494
409 408
193 192
825 826
709 710
334 335
228 227
40 41
23 24
724 725
296 297
662 661
607 608
330 329
380 379
635 634
1094 1095
777 778
508 507
1060 1061
567 566
42 43
987 986
389 388
1031 1032
1103 1102
270 269
103 102
371 370
418 419
643 642
32 33
562 561
304 305
99 98
164 165
12 11
531 532
879 880
452 453
573 574
136 137
664 665
386 385
661 660
849 848
885 886
1013 1014
594 595
705 706
270 271
1043 1042
738 737
952 953
1039 1038
81 82
844 843
63 62
219 220
369 368
835 836
117 118
23 22
1036 1037
755 756
161 162
962 961
854 855
763 762
143 142
483 482
387 388
632 633
69 68
294 295
352 351
562 563
933 934
279 280
169 170
523 524
442 441
264 263
836 837
1151 1150
463 464
719 718
482 481
447 448
1119 1118
241 242
657 656
930 929
296 295
672 673
1093 1092
85 84
517 516
93 94
715 716
972 971
854 853
592 593
848 847
362 363
935 934
667 668
198 199
856 855
514 513
450 451
1087 1086
1020 1019
505 506
973 974
990 989
75 74
1086 1085
503 504
869 870
1079 1078
97 98
374 375
72 71
666 665
1113 1112
955 954
291 290
63 64
953 954
790 791
1072 1073
713 714
130 131
869 868
599 598
169 168
387 386
7 8
911 910
1157 1
588 587
692 693
159 160
137 138
577 576
1017 1018
912 911
423 422
1057 1058
960 959
674 675
776 777
477 478
927 928
55 54
463 462
1046 1045
174 175
1108 1109
237 238
1097 1096
1135 1134
850 851
256 255
91 90
671 670
820 819
1126 1127
920 919
627 628
627 626
502 501
390 389
904 905
266 267
452 451
496 497
891 892
824 823
53 52
939 940
672 671
400 401
472 471
399 400
1105 1104
689 690
467 468
642 641
391 390
258 257
542 541
523 522
1135 1136
73 72
392 393
819 818
589 588
680 679
624 623
645 646
834 835
278 279
826 827
105 106
9 10
807 808
185 184
88 87
469 468
365 364
602 601
950 951
709 708
1138 1139
803 804
545 546
347 348
22 21
618 619
171 170
292 293
1025 1026
61 60
976 975
99 100
621 622
211 212
1129 1128
83 82
165 166
154 155
240 241
544 545
797 796
964 965
305 306
1076 1077
793 794
1069 1070
976 977
525 526
560 559
325 326
947 946
265 264
428 429
613 614
616 617
162 163
590 591
456 457
963 962
227 226
277 278
949 948
313 314
1052 1051
931 930
204 203
276 277
686 685
183 182
734 735
341 340
708 707
405 404
464 465
176 177
78 79
691 692
184 183
894 893
131 132
996 995
1113 1114
797 798
557 558
6 5
486 485
460 461
945 944
1012 1013
315 316
846 845
1007 1006
4 5
253 252
195 194
181 180
1110 1111
863 864
557 556
986 985
95 96
1099 1098
1033 1034
1054 1053
656 655
343 342
145 144
718 717
1142 1143
10 11
155 156
84 83
733 732
752 753
766 765
339 340
1156 1157
700 699
384 383
933 932
693 694
1089 1090
212 213
1029 1030
301 302
209 210
20 19
897 896
410 411
906 907
281 280
357 356
454 455
437 436
800 801
883 882
395 394
1006 1005
579 578
471 470
120 121
1116 1117
1059 1058
345 346
1 2
245 244
106 107
53 54
239 238
39 40
16 17
659 660
337 338
185 186
711 712
853 852
646 647
991 992
456 455
1127 1128
191 190
685 684
722 723
117 116
18 17
357 358
978 977
527 528
553 554
831 832
731 730
649 648
636 637
842 841
560 561
55 56
378 379
491 492
1121 1120
799 798
698 697
248 247
796 795
306 307
920 921
898 897
822 821
89 88
888 887
997 998
802 803
489 488
230 229
678 679
275 274
747 748
1073 1074
568 567
250 251
298 299
1063 1062
688 689
1137 1136
780 781
841 840
867 866
179 178
175 176
247 246
585 586
96 97
511 512
941 940
360 359
81 80
320 319
754 755
324 323
514 515
128 129
699 698
424 425
522 521
1029 1028
955 956
915 916
792 791
206 205
433 434
659 658
123 122
47 48
202 201
233 232
195 196
302 303
493 492
500 501
780 779
873 874
147 148
310 309
262 263
309 308
749 750
122 121
1071 1070
821 820
1045 1044
1044 1043
14 15
1028 1027
640 641
769 768
346 347
1140 1141
999 1000
499 498
1101 1100
246 245
92 91
1101 1102
901 900
860 859
189 190
600 601
56 57
473 472
58 57
485 484
359 358
932 931
518 519
1107 1106
3 4
508 509
173 172
628 629
396 395
378 377
1060 1059
1115 1114
1111 1112
65 64
877 876
449 448
530 529
687 686
392 391
775 774
1097 1098
677 678
291 292
1047 1046
1132 1131
253 254
759 758
574 575
1096 1095
517 518
101 100
237 236
505 504
918 919
311 310
947 948
701 700
959 958
829 828
66 67
499 500
817 816
921 922
1031 1030
351 350
875 876
133 134
166 167
630 629
1156 1155
746 745
349 350
778 779
633 634
610 609
1084 1085
479 478
618 617
1139 1140
322 323
620 621
1024 1025
129 130
765 764
884 885
12 13
564 565
695 696
830 829
29 30
144 143
32 31
924 925
604 605
149 150
582 581
344 345
538 537
1145 1144
398 397
1079 1080
817 818
688 687
775 776
828 827
133 132
369 370
427 426
336 337
422 421
535 536
273 274
384 385
45 46
466 465
341 342
563 564
963 964
838 837
187 188
650 651
606 605
868 867
221 220
228 229
751 750
1137 1138
498 497
286 287
1132 1133
512 513
399 398
873 872
608 609
822 823
570 569
206 207
584 583
410 409
37 38
839 838
949 950
519 520
476 477
442 443
674 673
381 382
833 832
907 908
528 529
372 371
415 414
1003 1002
926 925
981 982
1014 1015
787 788
375 376
1062 1061
1151 1152
77 76
1064 1063
690 691
444 445
1144 1143
548 547
926 927
987 988
396 397
981 980
804 805
909 908
112 113
288 289
1035 1036
418 417
967 968
546 547
584 585
1141 1142
864 865
446 445
840 839
116 115
60 59
631 630
960 961
743 744
460 459
555 556
1068 1067
287 288
469 470
1010 1011
520 521
883 884
44 45
909 910
271 272
525 524
1009 1008
782 783
153 152
566 565
268 267
943 944
811 812
1054 1055
366 367
1074 1075
366 365
957 958
816 815
444 443
1123 1124
1148 1147
192 191
354 355
307 308
37 36
334 333
344 343
125 126
1065 1066
1049 1050
44 43
248 249
1126 1125
1018 1019
516 515
903 902
1115 1116
666 667
534 535
1016 1017
87 86
1042 1041
284 283
154 153
226 225
762 761
643 644
140 141
312 311
631 632
966 965
70 71
149 148
114 115
85 86
580 581
809 808
402 401
50 51
681 680
21 20
411 412
592 591
261 262
28 27
73 74
1083 1082
338 339
675 676
467 466
856 857
974 975
760 759
219 218
1089 1088
201 200
506 507
766 767
1037 1038
265 266
720 721
625 626
806 807
510 511
858 859
551 550
945 946
193 194
998 999
189 188
109 110
107 108
413 412
811 810
1099 1100
1016 1015
862 861
89 90
534 533
124 125
612 613
860 861
1023 1022
65 66
177 178
995 994
336 335
216 215
973 972
476 475
300 301
1000 1001
1107 1108
269 268
2 3
997 996
757 756
978 979
740 741
376 377
168 167
104 105
970 969
272 273
124 123
727 728
526 527
1012 1011
717 716
146 147
1080 1081
95 94
425 426
489 490
1153 1154
805 806
109 108
723 724
813 814
550 549
321 322
738 739
533 532
753 754
810 809
31 30
317 316
329 328
1152 1153
146 145
494 495
741 742
510 509
580 579
1091 1090
590 589
222 221
586 587
260 259
740 739
917 916
317 318
784 785
243 242
851 852
361 360
1053 1052
1005 1004
202 203
929 928
597 596
992 993
16 15
68 67
957 956
127 126
942 941
1155 1154
486 487
684 683
942 943
459 458
603 604
208 207
572 571
417 416
1103 1104
979 980
536 537
610 611
480 481
403 402
1069 1068
638 637
715 714
751 752
783 784
213 214
1004 1003
49 50
393 394
1049 1048
652 651
383 382
682 681
730 729
261 260
320 321
1093 1094
697 696
136 135
433 432
799 800
33 34
539 538
599 600
431 432
234 235
281 282
332 333
871 872
293 294
990 991
893 892
255 254
1076 1075
850 849
435 434
896 895
454 453
211 210
866 865
877 878
994 993
889 890
9 8
259 258
622 623
645 644
1067 1066
416 415
846 847
431 430
297 298
887 886
936 935
480 479
669 668
543 542
882 881
235 236
531 530
428 427
923 924
218 217
1041 1040
408 407
496 495
968 969
300 299
27 26
373 372
729 728
712 713
138 139
745 744
786 785
423 424
368 367
676 677
152 151
552 551
1118 1117
1048 1047
231 232
763 764
1119 1120
611 612
421 420
639 638
720 719
503 502
658 657
1133 1134
214 215
662 663
364 363
69 70
209 208
112 111
1022 1021
649 650
862 863
971 970
879 878
711 710
332 331
374 373
607 606
790 789
327 326
36 35
353 354
186 187
1077 1078
1050 1051
51 52
1087 1088
436 435
1125 1124
615 614
461 462
774 773
905 906
331 330
635 636
158 157
752 321 633
223 224
193 194
200 199
269 268
485 484
334 335
423 424
19 18
545 546
609 610
155 154
602 603
73 72
217 218
640 639
49 48
469 470
250 249
142 141
427 426
296 297
612 613
346 345
89 90
654 655
512 511
466 465
337 336
255 256
431 430
106 107
305 304
398 397
4 379
253 254
749 750
156 157
580 581
391 392
740 741
471 470
250 251
520 521
456 457
637 636
514 513
30 29
632 633
364 365
1 2
489 490
159 158
732 731
210 211
279 278
713 712
204 203
562 561
708 707
571 572
167 168
633 634
605 606
404 403
495 496
402 401
538 539
315 316
631 632
146 145
726 727
746 745
652 651
530 529
623 624
369 370
333 334
165 166
67 68
243 242
500 499
570 569
584 583
608 607
282 283
291 290
489 488
348 347
692 693
134 133
205 204
646 645
675 674
319 320
638 639
241 240
387 386
311 310
329 330
237 238
55 56
574 575
92 93
133 132
661 662
348 349
78 77
247 246
378 377
726 725
717 716
541 542
144 143
398 399
452 453
630 631
610 611
660 661
510 511
473 474
660 659
176 177
27 28
198 199
3 2
419 420
484 483
493 492
536 535
481 480
293 292
283 284
279 280
288 287
11 10
416 415
300 299
669 670
128 127
313 314
394 395
353 354
175 174
111 110
415 414
249 248
278 277
116 115
13 12
414 413
432 431
452 451
1 7
282 281
264 265
551 550
5 503
751 750
41 42
100 101
662 663
479 478
497 496
164 165
168 169
16 17
525 524
552 551
239 240
516 515
9 10
421 422
688 689
201 202
338 339
455 456
509 508
95 96
59 60
392 393
625 626
448 449
319 318
380 379
697 696
178 177
464 463
286 285
487 488
201 200
519 518
665 666
58 59
729 728
645 644
454 455
358 357
69 68
162 163
447 446
45 46
474 475
196 195
702 703
317 318
316 317
630 629
462 461
672 671
697 698
646 647
309 308
668 667
751 752
505 506
98 99
221 222
466 467
371 372
538 537
137 138
328 327
107 108
491 492
305 306
134 135
302 303
116 117
75 74
450 451
548 547
408 407
228 227
29 28
429 430
244 243
526 525
26 25
685 686
501 500
604 605
44 45
76 77
591 592
421 420
664 665
83 84
479 480
599 600
76 75
335 336
162 161
184 183
341 342
327 326
504 503
729 730
374 375
180 179
544 545
647 648
215 216
307 306
312 313
211 212
325 324
616 617
118 119
363 362
464 465
244 245
748 747
219 220
47 48
597 596
302 301
462 463
523 524
272 271
61 60
136 137
694 695
536 537
442 441
709 708
330 331
556 555
458 459
649 650
565 566
364 363
390 389
229 230
88 87
382 381
139 140
257 256
450 449
418 417
494 495
109 110
678 679
12 11
152 153
424 425
185 186
280 281
684 685
187 188
85 84
396 397
6 1
43 42
506 507
222 223
36 37
438 439
674 673
502 501
16 15
290 289
88 89
271 270
274 275
404 405
156 155
131 132
307 308
19 20
711 712
261 260
477 478
113 114
641 640
337 338
543 542
217 216
342 343
643 644
119 120
746 747
356 357
351 352
232 231
684 683
471 472
571 570
173 174
521 522
215 214
233 234
628 6
170 169
721 720
412 413
418 419
367 366
108 109
202 203
742 741
172 171
361 362
602 601
433 432
635 636
27 26
442 443
513 512
70 71
734 733
555 554
723 724
30 31
615 614
181 182
368 367
436 437
92 91
423 422
735 734
112 113
572 573
252 253
265 266
395 396
705 704
292 291
412 411
44 43
515 514
586 587
355 354
562 563
453 454
567 568
722 723
739 738
700 701
590 591
127 126
748 749
17 18
558 559
154 153
376 377
189 190
51 50
191 190
355 356
498 499
58 57
689 690
34 35
384 383
167 166
589 588
358 359
66 65
468 467
298 299
576 575
504 505
510 509
593 592
527 526
410 409
686 687
648 649
428 427
115 114
490 491
458 457
374 373
138 139
687 688
621 622
376 375
658 659
670 671
24 25
346 347
262 263
679 680
191 192
540 541
129 130
435 434
260 259
226 227
160 159
228 229
236 235
353 352
207 206
613 614
560 559
224 225
180 181
351 350
350 349
388 387
585 584
309 310
507 508
320 321
285 284
677 676
295 294
268 267
50 49
149 150
558 557
561 560
277 276
144 145
574 573
672 673
66 67
236 237
428 429
433 434
582 581
219 218
61 62
293 294
650 651
739 740
677 678
22 21
372 373
262 261
698 699
579 580
198 197
173 172
213 212
52 51
131 2
481 482
725 724
120 121
493 494
196 197
416 417
123 122
300 301
589 590
24 23
568 569
676 675
380 381
657 658
135 136
121 122
315 314
171 170
406 407
63 62
468 469
288 289
63 64
39 38
638 637
274 273
205 206
78 79
578 579
106 105
98 97
213 214
534 535
295 296
735 736
13 14
210 209
556 557
609 608
730 731
385 384
33 34
667 666
185 184
691 690
443 444
382 383
617 618
737 736
548 549
445 446
31 32
618 619
550 549
714 713
485 486
528 529
104 105
393 394
406 405
69 70
447 448
5 6
74 73
149 148
682 683
175 176
439 440
472 473
577 576
719 718
38 37
634 635
3 4
242 241
709 710
267 266
487 486
96 97
656 655
593 594
554 553
476 477
461 460
533 532
5 4
192 193
701 702
208 209
544 543
83 82
147 148
711 710
178 179
642 643
703 704
566 567
220 221
187 186
117 118
517 516
345 344
93 94
719 720
158 157
39 40
344 343
475 476
620 621
693 694
311 312
264 263
696 695
124 125
653 652
440 441
642 641
57 56
328 329
258 259
527 528
742 743
403 402
681 682
86 85
518 517
54 55
94 95
341 340
706 705
369 368
600 601
272 273
700 699
150 151
715 714
99 100
91 90
275 276
231 230
103 104
80 79
657 656
332 331
322 323
270 269
547 546
563 564
531 530
582 583
286 287
23 22
360 359
668 669
226 225
385 386
564 565
238 239
9 8
737 738
553 552
680 681
141 140
728 727
716 715
52 53
325 326
707 706
370 371
400 399
195 194
391 390
103 102
498 497
622 623
628 629
111 112
365 366
142 143
297 298
691 692
208 207
40 41
125 126
332 333
188 189
519 520
255 3
247 248
102 101
445 444
123 124
594 595
627 626
411 410
46 47
232 233
598 599
160 161
361 360
87 86
339 340
53 54
663 664
389 388
460 459
721 722
654 653
437 438
15 14
733 732
595 596
408 409
400 401
147 146
612 611
72 71
81 80
540 539
718 717
152 151
744 743
531 532
81 82
426 425
624 625
604 603
35 36
128 129
436 435
7 8
304 303
163 164
257 258
324 323
251 252
235 234
607 606
597 598
587 588
32 33
20 21
182 183
745 744
585 586
616 615
483 482
522 523
577 578
246 245
619 620
64 65
321 322
533 534
862 633 469
27 26
642 643
662 663
23 22
773 774
834 835
463 462
701 700
322 321
582 581
9 8
615 614
378 377
845 846
576 577
559 560
251 252
438 439
741 742
259 260
583 584
271 272
857 856
238 237
342 343
596 597
855 854
732 731
161 162
40 39
262 263
590 589
125 126
369 370
675 674
675 676
85 86
78 79
715 716
592 593
679 678
630 631
448 449
134 135
367 366
401 400
624 623
562 561
60 61
208 209
282 283
755 754
411 410
436 435
399 398
473 472
807 808
315 316
164 163
490 489
420 419
340 339
190 189
544 545
521 522
415 416
158 157
493 492
724 723
246 247
571 570
696 695
275 274
798 799
498 499
46 45
309 308
593 594
353 354
297 298
6 7
836 835
612 611
702 701
574 573
760 759
269 270
446 445
193 194
830 831
424 423
488 489
283 284
221 220
555 554
306 305
466 465
590 591
672 671
151 150
847 846
710 709
257 258
30 29
261 262
681 680
349 348
600 601
685 684
184 183
552 551
605 606
242 243
287 288
300 299
90 89
515 516
142 143
796 795
456 455
40 41
306 307
5 4
859 860
43 42
133 134
358 359
555 556
858 857
844 845
544 543
229 228
231 230
36 35
132 133
268 267
619 620
177 178
319 318
334 335
793 794
212 213
532 531
767 766
559 558
486 485
93 94
127 126
375 376
800 799
695 694
81 82
683 682
99 98
206 205
363 364
558 557
129 128
114 113
370 371
61 62
350 351
438 437
362 361
17 16
5 6
658 659
844 843
767 768
554 553
285 286
166 165
668 669
149 150
109 110
717 718
107 108
124 125
413 412
529 530
491 492
406 407
264 265
117 118
293 292
531 530
183 182
414 415
728 727
153 154
56 57
23 24
753 754
443 442
71 72
196 197
274 273
721 722
148 147
465 464
848 847
812 811
80 79
276 277
819 820
13 14
611 610
346 345
431 432
96 97
762 761
804 803
146 147
633 634
578 577
626 625
861 862
525 526
484 485
536 537
519 520
404 405
384 385
853 852
301 300
332 333
364 365
642 641
541 540
405 406
75 74
751 750
387 386
664 665
800 801
636 635
112 111
142 141
823 824
198 197
500 501
172 173
386 385
116 117
720 721
338 339
1 2
556 557
441 442
102 101
597 598
85 84
13 12
83 82
781 782
725 724
546 545
203 204
853 854
567 566
579 578
747 746
501 502
393 394
517 516
603 602
533 532
421 420
159 158
65 64
572 571
632 631
131 132
241 242
804 805
290 291
103 104
233 232
78 77
765 764
637 638
317 318
203 202
18 19
473 474
608 609
672 673
737 738
518 517
697 698
294 293
392 391
657 658
795 794
452 453
736 737
525 524
28 27
14 15
65 66
246 245
186 187
249 248
448 447
397 396
275 276
53 54
95 94
245 244
52 51
650 651
163 162
284 285
497 496
116 115
742 743
328 327
460 459
398 397
247 248
136 135
539 538
359 360
607 606
280 281
204 205
289 288
479 480
457 456
479 478
599 600
224 225
535 534
131 130
541 542
18 17
809 808
59 58
817 818
730 731
55 54
843 842
523 524
629 630
411 412
821 822
236 235
858 859
716 717
714 713
199 200
488 487
652 651
533 534
838 837
433 434
422 421
358 357
84 83
537 538
612 613
789 788
344 343
626 627
11 12
851 850
756 757
70 69
143 144
146 145
707 706
102 103
212 211
290 289
320 321
636 637
720 719
604 603
175 174
821 820
24 25
772 771
677 676
703 702
258 259
377 376
379 378
608 607
31 30
200 201
68 69
806 805
751 752
704 705
15 16
474 475
121 122
495 494
261 260
851 852
188 189
21 22
582 583
618 617
817 816
207 208
727 726
739 740
445 444
137 136
51 50
403 404
32 31
432 433
37 36
686 685
161 160
654 653
713 712
52 53
668 667
451 452
271 270
254 253
277 278
118 119
124 123
487 486
429 428
482 483
699 698
87 88
220 219
171 170
409 410
140 141
441 440
585 584
564 565
335 336
514 513
587 588
660 661
235 234
180 179
107 106
797 796
666 667
527 528
543 542
595 594
355 354
842 841
33 32
782 783
840 839
148 149
67 68
775 774
719 718
710 711
374 373
679 680
192 193
344 345
120 121
273 272
253 252
337 338
156 155
529 528
623 622
381 382
314 315
234 233
76 75
176 175
240 241
38 37
170 169
750 749
363 362
772 773
123 122
218 217
237 236
547 546
677 678
381 380
172 171
379 380
226 227
390 391
214 213
665 666
20 21
477 478
661 662
620 621
334 333
573 572
470 471
811 810
7 8
563 562
278 279
768 769
689 688
522 523
647 646
167 166
599 598
198 199
497 498
41 42
47 48
304 303
10 11
692 691
312 313
29 28
639 638
355 356
791 790
829 830
71 70
568 567
711 712
58 57
112 113
2 3
228 227
88 89
329 328
63 64
99 100
655 654
496 495
239 238
454 455
548 547
708 709
92 93
673 674
793 792
225 226
500 499
732 733
365 366
765 766
257 256
331 330
326 325
575 576
280 279
402 401
505 506
482 481
476 475
184 185
540 539
311 310
449 450
789 790
595 596
510 509
470 469
687 686
733 734
813 814
770 771
507 506
841 840
648 647
458 459
484 483
180 181
436 437
188 187
828 829
254 255
416 417
129 130
703 704
95 96
561 560
138 137
80 81
240 239
331 332
770 769
164 165
591 592
570 569
549 550
77 76
670 669
177 176
9 10
757 758
400 399
802 801
90 91
585 586
396 395
292 291
650 649
196 195
513 512
814 815
156 157
739 738
823 822
201 202
649 648
624 625
178 179
414 413
222 221
426 427
304 305
114 115
425 424
671 670
579 580
323 322
735 736
210 211
105 106
461 460
832 831
368 369
451 450
440 439
457 458
314 313
468 469
615 616
326 327
92 91
168 167
389 390
632 633
855 856
34 35
351 352
683 684
776 775
342 341
39 38
153 152
837 836
4 3
392 393
776 777
604 605
20 19
511 510
693 692
308 307
428 427
601 602
741 740
755 756
48 49
691 690
640 641
155 154
185 186
824 825
323 324
46 47
317 316
697 696
340 341
491 490
265 266
747 748
353 352
26 25
735 734
746 745
838 839
806 807
810 809
827 826
656 655
833 832
783 784
67 66
813 812
784 785
244 243
521 520
748 749
250 251
45 44
230 229
569 568
144 145
418 417
644 645
715 714
49 50
119 120
743 744
550 551
223 222
394 395
256 255
515 514
56 55
752 753
681 682
311 312
298 299
268 269
63 62
616 617
565 566
728 729
402 403
139 138
653 652
503 504
216 217
798 797
462 461
302 303
476 477
346 347
580 581
762 763
639 640
763 764
708 707
468 467
505 504
350 349
629 628
588 589
210 209
786 785
536 535
818 819
128 127
140 139
694 693
72 73
464 463
356 357
387 388
296 295
781 780
548 549
553 552
104 105
151 152
759 758
574 575
190 191
194 195
430 431
109 108
302 301
282 281
643 644
435 434
60 59
407 408
777 778
730 729
224 223
722 723
430 429
687 688
388 389
792 791
518 519
125 862
418 419
512 511
373 372
320 319
509 508
382 383
627 628
218 219
472 471
214 215
329 330
86 87
828 827
264 263
169 168
761 760
371 372
453 454
659 660
443 444
361 360
816 815
216 215
374 375
480 481
826 825
267 266
507 508
336 337
232 231
347 348
726 725
250 249
297 296
834 833
160 159
705 706
286 287
564 563
423 422
699 700
621 622
610 609
586 587
33 34
657 656
689 690
100 101
409 408
802 803
207 206
779 778
182 181
425 426
192 191
466 467
786 787
849 850
384 383
780 779
503 502
310 309
645 646
860 861
787 788
43 44
527 526
635 634
663 664
324 325
614 613
744 745
74 73
97 98
174 173
111 110
367 368
295 294
447 446
619 618
849 848
494 493
925 53 785
246 245
589 590
2 1
177 176
400 401
891 890
706 705
808 809
686 685
192 193
160 161
133 132
688 687
121 122
102 103
672 671
781 782
247 248
237 238
512 513
806 805
879 878
370 371
821 822
377 376
145 146
668 667
836 835
854 853
280 279
424 425
384 385
110 109
657 658
378 377
342 343
416 417
312 311
229 230
449 448
810 811
612 613
28 27
162 163
223 224
309 310
903 904
290 289
504 503
78 77
385 386
20 21
756 757
351 350
568 567
36 35
152 151
260 259
322 321
23 22
3 4
438 437
888 887
173 174
4 5
310 311
45 44
715 716
505 504
421 420
917 916
170 171
469 468
383 382
861 862
61 60
581 582
773 772
253 254
911 910
262 261
128 127
737 736
604 605
889 890
80 81
798 799
281 280
754 755
814 815
836 837
822 823
889 888
199 198
610 609
86 87
662 661
295 296
521 522
468 467
845 846
153 154
899 898
752 751
298 299
440 439
301 302
353 352
433 432
924 923
147 148
802 801
359 358
8 7
303 304
265 264
292 293
786 785
907 908
90 91
289 288
267 268
415 414
603 602
588 587
635 636
473 472
602 601
367 368
638 637
204 203
170 169
54 55
363 364
591 592
761 760
329 330
333 334
469 470
597 598
337 338
28 29
755 756
457 458
46 45
172 173
546 547
258 259
30 31
111 112
183 182
647 646
284 285
44 43
899 900
563 564
374 375
505 506
747 746
613 614
510 509
260 261
631 632
333 332
118 117
699 698
5 6
402 401
830 831
597 596
500 501
375 376
206 207
679 680
514 515
255 256
651 650
847 846
643 642
24 23
210 209
855 856
670 669
791 790
724 725
70 69
107 108
281 282
11 12
801 800
628 629
840 839
655 654
232 233
488 487
462 461
445 444
560 559
158 157
587 586
668 669
340 339
126 125
684 683
675 674
880 881
523 524
192 191
566 567
700 701
852 851
457 456
53 54
286 287
353 354
443 444
212 211
275 276
788 787
732 733
728 729
848 849
242 243
452 453
677 676
856 857
812 811
297 296
195 196
491 492
52 53
849 850
21 22
344 343
484 483
672 673
919 920
226 227
6 7
768 769
413 412
480 479
357 358
909 910
757 758
828 827
494 495
523 522
482 483
69 68
614 615
20 19
642 641
537 538
477 476
593 594
277 276
770 769
607 608
185 184
118 119
275 274
190 189
809 810
84 85
644 645
640 641
29 30
390 389
622 623
679 678
834 833
79 80
334 335
488 489
475 474
271 272
547 548
844 845
347 348
419 418
167 166
486 485
387 386
76 77
356 357
482 481
731 732
666 667
728 727
181 182
200 199
294 293
215 216
95 96
266 267
251 250
300 301
217 216
148 149
764 763
721 720
625 626
864 865
347 346
24 25
388 387
415 416
624 623
389 388
315 316
163 164
863 862
308 309
58 57
442 441
748 749
782 783
194 195
818 817
110 111
459 460
85 86
251 252
465 464
104 103
313 312
760 759
925 924
365 366
407 408
158 159
621 622
124 125
599 600
235 236
472 471
424 423
365 364
410 409
906 905
139 138
184 183
763 762
241 240
223 222
403 404
146 147
898 897
67 66
141 142
885 884
214 213
305 304
218 217
711 710
92 91
704 703
575 576
858 857
702 703
789 788
61 62
834 835
197 198
754 753
645 646
368 369
356 355
145 144
673 674
826 825
489 490
652 651
707 706
570 571
63 62
423 422
711 712
52 51
739 740
64 65
455 456
518 517
380 379
229 228
92 93
49 48
283 284
463 462
794 795
922 921
391 392
766 765
830 829
652 653
317 318
250 249
778 777
493 492
476 475
533 534
162 161
300 299
430 429
169 168
872 871
396 395
589 588
235 234
222 221
131 132
503 502
662 663
905 904
796 797
496 497
408 409
690 689
2 3
863 864
696 695
901 900
272 273
725 726
907 906
528 529
327 326
188 189
133 134
570 569
18 17
819 818
689 688
532 533
564 565
714 713
109 108
664 665
437 436
797 798
705 704
156 157
51 50
455 454
379 378
225 224
507 508
101 102
399 398
126 127
625 624
400 399
902 901
177 178
714 715
583 584
481 480
354 355
895 896
786 787
314 313
618 617
434 433
773 774
814 813
716 717
395 394
34 35
38 39
116 117
150 149
837 838
71 70
67 68
461 460
96 97
726 727
730 729
803 804
666 665
95 94
278 279
380 381
113 114
507 506
302 303
329 328
66 65
105 106
708 707
413 414
150 151
723 722
595 594
870 871
519 518
551 550
599 598
681 682
206 205
741 742
526 527
918 917
172 171
213 212
185 186
245 244
382 381
297 298
911 912
731 730
274 273
25 26
635 634
165 166
255 254
640 639
57 56
699 700
537 536
263 264
159 160
855 854
484 485
922 923
16 17
72 71
493 494
573 572
828 829
239 240
372 371
877 876
893 894
540 541
609 608
546 545
873 874
97 98
675 676
231 230
525 526
453 454
178 179
232 231
682 683
852 853
848 847
582 583
76 75
187 188
549 548
420 419
897 896
616 617
200 201
286 285
180 179
402 403
774 775
591 590
881 882
34 33
562 563
396 397
542 541
511 510
113 112
733 734
514 513
687 686
137 136
695 694
619 618
270 269
48 47
866 865
442 443
41 42
620 619
56 55
135 134
191 190
440 441
868 869
427 426
439 438
40 41
552 551
319 318
430 431
236 237
690 691
411 410
878 877
735 736
844 843
554 555
684 685
748 747
209 208
800 799
349 350
874 875
115 114
719 720
9 8
766 767
479 478
815 816
352 351
478 477
723 724
626 627
649 648
576 577
428 427
812 813
15 16
586 585
214 215
869 870
579 578
532 531
867 868
324 323
383 384
654 653
446 445
734 735
346 345
839 838
105 104
330 331
516 515
501 502
858 859
516 517
758 759
678 677
866 867
647 648
294 295
390 391
450 451
632 633
258 257
38 37
882 883
341 340
140 141
555 556
421 422
713 712
106 107
366 367
101 100
577 578
611 612
832 833
123 122
271 270
115 116
84 83
459 458
574 575
880 879
521 520
568 569
74 73
841 840
407 406
243 244
658 659
691 692
471 470
486 487
33 32
762 761
81 82
620 621
155 156
753 752
450 449
282 283
50 49
374 373
543 542
629 630
246 247
291 290
397 398
719 718
31 32
36 37
176 175
593 592
277 278
63 64
228 227
778 779
554 553
528 527
320 321
201 202
739 738
860 859
745 746
709 710
655 656
873 872
912 913
434 435
393 392
18 19
883 884
165 164
128 129
671 670
99 100
266 265
737 738
903 902
606 607
793 794
362 361
233 234
529 530
920 921
531 530
743 742
785 784
447 446
580 581
630 631
722 721
842 841
893 892
249 248
692 693
524 525
219 220
919 918
650 649
750 749
98 99
772 771
337 336
320 319
693 694
465 466
743 744
239 238
242 241
627 628
425 426
638 639
558 557
208 207
826 827
211 210
776 777
875 876
168 167
10 11
324 325
825 824
10 9
909 908
560 561
913 914
291 292
697 698
411 412
539 540
861 860
447 448
338 339
317 316
579 580
314 315
218 219
13 12
341 342
831 832
79 78
83 82
253 252
322 323
600 601
740 741
360 359
305 306
360 361
803 802
140 139
187 186
660 661
572 571
702 701
373 372
307 308
925 224
717 718
89 88
498 497
681 680
791 792
850 851
519 520
466 467
820 819
46 47
796 795
708 709
633 634
129 130
807 808
15 14
557 556
894 895
326 325
256 257
58 59
205 204
119 120
765 764
417 418
335 336
663 664
499 500
89 90
566 565
432 431
13 14
27 26
792 793
491 490
406 405
915 914
562 561
394 393
221 220
543 544
549 550
155 154
915 916
509 508
843 842
268 269
429 428
660 659
306 307
535 536
344 345
820 821
637 636
196 197
751 750
767 768
203 202
194 193
603 604
331 332
892 891
770 771
40 39
93 94
657 656
545 544
349 348
463 464
87 88
143 142
436 435
288 287
643 644
824 823
138 137
783 784
152 153
370 369
780 781
42 43
174 175
72 73
495 496
553 552
616 615
225 226
610 611
745 744
584 585
511 512
696 697
121 120
606 605
74 75
451 452
775 776
779 780
144 143
474 473
136 135
886 885
404 405
498 499
887 886
181 180
362 363
573 574
328 327
789 790
804 805
59 60
816 817
131 130
123 124
262 263
559 558
807 806
539 538
596 595
535 534
1434 400 770
1 1310
1127 1
521 1
1353 1
921 1
439 1
1 417
1189 1
136 1
1 824
767 1
1052 1
1 1168
1 676
1 93
1 470
445 1
547 1
471 1
161 1
1 1390
1 33
508 1
1 1370
1 246
1 907
429 1
1 1296
1 168
1 1416
1032 1
1 1259
529 1
1 810
1 1307
133 1
1 1376
701 1
1 1387
1 599
1 317
557 1
289 1
1 1226
839 1
1 766
999 1
1 1055
842 1
103 1
1 436
1 251
653 1
72 1
623 1
495 1
58 1
279 1
1 689
1374 1
784 1
821 1
1 768
1 1171
1418 1
375 1
1 1174
1209 1
1 751
1 716
1 571
1 856
1 299
1 1175
1 108
1 630
1 867
1 775
1 888
1 707
107 1
406 1
1 491
1010 1
605 1
1 802
1 1410
1 1119
162 1
427 1
1260 1
992 1
637 1
1056 1
1384 1
458 1
69 1
835 1
489 1
248 1
1417 1
100 1
739 1
1 854
1 533
1 498
141 1
1344 1
572 1
1193 1
478 1
365 1
1427 1
1336 1
124 1
1 645
675 1
1 796
937 1
1 30
1 145
1 1074
1393 1
1 1190
1 492
1399 1
1005 1
1 1125
1029 1
734 1
1 965
985 1
481 1
132 1
1 522
1 604
834 1
1 1044
189 1
1421 1
1 614
1 1249
1 629
819 1
1 273
578 1
55 1
263 1
340 1
1354 1
902 1
1 465
1 92
1201 1
381 1
1070 1
1 631
477 1
1 1007
1 539
38 1
334 1
1423 1
1 393
1 828
1 1081
1 917
1 776
1228 1
1 1166
1 770
931 1
1 320
1152 1
10 1
130 1
1317 1
1 1099
1 817
309 1
1 1362
1160 1
218 1
1 1299
1 832
1 1255
1 1133
463 1
1 39
961 1
1 34
1 1087
909 1
1 586
636 1
1150 1
1368 1
1 665
1 1371
1 596
484 1
798 1
618 1
322 1
128 1
1 1302
1 1331
353 1
1 703
1 371
1 261
546 1
1 1407
1286 1
1 330
829 1
1035 1
52 1
1380 1
1069 1
1 764
660 1
8 1
1 753
567 1
1 1109
1 17
1 1030
1 1257
831 1
765 1
844 1
1 936
1 1239
574 1
1 809
1 666
1 190
1 979
1 104
1238 1
1169 1
1 589
730 1
626 1
1 287
1434 1
358 1
1 1340
896 1
487 1
1 664
714 1
717 1
199 1
25 1
744 1
1 346
1 1227
1 650
1200 1
759 1
682 1
980 1
1 820
252 1
1064 1
1 1382
935 1
428 1
1163 1
348 1
610 1
1 114
1017 1
274 1
1 1364
441 1
294 1
1 1121
452 1
1 882
1 196
1 787
1 860
1 493
1 977
1 837
663 1
106 1
1 1422
1 1105
1 121
1 1021
1 304
1 355
2 1
1183 1
1 326
415 1
1 742
1 591
1 1122
807 1
447 1
668 1
295 1
1430 1
1 1130
1 662
1 704
1185 1
584 1
1 1036
1 221
943 1
575 1
380 1
1039 1
995 1
1 566
754 1
1 184
1126 1
1 892
1 587
212 1
1 542
1 1378
1 138
1 1347
791 1
1 558
941 1
984 1
86 1
1 356
905 1
741 1
1 384
1145 1
1 1140
1386 1
1 105
117 1
752 1
315 1
987 1
608 1
403 1
1 201
563 1
434 1
1 152
786 1
1191 1
1 1097
241 1
1 960
115 1
1 215
554 1
98 1
1 78
535 1
209 1
307 1
1 1303
1 568
1 1268
1 1146
13 1
1 891
280 1
1 110
1 1397
1369 1
1 202
156 1
1 673
1 185
1 1192
1090 1
1 4
1 40
1 1221
1 733
1261 1
1 400
1 1304
1208 1
1 1262
1 1375
1 783
1202 1
1 94
1318 1
808 1
1 370
1 1311
473 1
1 230
1 520
85 1
1 257
747 1
1 697
760 1
80 1
1131 1
683 1
1383 1
922 1
1 399
494 1
1 924
1 407
1218 1
204 1
1412 1
1 195
1 298
193 1
1051 1
1 507
112 1
1 1357
551 1
945 1
1 993
1 881
305 1
1 448
1 1293
479 1
949 1
1 906
861 1
1 331
292 1
1 1403
116 1
1 197
643 1
390 1
1155 1
1379 1
1040 1
822 1
1 1092
690 1
1 36
99 1
581 1
1177 1
262 1
1 912
1 1144
496 1
1 123
1 1359
789 1
1 77
702 1
1 897
1 655
1 948
593 1
544 1
1250 1
528 1
20 1
1 813
227 1
737 1
1 1203
1 1237
1419 1
1 769
1 1277
504 1
691 1
816 1
1 51
1001 1
1 150
486 1
1 648
1240 1
1 125
823 1
459 1
1 552
1123 1
431 1
1 308
1063 1
1 242
1 343
1 1405
1041 1
1 1016
1269 1
549 1
1432 1
1 569
1292 1
1 240
247 1
1 1043
1 781
420 1
126 1
1 738
485 1
1 211
1 454
404 1
1 772
1 923
1274 1
1 1408
1 1352
1 864
505 1
1 444
1 401
1 1425
1022 1
1289 1
1 433
140 1
1066 1
1071 1
1 1433
1013 1
1 869
1 328
256 1
1 874
1 1377
678 1
1337 1
649 1
1 883
1367 1
1 606
718 1
1328 1
1 488
1116 1
1 973
2 3
1 19
1402 1
750 1
503 1
1 313
301 1
409 1
639 1
382 1
1 372
1 1329
1 442
516 1
1094 1
1406 1
847 1
1 975
1251 1
1 818
1 468
26 1
1 127
1 950
1 254
59 1
50 1
1 411
1 311
1 225
1 1019
1 24
1 213
41 1
148 1
1 216
1 1431
62 1
527 1
388 1
1 122
1214 1
1 416
1 1065
1 387
1 728
1078 1
911 1
1 235
1 61
374 1
1180 1
1 146
1 1187
1 97
1091 1
1 1147
1 1026
794 1
928 1
1 903
929 1
1 173
1 1186
1085 1
1 422
1 158
619 1
1 659
1 1279
1 953
405 1
1 1428
449 1
281 1
580 1
1 1308
499 1
1 899
1332 1
359 1
1 843
1 27
1 1323
1 65
1 1012
1325 1
16 1
1058 1
1 873
312 1
1 9
276 1
1 624
177 1
1 1245
1 1222
1 1049
1 181
1 83
1 44
1 314
1157 1
1 588
464 1
160 1
1 942
1285 1
509 1
510 1
1 253
1 1264
1 543
1 644
934 1
341 1
1 285
1 1114
1 1333
1297 1
1 1053
1 893
698 1
1 671
576 1
1 633
28 1
1358 1
1 179
700 1
472 1
1 1247
1 1088
1 1089
1 324
176 1
1 595
968 1
333 1
1 938
1 1110
1 1224
1 1050
1287 1
1 916
1 1252
1 705
696 1
534 1
1 877
1272 1
1 286
1 149
1 1084
1 1306
778 1
1 67
332 1
1 997
1047 1
1086 1
1 988
462 1
1 651
1 1002
1101 1
1 517
982 1
515 1
1 1172
1 1079
1 512
234 1
1 910
1 1093
460 1
1 1124
171 1
1 1054
1 804
1 865
222 1
1135 1
1 1170
1167 1
208 1
1 1313
1 617
1 155
1 635
284 1
296 1
1 1263
908 1
930 1
1 827
1 35
1 1281
1 1118
1 519
762 1
815 1
1 166
1276 1
1 782
1 456
866 1
1 545
1 886
1404 1
1 303
1413 1
1 927
983 1
1 579
1 1057
1181 1
1 1241
113 1
1 1365
642 1
1282 1
1077 1
1 81
1 461
1 144
1 998
1 1004
1 300
559 1
443 1
1210 1
894 1
275 1
1 1023
1136 1
198 1
654 1
926 1
1 96
592 1
1 68
474 1
414 1
657 1
1 466
1 157
369 1
1 712
597 1
1 1164
1198 1
795 1
981 1
1 1061
711 1
1096 1
1045 1
1 224
1 397
1 75
335 1
889 1
1 870
1 746
1 548
1 1059
174 1
1 748
1 562
1 11
731 1
1 541
1 1107
1 652
1 1215
1219 1
437 1
885 1
1 969
1 801
895 1
1 1363
826 1
1 142
565 1
1 1225
102 1
1 757
1 47
1 669
1 719
1 1236
1 959
1 480
367 1
1361 1
1 1179
621 1
264 1
426 1
939 1
1 537
290 1
1 601
1037 1
255 1
1 129
667 1
207 1
1211 1
1 1316
1 238
1 53
1 1098
364 1
838 1
54 1
1 1142
1 727
933 1
1 90
646 1
1 455
1388 1
555 1
1 800
1 134
884 1
729 1
506 1
1 974
1230 1
1033 1
435 1
1 1234
1 1256
1197 1
135 1
1 1341
857 1
1 1305
863 1
1 876
1 602
1 1229
1 430
1 200
306 1
175 1
1 774
1 763
143 1
1 243
1 45
1335 1
1 972
1 154
1 708
920 1
1 87
226 1
392 1
396 1
1 1009
1 613
1398 1
611 1
1 178
1 1244
1095 1
1324 1
1 323
1 1205
502 1
1 1173
316 1
1242 1
1 269
42 1
710 1
1389 1
1 82
1 1342
1 318
250 1
1 1178
1165 1
904 1
1 1108
1 1349
1154 1
1 761
451 1
523 1
283 1
120 1
1 986
14 1
1206 1
825 1
540 1
550 1
1396 1
1373 1
1 277
1028 1
1 344
1062 1
1 1392
1 996
70 1
1 963
1132 1
1 231
609 1
1 49
1 159
1 1141
71 1
1 1138
267 1
1 1148
1103 1
1003 1
1315 1
531 1
1243 1
1117 1
1134 1
1 853
735 1
1217 1
1 1112
1 806
1 1042
1161 1
954 1
1 887
1273 1
1 88
266 1
914 1
1 940
1 1254
1 74
1 1319
723 1
60 1
1199 1
758 1
1280 1
1 239
278 1
1 855
1 497
1 582
1 612
1 947
1 1360
1 713
951 1
1 1048
1 1153
1 418
1 419
1 1345
871 1
792 1
1 469
1 1327
476 1
1 946
1391 1
1 6
670 1
1 46
1 577
1 483
1 219
398 1
1350 1
721 1
1176 1
1 1006
1204 1
1 109
1 7
1 57
1 1149
1 21
1 119
1 694
693 1
627 1
1 699
964 1
1213 1
1 530
236 1
1076 1
1 836
1 615
31 1
1 137
1 1320
1 1395
1 1411
501 1
1 638
852 1
272 1
1 385
1 1298
756 1
851 1
402 1
1 297
1068 1
450 1
1 89
1 1366
1 475
1 151
1 163
1 641
1 1025
1 172
1 1100
1 560
1 1102
1356 1
111 1
1294 1
970 1
352 1
677 1
363 1
971 1
1267 1
1 259
347 1
1 357
249 1
1 1015
1 1322
1 513
423 1
1283 1
725 1
360 1
1 790
846 1
1 192
413 1
1 1106
803 1
1080 1
709 1
1 536
194 1
1 583
1 1394
1314 1
564 1
170 1
1346 1
1271 1
1 1184
1 553
967 1
736 1
647 1
732 1
603 1
1 1424
1246 1
1 688
64 1
1 1034
1 203
919 1
271 1
1 378
1014 1
1115 1
265 1
1 740
1 220
1151 1
1400 1
1120 1
1 724
84 1
1 872
1 514
1 1288
1415 1
1 976
1 687
394 1
1 244
1 229
1 1312
183 1
1 989
511 1
1 351
368 1
1113 1
1 1385
1082 1
1 349
598 1
1 79
524 1
1 1231
850 1
1060 1
1 674
811 1
1 561
350 1
1 425
1 1083
1334 1
525 1
1 18
1 1355
1 600
1343 1
1 180
342 1
1 684
1 421
1 1067
1046 1
779 1
5 1
1 362
457 1
167 1
424 1
1 1291
1018 1
1 389
1 681
1 56
706 1
1027 1
1 63
656 1
1 338
1 1223
1 1162
1 1339
260 1
962 1
720 1
1295 1
386 1
1216 1
1 805
1 432
890 1
868 1
1 188
1 1372
1 1196
1 755
1 1253
139 1
1 955
345 1
1 205
1 994
1111 1
1 878
634 1
1 538
1 661
686 1
900 1
1 848
1 875
1 118
1 37
1 1194
1 293
1 383
446 1
845 1
153 1
1 336
1 391
1 695
915 1
1 147
518 1
1072 1
339 1
814 1
1 223
1381 1
1 958
966 1
1137 1
978 1
1 1104
1 590
1 233
91 1
1 1031
556 1
1 1233
1414 1
785 1
1 319
607 1
453 1
1278 1
1207 1
1 692
1 616
1139 1
23 1
379 1
1 570
632 1
329 1
1 944
1 270
1024 1
1 1429
1 532
1 715
48 1
1008 1
1 722
1 1073
1 1266
1 361
482 1
1 12
1 743
1188 1
15 1
1195 1
672 1
1038 1
1 918
849 1
1 1128
952 1
1 321
1 1300
658 1
1 169
1 640
1 282
32 1
1 310
1 913
490 1
1 3
467 1
1 210
745 1
1 1143
1 797
1 410
1 302
773 1
288 1
1 1309
830 1
354 1
840 1
1 1351
1 66
1235 1
1 1258
1156 1
1 1338
1275 1
217 1
1159 1
526 1
1232 1
1420 1
812 1
1 726
1 1011
1 858
1 395
76 1
325 1
182 1
1 258
1409 1
1 685
1301 1
245 1
268 1
1 164
1 131
1 228
1 799
585 1
1 73
376 1
859 1
1020 1
1 1212
165 1
1270 1
43 1
1 29
932 1
186 1
366 1
373 1
1 628
620 1
440 1
232 1
412 1
101 1
1 680
1 771
1 780
1 1284
793 1
841 1
1000 1
187 1
1 337
377 1
1 925
1348 1
291 1
879 1
990 1
880 1
1 991
956 1
1 1401
1 833
749 1
1 1326
1 1182
1248 1
237 1
1129 1
1290 1
1 500
1 1075
1 594
408 1
1 1158
1 22
1 901
1 438
1 1220
1 327
1 788
1 206
1 898
1 1265
957 1
1 191
1321 1
1 622
1 1330
1 679
777 1
1 1426
1 95
1 214
1 625
862 1
1 573
889 514 311
71 70
692 691
98 99
700 699
469 470
152 153
826 827
369 368
573 572
126 127
373 374
473 474
871 872
459 458
10 9
159 160
856 855
189 188
593 592
563 562
131 130
247 246
542 543
160 161
189 190
437 438
886 887
578 577
505 504
296 295
630 629
273 272
114 113
597 598
87 88
232 231
855 854
480 479
748 747
700 701
583 582
227 226
269 270
569 570
648 649
511 512
715 716
256 257
849 848
105 104
671 670
769 768
749 750
702 703
413 414
263 264
69 68
808 807
39 38
800 799
646 645
796 797
287 286
542 541
765 764
776 775
549 548
90 91
638 639
674 673
336 337
333 334
598 599
145 146
601 600
725 724
301 300
851 850
306 305
611 610
107 106
3 4
236 235
51 50
199 200
45 46
496 495
271 272
646 647
465 464
742 743
242 241
631 632
357 356
453 452
714 713
280 279
293 294
314 315
576 575
711 710
404 403
432 433
659 658
110 109
424 423
270 271
631 630
328 329
50 49
842 841
493 494
142 143
166 167
797 798
122 121
197 196
306 307
726 727
64 63
830 829
138 137
591 592
775 774
139 138
354 353
52 51
358 359
389 388
477 476
284 283
781 782
783 782
457 458
507 506
477 478
392 391
550 551
556 555
857 858
707 708
280 281
61 62
450 449
217 216
187 186
655 656
209 210
120 119
608 609
348 349
180 179
37 38
304 303
243 242
468 469
278 277
729 730
525 524
85 84
778 777
376 375
802 803
728 727
888 887
331 330
441 440
99 100
144 143
202 201
317 316
100 101
233 232
817 816
501 500
385 386
622 621
375 374
41 42
27 28
595 594
156 157
364 365
129 130
111 110
340 339
183 182
645 644
393 394
434 433
406 407
738 739
422 421
719 718
220 221
460 459
410 409
705 706
292 291
738 737
628 627
177 176
156 155
115 114
758 757
56 57
183 184
56 55
101 102
649 650
241 240
283 282
44 43
136 135
736 735
591 590
147 148
180 181
518 517
482 483
574 575
571 572
312 313
150 149
213 214
147 146
457 456
302 303
785 786
172 173
265 266
80 79
74 73
112 111
490 489
223 222
545 544
654 655
853 852
112 113
642 643
322 321
124 123
451 452
334 335
579 580
830 831
463 462
656 657
219 218
752 751
601 602
438 439
853 854
754 755
53 54
736 737
745 746
384 385
472 473
674 675
105 106
352 351
218 217
693 694
352 353
430 431
537 536
520 519
838 839
812 813
274 275
431 432
13 14
628 629
671 672
801 800
161 162
44 45
277 276
543 544
46 47
530 531
488 489
780 779
732 733
860 861
834 833
383 382
741 740
342 341
291 290
848 847
28 29
418 419
661 660
89 90
610 609
533 534
806 807
421 420
590 589
39 40
76 75
416 417
445 444
455 454
23 24
562 561
453 454
103 104
412 411
71 72
560 559
657 658
878 877
773 774
333 332
801 802
98 97
529 528
486 487
654 653
721 722
230 229
792 793
540 539
30 29
824 825
492 491
324 323
285 286
254 255
596 597
859 858
26 27
585 586
362 361
66 65
221 222
761 760
400 401
418 417
57 58
165 166
681 680
427 426
872 873
205 204
339 338
226 225
603 604
509 508
788 787
42 43
641 642
574 573
697 698
803 804
371 370
288 289
617 618
663 662
88 89
644 643
408 407
607 606
171 170
624 623
606 605
616 615
165 164
87 86
436 437
83 84
287 288
877 876
422 423
678 679
170 169
442 443
667 666
608 607
398 399
416 415
171 172
546 547
254 253
599 600
41 40
503 504
822 821
537 538
468 467
169 168
397 398
811 812
366 367
784 783
298 299
882 883
789 788
471 470
62 63
696 697
584 585
527 526
668 667
201 200
790 789
345 344
379 378
720 721
308 307
683 684
379 380
683 682
173 174
446 447
576 577
450 451
318 317
480 481
611 612
12 11
6 7
859 860
152 151
515 516
863 864
808 809
388 387
865 866
499 498
253 252
660 659
410 411
664 663
483 484
203 204
804 805
33 34
297 298
22 23
554 555
501 502
184 185
503 502
122 123
257 258
190 191
297 296
427 428
879 880
632 633
873 874
351 350
708 709
327 328
565 566
837 838
188 187
155 154
436 435
49 48
313 314
424 425
357 358
68 67
120 121
15 14
434 435
69 70
516 517
360 361
771 772
234 233
362 363
466 465
668 669
318 319
662 661
35 36
728 729
145 144
856 857
420 419
276 275
35 34
266 267
428 429
637 636
61 60
876 875
541 540
750 751
412 413
37 36
500 499
673 672
529 530
258 259
193 194
549 550
602 603
21 20
880 881
619 620
817 818
835 836
492 493
136 137
567 568
426 425
778 779
809 810
725 726
338 337
261 260
128 129
835 834
336 335
219 220
157 158
723 724
664 665
538 539
744 745
262 263
405 404
211 212
867 868
245 244
402 401
163 162
651 650
224 223
796 795
284 285
881 882
269 268
806 805
134 135
734 733
618 619
279 278
446 445
478 479
308 309
364 363
18 17
558 559
8 7
207 206
844 843
355 354
199 198
840 841
711 712
103 102
795 794
74 75
762 763
16 17
526 525
350 349
236 237
225 224
652 653
246 245
615 614
770 769
884 885
811 810
519 518
348 347
620 621
827 828
429 430
497 496
372 371
688 687
612 613
58 59
735 734
327 326
685 686
520 521
843 842
176 175
593 594
77 76
395 396
243 244
95 94
578 579
557 558
685 684
682 681
215 214
864 865
141 140
289 290
874 875
311 312
696 695
694 695
787 786
262 261
309 310
150 151
142 141
752 753
679 680
759 760
547 548
522 521
691 690
560 561
117 118
315 316
11 10
772 773
652 651
273 274
821 820
748 749
228 227
490 491
86 85
131 132
13 12
255 256
80 81
851 852
635 636
175 174
461 462
264 265
368 367
464 463
356 355
747 746
21 22
93 92
889 3
167 168
813 814
740 739
238 237
847 846
198 197
581 582
767 768
19 20
505 506
341 340
633 634
402 403
523 524
627 626
238 239
332 331
707 706
94 93
2 1
536 535
212 213
108 107
565 564
326 325
869 868
595 596
128 127
345 346
439 440
534 535
397 396
533 532
845 846
301 302
829 828
5 6
699 698
55 54
215 216
311 310
394 395
640 641
126 125
759 758
569 568
484 485
96 95
153 154
299 300
381 380
765 766
148 149
510 511
391 390
731 732
871 870
563 564
117 116
570 571
581 580
616 617
378 377
251 252
513 512
164 163
91 92
53 52
723 722
203 202
849 850
249 248
97 96
159 158
2 3
82 81
677 676
754 753
623 622
230 231
347 346
862 863
471 472
181 182
690 689
551 552
761 762
822 823
72 73
125 124
268 267
861 862
743 744
705 704
819 818
78 77
293 292
717 716
343 344
322 323
767 766
523 522
406 405
383 384
461 460
248 247
390 389
194 195
702 701
325 324
185 186
133 134
798 799
498 497
381 382
16 15
665 666
686 687
553 554
693 692
240 239
60 59
448 447
605 604
583 584
476 475
589 588
442 441
514 513
730 731
67 66
820 819
635 634
714 715
839 840
250 249
815 814
32 31
791 790
781 780
756 755
320 319
393 392
250 251
675 676
18 19
587 586
637 638
678 677
366 365
557 556
588 587
372 373
455 456
777 776
5 4
8 9
566 567
443 444
178 179
545 546
640 639
330 329
824 823
376 377
613 614
495 494
370 369
742 741
792 791
624 625
485 486
885 886
703 704
552 553
648 647
866 867
884 883
177 178
717 718
527 528
626 625
118 119
764 763
487 488
825 826
878 879
281 282
192 191
870 869
30 31
82 83
139 140
415 414
757 756
79 78
409 408
234 235
132 133
474 475
205 206
837 836
64 65
24 25
793 794
208 207
510 509
295 294
832 831
115 116
713 712
709 710
515 514
689 688
109 108
889 888
482 481
770 771
192 193
48 47
720 719
343 342
399 400
832 833
196 195
845 844
260 259
305 304
507 508
387 386
229 228
208 209
25 26
359 360
669 670
466 467
785 784
320 321
32 33
449 448
532 531
210 211
815 816
908 827 654
237 236
888 887
106 107
544 545
744 743
248 249
60 61
399 398
690 691
412 411
260 259
803 802
387 388
519 520
277 276
591 590
4 5
419 418
245 244
896 895
891 892
780 779
681 680
556 555
729 730
52 51
497 496
563 564
303 302
494 495
174 175
257 256
435 436
231 232
742 743
571 570
795 796
20 19
211 210
352 351
696 695
123 124
404 405
35 34
731 730
850 849
150 149
311 310
128 129
152 151
687 686
183 184
693 694
844 843
794 793
662 663
727 728
74 73
342 343
762 763
734 733
157 156
901 900
390 389
606 607
34 33
377 378
558 557
432 433
217 218
660 661
903 902
531 530
66 67
559 558
490 491
654 655
137 138
332 333
607 608
568 567
582 583
224 223
349 348
482 481
264 263
454 453
196 195
809 810
462 461
748 747
356 357
757 758
472 471
882 883
508 507
386 387
535 536
81 82
59 58
435 434
114 115
325 326
141 140
94 93
350 349
302 301
448 447
402 401
444 445
524 523
380 381
499 498
41 42
309 310
817 816
584 585
325 324
207 206
881 880
705 706
534 533
169 170
126 125
177 178
307 306
271 270
93 92
98 99
10 9
820 819
634 635
476 475
2 1
213 214
768 767
529 528
38 39
750 749
8 7
636 635
551 550
884 883
127 126
807 808
226 225
463 462
703 702
332 331
535 534
53 54
470 469
869 870
564 565
794 795
67 68
55 54
499 500
865 864
146 145
561 562
819 818
787 788
774 775
473 474
719 718
80 81
312 313
776 777
139 140
384 383
16 15
365 366
785 786
16 17
799 798
590 589
23 24
130 131
846 845
872 871
234 233
322 321
707 708
235 236
683 684
391 392
536 537
484 483
56 57
464 463
522 523
340 341
252 253
758 759
377 376
521 522
281 280
405 406
715 716
604 603
711 710
319 320
711 712
241 240
315 316
441 442
52 53
403 402
9 8
747 746
479 480
338 337
95 96
41 40
297 296
51 50
461 460
148 149
176 175
476 477
195 194
129 130
503 504
741 742
472 473
373 372
615 614
631 632
205 204
229 228
852 853
214 215
796 797
764 763
893 892
452 451
116 117
200 201
246 245
652 651
674 673
861 860
761 760
455 454
468 467
888 889
108 107
63 64
723 724
753 754
798 797
878 879
514 513
151 150
500 501
439 440
801 802
653 652
510 509
908 907
207 208
818 817
664 663
696 697
838 837
225 224
305 306
514 515
659 660
825 824
97 98
160 161
559 560
428 427
323 322
727 726
739 740
764 765
688 689
189 190
770 771
356 355
633 634
644 645
527 526
630 631
766 765
273 272
90 89
238 237
216 217
141 142
47 48
756 757
762 761
756 755
651 650
541 542
509 508
729 728
298 299
365 364
371 370
771 772
62 63
596 597
745 744
348 347
238 239
167 166
363 362
290 291
198 197
668 669
701 702
103 102
821 820
385 386
546 547
769 768
313 314
738 739
6 7
431 432
115 116
202 203
251 252
720 721
517 518
23 22
823 822
870 871
641 642
212 211
29 28
657 658
675 674
35 36
678 679
199 200
458 459
581 580
866 867
840 841
181 182
880 879
773 772
395 394
868 867
351 350
592 591
625 626
725 724
552 551
694 695
275 276
715 714
266 267
89 88
638 637
153 154
145 144
188 189
749 748
37 38
588 587
284 285
801 800
716 717
643 642
450 449
258 257
21 20
792 791
415 414
457 458
281 282
286 287
525 524
894 895
121 120
838 839
754 755
853 854
875 876
905 906
28 27
301 300
443 442
750 751
158 157
734 735
676 677
69 68
846 847
602 603
396 395
554 553
667 666
275 274
198 199
776 775
409 408
468 469
855 856
159 158
411 410
134 133
487 488
552 553
540 539
164 165
91 92
30 31
367 366
352 353
670 669
521 520
605 604
295 294
417 418
333 334
55 56
866 865
722 721
110 111
699 698
416 417
248 247
132 131
752 753
857 858
647 646
700 701
767 766
345 346
376 375
907 906
161 162
153 152
293 294
725 726
170 171
142 143
293 292
824 823
566 565
759 760
601 600
438 437
219 220
163 162
541 540
368 367
26 25
777 778
429 428
679 680
745 746
122 123
305 304
412 413
204 203
529 530
684 685
831 832
328 329
873 872
118 117
375 374
617 616
733 732
538 539
120 119
205 206
14 15
232 233
136 137
466 465
637 636
493 494
588 589
256 255
27 26
61 62
86 85
101 102
791 790
261 262
49 48
346 908
413 414
274 273
138 139
784 785
455 456
288 289
317 316
91 90
389 388
355 354
369 368
713 714
295 296
477 478
171 172
550 549
644 643
619 618
254 255
446 445
77 78
119 118
186 185
268 267
516 517
371 372
618 617
899 900
390 391
113 114
712 713
890 891
596 595
22 21
889 890
780 781
699 700
393 394
309 308
345 344
556 557
37 36
330 331
270 269
70 69
415 416
196 197
610 609
580 579
234 235
113 112
813 814
489 490
574 573
641 640
567 566
887 886
648 649
242 243
381 382
456 457
253 254
339 340
72 71
328 327
265 264
732 731
168 167
239 240
683 682
718 717
410 409
30 29
399 400
578 579
179 180
135 134
582 581
373 374
100 99
164 163
220 221
573 572
58 57
219 218
886 885
828 829
398 397
343 344
160 159
430 431
498 497
504 505
404 403
606 605
707 706
143 144
258 259
271 272
857 856
628 627
192 193
318 319
289 290
122 121
623 622
507 506
710 709
832 833
191 192
216 215
40 39
670 671
407 408
737 738
518 519
848 849
66 65
531 532
95 94
168 169
629 630
736 737
719 720
629 628
806 807
882 881
283 282
176 177
584 583
614 613
613 612
210 209
790 789
513 512
862 861
697 698
561 560
487 486
806 805
852 851
894 893
339 338
470 471
682 681
419 420
735 736
227 228
327 326
347 346
341 342
2 3
787 786
383 382
548 547
361 360
312 311
286 285
324 323
384 385
510 511
201 202
425 426
318 317
441 440
103 104
840 839
269 268
599 600
284 283
885 884
100 101
278 279
709 708
662 661
11 12
64 65
212 213
146 147
810 811
574 575
429 430
638 639
447 446
422 421
226 227
616 615
436 437
602 601
835 836
448 449
686 685
568 569
423 424
836 837
665 666
804 805
401 400
231 230
821 822
110 109
407 406
598 597
433 434
478 479
303 304
336 337
11 10
858 859
626 627
671 672
287 288
678 677
84 83
187 186
659 658
491 492
76 77
249 250
393 392
656 655
863 864
221 222
548 549
422 423
178 179
135 136
427 426
673 672
525 526
705 704
379 378
299 300
877 878
555 554
851 850
128 127
656 657
125 124
360 359
420 421
3 4
690 689
799 800
297 298
85 84
855 854
621 622
230 229
825 826
190 191
44 45
624 625
489 488
181 180
665 664
532 533
809 808
292 291
740 741
33 32
576 577
357 358
359 358
668 667
544 543
46 45
578 577
155 156
789 788
70 71
193 194
692 691
83 82
42 43
453 452
59 60
12 13
812 811
438 439
361 362
17 18
6 5
425 424
353 354
897 896
314 315
247 246
265 266
320 321
868 869
44 43
873 874
277 278
155 154
903 904
646 645
516 515
335 334
752 751
495 496
379 380
459 460
87 86
621 620
778 779
595 594
874 875
75 74
831 830
174 173
792 793
261 260
592 593
905 904
814 815
279 280
182 183
31 32
505 506
467 466
633 632
611 610
483 482
511 512
826 827
585 586
828 827
782 783
111 112
586 587
464 465
241 242
486 485
147 148
863 862
898 897
723 722
88 87
704 703
187 188
49 50
502 501
624 623
308 307
450 451
830 829
208 209
165 166
503 502
609 608
538 537
619 620
108 109
243 244
843 842
576 575
480 481
675 676
611 612
72 73
14 13
693 692
847 848
816 815
804 803
329 330
546 545
96 97
173 172
860 859
133 132
781 782
363 364
542 543
493 492
688 687
251 250
563 562
783 784
79 78
336 335
184 185
397 396
833 834
654 653
485 484
18 19
770 769
105 106
877 876
46 47
842 841
901 902
845 844
650 649
569 570
774 773
223 222
263 262
898 899
76 75
105 104
571 572
598 599
647 648
813 812
475 474
444 443
640 639
79 80
369 370
594 593
528 527
25 24
835 834
783 335 103
532 531
299 300
523 522
719 718
124 123
124 125
243 244
290 289
422 423
383 384
188 189
72 71
253 252
201 200
182 183
724 723
618 619
358 357
109 110
100 101
578 579
636 637
462 463
216 215
757 756
347 348
626 625
600 601
493 494
467 466
396 397
723 722
628 627
181 180
628 629
92 91
674 675
36 37
425 426
543 542
568 569
107 108
733 734
195 196
688 689
230 229
308 307
72 73
611 612
603 604
338 337
644 645
170 169
593 594
445 446
304 303
466 465
562 561
617 616
348 349
279 280
745 746
667 668
479 478
226 227
260 259
412 411
52 51
609 608
300 301
669 670
574 575
501 500
611 610
93 94
776 775
456 457
395 394
271 272
693 692
384 385
546 547
195 194
733 732
253 254
564 563
545 546
172 171
336 337
83 82
178 179
500 499
369 370
138 137
689 690
447 448
140 139
662 661
302 301
273 272
761 760
556 555
119 120
598 597
604 605
379 378
17 18
97 96
94 95
260 261
21 20
114 115
768 767
406 405
507 508
418 419
601 602
708 707
648 649
163 162
265 266
241 242
707 706
595 596
412 413
228 227
442 443
361 360
567 568
514 515
5 4
144 143
150 149
549 548
343 342
735 734
742 741
154 153
175 176
490 489
465 464
219 220
363 362
194 193
61 62
183 184
433 434
170 171
692 691
286 285
530 531
9 8
246 245
123 122
693 694
197 196
460 461
521 520
390 391
498 497
53 52
609 610
53 54
354 353
538 537
782 783
679 678
699 698
410 409
372 371
365 366
24 23
403 402
502 501
725 724
639 638
277 276
18 19
287 286
631 630
276 275
113 114
79 78
111 112
333 332
66 67
495 496
367 366
484 483
56 57
92 93
257 258
218 219
280 281
592 591
35 34
676 677
491 490
274 273
695 696
32 33
446 447
590 589
377 376
599 598
373 374
475 476
103 104
460 459
768 769
205 204
315 314
26 27
435 436
544 543
284 285
719 720
334 335
233 232
481 482
334 333
595 594
505 504
19 20
46 45
488 487
425 424
82 81
6 5
101 102
29 28
765 766
320 319
570 571
526 525
328 327
14 13
291 290
681 682
423 424
420 419
709 710
315 316
563 562
574 573
432 433
398 399
117 116
753 754
269 268
600 599
596 597
462 461
57 58
685 684
730 729
312 313
721 720
259 258
249 250
135 134
294 293
168 167
205 206
2 1
141 140
329 330
231 230
335 336
704 703
339 340
251 250
125 126
434 435
326 327
127 126
555 554
673 674
351 352
12 13
165 166
370 371
653 652
119 118
331 330
31 30
632 631
564 565
221 222
426 427
234 233
42 41
142 141
651 652
479 480
148 149
81 80
163 164
691 690
152 151
421 420
40 41
71 70
86 87
484 485
296 295
672 671
688 687
241 240
613 612
776 777
497 496
663 662
441 442
729 728
99 98
775 774
221 220
307 306
212 213
506 507
308 309
351 350
174 175
79 80
430 429
664 665
131 130
191 190
70 69
292 291
389 390
318 317
185 186
491 492
749 748
380 381
207 206
74 75
551 552
50 51
59 60
368 369
509 510
757 758
606 607
654 655
88 87
138 139
76 77
779 778
63 64
132 131
474 473
670 671
252 251
746 747
173 172
639 640
436 437
159 160
99 100
214 213
468 467
533 532
588 589
770 769
756 755
677 678
372 373
487 486
772 771
65 64
310 309
687 686
129 130
633 634
364 365
346 347
527 526
539 540
403 404
561 560
710 711
283 284
550 551
680 679
577 578
323 324
572 573
121 120
765 764
157 158
585 586
37 38
207 208
288 289
214 215
49 48
587 586
203 204
282 283
386 387
113 112
11 10
189 190
477 476
106 107
248 247
380 379
762 763
263 264
361 362
359 358
3 2
584 583
29 30
663 664
544 545
115 116
228 229
566 567
392 391
177 178
783 1
85 84
27 28
88 89
506 505
22 23
216 217
705 704
201 202
459 458
375 374
97 98
538 539
761 762
137 136
529 528
469 468
415 414
254 255
282 281
203 202
7 6
633 632
623 624
104 105
34 33
292 293
267 266
352 353
755 754
779 780
410 411
47 46
512 511
481 480
716 717
471 470
44 45
294 295
537 536
159 158
438 437
523 524
629 630
458 457
767 766
199 198
238 239
40 39
142 143
680 681
157 156
700 699
735 736
363 364
165 164
3 4
368 367
77 78
16 17
238 237
552 553
642 641
256 255
643 644
331 332
615 614
322 321
261 262
683 682
407 406
359 360
750 749
744 743
581 580
303 302
655 656
156 155
63 62
231 232
740 739
55 54
192 191
684 683
590 591
453 454
560 559
772 773
279 278
527 528
712 713
404 405
355 354
102 103
416 417
431 432
225 226
274 275
548 547
742 743
478 477
382 381
731 732
676 675
640 641
439 438
35 36
318 319
635 634
737 738
529 530
376 375
737 736
32 31
549 550
152 153
753 752
643 642
96 95
91 90
522 521
108 109
606 605
557 556
759 758
200 199
182 181
122 121
541 542
257 256
74 73
516 515
453 452
660 659
760 759
696 697
449 448
656 657
511 510
619 620
622 623
49 50
396 395
648 647
239 240
235 236
56 55
167 166
576 575
428 427
701 702
617 618
385 386
714 713
389 388
342 341
305 306
345 346
117 118
602 603
161 160
721 722
694 695
76 75
387 388
188 187
341 340
356 357
321 320
450 451
614 613
534 535
498 499
418 417
268 267
744 745
328 329
304 305
151 150
47 48
69 68
110 111
777 778
712 711
344 345
752 751
14 15
585 584
750 751
636 635
177 176
269 270
296 297
540 541
666 665
225 224
270 271
558 557
473 472
355 356
147 146
645 646
174 173
58 59
730 731
513 512
667 666
509 508
622 621
502 503
582 583
444 445
263 262
145 146
299 298
339 338
401 400
145 144
747 748
85 86
237 236
429 428
21 22
492 493
394 393
210 209
209 208
638 637
464 463
397 398
647 646
89 90
774 773
44 43
474 475
245 244
224 223
708 709
322 323
620 621
84 83
169 168
533 534
668 669
180 179
700 701
524 525
771 770
658 657
326 325
243 242
325 324
520 519
246 247
415 416
455 454
576 577
650 651
518 517
725 726
764 763
441 440
43 42
728 727
582 581
193 192
7 8
452 451
414 413
483 482
409 408
393 392
65 66
726 727
698 697
455 456
105 106
588 587
212 211
624 625
133 134
223 222
68 67
422 421
504 503
494 495
431 430
343 344
686 685
489 488
210 211
39 38
25 24
626 627
313 314
513 514
741 740
660 661
185 184
127 128
672 673
218 217
287 288
378 377
571 572
265 264
249 248
440 439
703 702
311 310
317 316
407 408
382 383
608 607
471 472
402 401
706 705
715 714
154 155
148 147
718 717
311 312
738 739
780 781
650 649
593 592
450 449
16 15
349 350
782 781
129 128
566 565
234 235
469 470
10 9
399 400
654 653
135 136
297 298
187 186
133 132
558 559
444 443
26 25
486 485
519 518
535 536
197 198
579 580
570 569
60 61
517 516
11 12
278 277
615 616
554 553
716 715
161 162
659 658
914 339 327
444 445
212 211
273 274
283 284
368 367
353 354
205 204
701 700
283 282
840 841
883 884
873 872
221 222
723 722
637 636
318 317
160 161
517 518
635 634
209 210
505 506
691 692
105 106
803 802
858 857
673 674
623 624
327 326
123 124
365 366
339 338
338 337
897 898
603 602
156 157
403 404
289 288
315 314
270 271
290 289
624 625
212 213
571 570
326 325
659 660
404 405
763 762
711 712
811 810
669 668
612 613
562 561
245 244
876 877
821 820
729 730
774 775
517 516
323 324
806 805
553 554
166 165
710 711
21 20
876 875
72 71
300 301
559 560
428 429
395 396
738 739
437 436
89 88
18 19
715 714
651 652
27 28
780 779
36 35
103 102
149 150
164 165
640 641
842 843
419 420
141 142
40 39
45 44
481 482
356 355
408 407
415 416
716 717
331 330
448 447
109 110
784 783
892 893
101 102
681 680
370 369
137 138
688 687
666 665
865 866
57 58
837 836
815 816
675 674
912 913
65 64
108 109
237 236
884 885
440 441
166 167
810 809
633 632
167 168
408 409
353 352
78 79
908 909
699 700
261 260
772 773
912 911
371 372
826 825
467 468
596 595
34 33
130 129
35 34
537 538
297 298
597 598
71 70
628 629
284 285
610 611
248 249
794 793
619 618
591 592
92 93
268 267
491 490
728 729
784 785
527 528
706 707
183 184
781 782
656 655
644 645
798 799
40 41
725 724
873 874
31 30
489 488
800 801
429 430
417 418
667 666
520 519
546 545
536 535
524 523
181 180
74 73
718 717
100 101
94 93
817 816
494 493
649 648
686 685
155 156
401 402
16 15
74 75
681 682
141 140
302 301
796 797
596 597
814 815
914 1
406 407
623 622
693 692
683 684
319 320
7 6
794 795
844 843
277 278
472 473
175 174
233 232
847 848
670 671
312 313
688 689
396 397
875 874
540 539
640 639
558 557
340 339
325 324
578 577
128 127
164 163
615 616
196 195
759 758
880 881
88 87
29 28
14 15
485 484
495 496
335 334
107 108
386 385
509 508
176 177
822 823
864 863
146 147
361 360
750 749
427 426
820 819
206 207
158 157
515 516
720 721
609 610
518 519
120 121
642 643
812 811
631 630
241 242
703 704
449 450
690 691
761 762
647 648
743 742
696 697
423 422
650 651
724 723
575 574
706 705
800 799
341 340
424 425
695 694
4 5
54 53
380 381
334 333
828 829
369 368
417 416
433 432
500 499
105 104
563 564
639 638
626 627
805 804
642 641
317 316
743 744
869 868
223 222
376 375
11 12
448 449
33 32
393 394
510 509
26 27
254 255
464 465
741 742
572 573
195 194
859 858
773 774
747 748
431 432
304 305
292 291
37 38
758 757
80 81
537 536
713 714
133 134
586 587
477 476
481 480
348 347
737 736
576 575
588 587
153 154
469 468
886 887
543 544
351 350
270 269
589 590
218 219
261 262
745 744
753 754
813 814
808 807
384 385
25 24
830 831
459 460
25 26
777 776
747 746
854 853
82 83
49 50
735 736
307 308
411 412
243 242
780 781
653 652
70 69
357 356
57 56
406 405
320 321
346 347
42 43
147 148
391 392
58 59
203 202
319 318
422 421
685 684
205 206
314 313
852 851
458 457
364 363
398 399
91 92
364 365
696 695
888 887
201 200
653 654
412 413
782 783
788 787
499 498
187 188
308 309
414 413
492 491
497 496
588 589
911 910
861 860
877 878
438 437
622 621
728 727
202 201
895 894
409 410
163 162
770 769
239 238
803 804
647 646
881 882
81 82
862 863
891 892
733 732
155 154
183 182
454 453
235 234
710 709
828 827
382 383
264 263
48 49
562 563
61 62
738 737
765 766
498 497
669 670
718 719
120 119
786 785
73 72
264 265
493 492
659 658
307 306
484 483
606 605
122 121
321 322
246 245
500 501
554 555
557 556
882 883
235 236
350 349
913 914
225 224
848 849
60 61
76 77
227 226
375 374
657 656
558 559
625 626
199 198
128 129
4 3
355 354
502 501
177 178
583 584
482 483
853 852
676 677
193 192
581 582
244 243
136 135
200 199
494 495
374 373
257 256
791 792
98 97
209 208
329 328
574 573
127 126
679 678
604 605
111 112
230 229
721 722
337 336
752 753
767 768
906 907
841 842
197 196
662 663
225 226
214 213
21 22
379 378
187 186
193 194
616 617
345 346
266 265
662 661
748 749
198 197
755 754
440 439
601 602
191 192
234 233
114 115
281 280
434 433
600 601
906 905
580 579
297 296
394 395
85 86
444 443
428 427
513 514
910 909
259 258
795 796
68 67
189 190
144 145
478 479
180 179
646 645
99 100
451 452
629 630
895 896
834 835
746 745
343 344
55 56
860 859
272 273
552 553
690 689
414 415
467 466
632 631
890 891
87 86
487 486
565 566
380 379
367 366
902 901
258 257
305 306
442 441
2 1
452 453
223 224
5 6
191 190
135 134
821 822
132 133
131 130
778 777
702 701
330 329
856 857
608 607
612 611
266 267
470 469
316 315
456 457
833 834
52 51
439 438
55 54
240 239
272 271
761 760
855 854
779 778
296 295
459 458
566 567
208 207
419 418
401 400
431 430
426 425
698 697
478 477
63 62
294 293
650 649
790 789
888 889
230 231
528 529
151 150
170 169
218 217
550 549
709 708
578 579
382 381
16 17
175 176
465 466
592 593
715 716
767 766
797 798
462 461
538 539
23 24
90 91
838 839
184 185
899 900
253 254
77 78
788 789
393 392
8 9
181 182
658 657
627 628
186 185
373 372
446 447
769 768
556 555
146 145
513 512
475 476
159 160
19 20
898 899
521 520
735 734
532 533
667 668
229 228
542 541
838 837
463 462
59 60
672 671
232 231
572 571
655 654
702 703
454 455
757 756
114 113
850 851
359 360
594 593
295 294
775 776
561 560
472 471
733 734
726 725
535 534
615 614
771 770
576 577
132 131
276 277
292 293
162 161
159 158
751 750
358 359
303 304
636 635
410 411
179 178
342 343
832 831
818 819
89 90
545 544
548 547
504 503
144 143
845 844
868 867
344 345
512 511
36 37
173 172
47 48
813 812
204 203
849 850
705 704
511 510
889 890
832 833
731 730
362 363
291 290
872 871
282 281
633 634
10 11
250 249
113 112
269 268
474 473
279 278
526 527
530 531
76 75
210 211
479 480
582 583
676 675
115 116
687 686
607 606
609 608
288 287
7 8
96 95
116 117
455 456
523 522
896 897
52 53
677 678
39 38
490 489
541 540
216 215
327 328
894 893
31 32
298 299
870 871
67 66
263 262
826 827
95 94
171 172
755 756
585 584
18 17
598 599
276 275
548 549
487 488
739 740
866 867
599 600
817 818
303 302
907 908
12 13
386 387
434 435
331 332
680 679
464 463
902 903
508 507
63 64
719 720
286 287
801 802
533 534
839 840
825 824
142 143
122 123
618 617
683 682
402 403
614 613
300 299
274 275
97 96
580 581
335 336
348 349
471 470
103 104
619 620
830 829
595 594
22 23
865 864
125 124
137 136
332 333
550 551
643 644
485 486
570 569
387 388
847 846
461 460
174 173
731 732
421 420
751 752
565 564
515 514
138 139
637 638
663 664
50 51
247 248
532 531
660 661
569 568
68 69
259 260
311 312
900 901
215 214
835 836
13 14
904 905
252 253
370 371
741 740
286 285
568 567
149 148
10 9
522 521
323 322
117 118
217 216
311 310
119 118
29 30
546 547
80 79
341 342
524 525
878 879
764 763
903 904
219 220
727 726
760 759
823 824
585 586
45 46
699 698
870 869
603 604
83 84
106 107
241 240
152 151
310 309
361 362
530 529
188 189
885 886
377 376
764 765
378 377
861 862
250 251
445 446
384 383
357 358
786 787
85 84
46 47
845 846
44 43
442 443
792 793
251 252
772 771
856 855
169 168
807 806
400 399
42 41
713 712
791 790
880 879
255 256
228 227
140 139
220 221
621 620
398 397
110 111
451 450
507 506
66 65
708 707
693 694
672 673
435 436
590 591
525 526
502 503
665 664
351 352
552 551
423 424
505 504
543 542
238 237
391 390
279 280
390 389
389 388
125 126
247 246
475 474
171 170
808 809
98 99
2 3
153 152
1222 894 1182
1 11
265 252
821 55
7 4
383 479
36 380
219 283
62 298
473 907
141 423
245 214
160 278
461 328
462 435
536 266
505 231
1110 911
182 571
267 902
320 194
429 966
974 1157
939 1001
648 615
141 99
814 190
389 381
280 104
759 343
406 181
225 374
561 529
1134 662
895 347
180 299
1131 18
758 818
1020 1108
990 111
263 474
14 662
113 46
325 420
211 824
569 670
53 900
794 250
131 101
140 80
272 912
36 38
1214 910
408 148
822 673
593 684
304 128
447 605
184 124
165 1036
1183 117
4 645
584 500
266 743
807 739
393 476
882 857
192 352
240 375
391 51
791 439
182 263
81 97
180 195
1031 552
1040 444
647 746
80 89
96 315
808 121
66 800
1101 432
333 237
890 446
632 940
47 48
1045 1193
772 11
1202 1149
427 179
175 305
483 361
624 1107
162 491
719 1005
729 160
247 4
357 622
379 609
1026 726
682 15
494 815
935 775
269 623
569 1081
524 632
875 925
444 281
984 274
1086 220
758 242
1161 240
217 365
1060 749
498 313
447 16
446 435
311 494
1 267
610 630
991 340
762 195
555 1154
720 1126
354 35
747 370
1068 1168
832 467
370 175
800 864
384 651
777 1215
246 285
598 346
176 161
81 691
39 33
983 874
425 343
379 382
19 127
1158 395
1109 418
572 934
1142 343
855 1079
416 977
290 646
129 145
173 334
1211 1112
34 11
143 112
51 75
513 1083
80 232
1182 783
189 125
167 313
174 873
690 563
279 950
517 1070
1129 336
71 371
49 47
520 479
39 161
933 971
612 379
23 1098
1151 497
136 686
872 178
93 200
436 400
452 208
90 1125
626 398
685 273
58 246
784 376
648 1054
73 786
275 115
336 337
270 525
1163 428
458 655
745 211
165 667
173 258
41 336
28 1102
292 588
40 5
188 261
183 168
70 1025
122 136
303 1139
674 386
61 167
313 1016
80 665
589 378
781 1059
270 594
162 397
28 27
663 610
810 637
413 77
901 852
698 592
508 152
689 1203
531 862
117 1103
753 691
898 593
1188 474
342 503
599 881
608 625
212 489
128 160
196 34
106 123
14 224
1038 865
976 273
276 241
459 572
972 691
120 73
842 823
126 93
119 198
615 595
1217 1106
67 54
211 310
285 801
1045 661
671 750
1190 376
14 27
63 919
4 306
1134 1194
172 330
1065 341
659 609
464 849
911 325
467 83
335 233
262 469
97 116
863 245
16 290
233 805
774 545
502 827
500 323
337 490
60 212
1135 437
53 730
558 321
3 72
520 974
1007 626
15 1207
341 320
309 545
728 1123
85 118
586 1010
171 284
845 403
581 372
215 963
149 1008
364 11
15 8
10 20
565 97
780 156
921 883
17 50
74 2
88 158
783 455
331 61
421 226
36 64
1153 479
813 523
156 820
726 615
90 1003
87 522
270 343
161 173
595 144
398 650
1013 503
1221 721
1 129
606 410
27 492
396 611
363 246
25 26
66 15
544 1095
1011 376
553 430
1170 324
644 432
229 969
170 1023
44 8
81 33
1104 637
539 244
20 218
307 134
169 256
697 224
949 1201
210 637
956 388
566 380
353 958
1155 360
601 386
671 803
152 104
266 767
589 634
870 737
321 328
1192 130
766 1120
527 314
506 145
876 536
113 209
192 123
1044 129
113 477
1099 359
86 204
438 660
300 153
60 6
187 226
259 97
740 1015
4 357
414 103
1017 473
355 185
41 497
22 32
150 60
321 43
2 22
1173 2
370 488
96 485
448 533
989 394
256 535
537 420
658 704
308 159
773 745
62 35
855 118
509 154
528 962
445 430
96 157
295 104
619 41
384 1144
227 163
396 203
686 871
499 190
886 556
25 770
96 286
840 326
703 1018
180 344
768 1111
57 260
118 624
82 53
51 50
348 17
1076 268
493 230
71 49
1150 48
351 560
28 404
305 755
483 967
474 556
1019 1030
443 602
437 123
639 62
810 1090
73 1000
393 57
385 903
3 2
513 202
1128 959
346 317
42 153
1186 1088
714 369
96 576
772 1058
1094 516
495 100
751 631
905 704
470 237
540 260
813 910
50 186
1143 650
1048 744
28 68
228 1189
978 246
61 42
76 339
309 664
163 25
190 38
922 737
25 223
475 679
936 590
980 1022
5 80
706 362
454 246
6 478
241 114
24 59
859 162
102 90
836 341
337 817
6 104
1185 78
431 549
828 207
14 3
226 896
167 717
995 325
1080 440
155 237
1002 5
287 681
109 468
87 88
120 135
197 74
476 600
771 48
577 560
282 250
657 244
2 1146
240 521
744 811
457 270
1167 381
61 84
24 3
406 1152
985 158
395 129
671 797
640 289
1181 685
924 766
60 1121
333 986
216 737
884 780
1024 180
777 1196
113 415
291 182
136 591
96 236
442 259
73 31
834 1039
16 411
46 585
127 429
553 1029
861 1087
902 1077
40 515
166 191
718 270
558 610
510 417
459 439
439 291
362 242
25 108
32 188
91 48
89 311
996 48
16 5
8 10
97 531
787 773
674 953
218 262
1133 112
862 968
74 238
617 389
958 1162
693 188
147 812
193 700
169 277
823 675
201 162
6 5
475 789
649 607
263 345
110 139
13 12
1042 100
34 57
320 419
597 73
463 850
1043 552
13 56
864 1180
114 109
14 187
1114 104
492 514
80 1021
417 673
1089 306
182 92
146 58
568 473
292 567
530 355
1117 1175
90 796
394 25
167 228
938 489
598 781
980 700
719 627
71 94
85 10
114 708
213 351
658 192
1216 208
11 254
1197 473
76 138
440 183
301 672
432 875
973 435
75 77
17 11
998 818
1047 671
194 547
587 450
173 367
9 399
517 65
473 1092
63 35
48 432
173 554
109 326
647 187
528 1050
50 424
114 270
1206 1189
368 359
516 191
454 1199
240 107
37 987
515 529
878 928
35 42
509 932
638 464
272 689
124 1028
197 636
165 100
234 67
174 604
819 833
110 102
1218 1069
56 332
161 621
715 543
1053 174
357 959
98 214
844 751
252 36
1209 547
802 261
270 407
94 148
374 448
254 314
1007 1068
616 500
358 582
59 95
388 799
641 590
454 982
52 211
1061 941
216 91
537 1118
305 732
578 378
720 414
856 437
734 384
534 456
407 952
273 5
1072 1051
139 219
93 635
267 532
465 277
628 585
133 54
785 997
724 465
915 395
893 607
1187 115
269 434
403 300
135 266
710 931
135 694
494 727
78 5
93 178
328 1136
442 937
795 122
388 944
626 834
50 257
93 87
28 707
155 42
1085 28
1184 90
181 175
387 312
843 494
1034 365
79 40
1220 139
1179 1036
152 544
264 152
683 657
20 35
562 274
580 278
455 320
510 575
701 347
165 1164
376 60
198 496
173 1071
1159 9
1117 693
153 349
643 209
761 350
1138 807
721 150
994 872
1105 1057
171 46
348 618
979 852
109 248
457 736
367 385
643 914
52 202
564 185
100 185
392 93
390 471
185 456
19 316
63 829
538 497
236 593
164 441
312 324
960 60
505 954
631 409
613 404
283 550
1205 1151
484 218
13 128
361 254
841 773
793 380
99 27
269 225
321 428
217 329
399 473
444 677
1062 606
296 138
312 1204
37 19
4 2
200 699
47 213
4 1
327 899
756 128
460 366
149 46
676 837
1056 714
217 680
453 240
323 642
204 656
964 1124
40 888
377 889
92 87
99 147
788 143
15 272
193 148
223 475
288 259
350 286
740 339
438 300
77 166
735 405
132 18
1020 176
121 723
38 838
92 101
596 731
211 816
1148 465
1160 264
31 268
410 961
773 981
798 302
1088 513
119 386
1174 965
179 203
578 1178
1062 1140
215 120
243 41
144 84
482 652
964 916
78 107
916 1172
319 86
435 1116
45 1051
975 761
39 848
379 237
1212 529
11 111
739 488
39 860
117 14
65 19
340 614
526 137
30 27
702 656
75 366
325 316
263 400
244 287
603 927
76 34
213 765
119 86
9 168
445 883
96 31
639 779
251 123
448 904
323 356
119 221
312 269
1052 83
528 508
50 242
33 46
134 56
793 1100
372 1176
650 725
711 879
1004 261
906 831
360 24
507 101
34 217
112 47
41 37
653 271
4 55
113 297
172 661
5 1
129 156
84 738
869 312
682 766
183 464
545 1106
179 101
713 598
608 451
1029 1198
148 154
1156 979
129 249
279 93
376 695
885 186
342 273
380 1019
167 430
775 894
798 1210
1127 137
381 187
511 782
478 939
865 480
469 1075
105 15
333 524
1046 474
289 184
1137 1034
687 1091
563 489
1078 372
676 552
777 489
1027 890
54 35
849 1041
383 257
722 679
569 790
110 115
115 230
535 993
303 229
785 363
486 409
18 292
512 402
195 222
590 229
106 27
255 926
87 21
202 378
50 122
369 696
169 1
193 487
920 169
48 322
172 271
557 160
10 778
999 504
877 730
880 542
263 603
616 705
197 205
754 23
152 170
294 9
1165 73
897 848
189 239
2 857
531 943
422 413
923 1037
453 1200
1057 386
6 8
142 301
89 749
874 909
212 255
518 332
13 302
390 328
129 776
35 137
143 466
237 574
846 386
596 7
208 61
760 336
50 70
1208 913
405 362
1055 75
213 569
1191 312
19 592
449 229
152 409
107 353
941 114
754 853
421 692
757 751
156 433
992 331
22 109
804 273
494 716
12 162
913 85
1130 1022
657 1082
33 36
2 45
1171 494
830 672
43 14
229 112
656 764
945 897
7 21
401 385
132 142
121 244
201 678
1006 678
211 410
617 775
1112 730
229 666
52 744
861 104
366 402
908 509
56 58
712 118
47 19
528 669
668 477
431 1067
5 29
687 594
25 23
551 423
1166 80
372 270
648 948
84 174
357 867
614 1049
281 69
768 370
231 102
728 674
325 338
435 424
350 463
1113 694
411 416
256 570
323 320
341 552
121 106
854 367
851 779
510 1119
1222 693
7 878
143 1012
560 923
25 125
27 86
583 72
792 866
63 347
229 233
809 847
451 233
151 194
414 917
119 318
809 839
35 806
388 835
320 388
929 906
373 258
104 175
1195 261
629 208
1149 774
190 210
426 368
250 159
402 1073
752 365
31 1
1122 1120
16 53
687 1177
579 107
377 350
896 918
206 733
711 550
91 317
543 402
1074 340
372 523
431 383
487 633
100 95
64 742
519 31
412 191
142 916
578 809
164 133
274 38
108 418
748 338
19 3
856 949
57 607
942 862
46 688
197 359
548 269
740 1066
825 661
21 172
1145 403
573 325
2 124
806 892
1014 947
858 682
943 1132
1063 674
138 235
1032 242
9 199
195 946
178 180
18 887
249 253
309 115
149 417
489 769
803 957
1033 365
206 173
487 951
993 1064
83 18
75 1009
96 340
185 369
826 741
475 675
225 191
159 63
552 620
627 336
481 273
398 316
358 144
376 831
604 671
458 443
6 3
727 933
970 433
942 1035
599 142
874 230
852 250
480 511
61 90
868 185
710 129
1059 1219
240 443
1169 505
231 891
388 1096
450 239
18 2
384 169
35 965
333 955
478 541
103 45
207 121
472 39
504 58
947 872
501 314
296 327
792 184
1069 94
954 988
763 330
9 3
220 559
86 480
365 555
482 85
12 11
1097 849
96 98
1141 848
424 1115
147 502
33 9
586 213
50 151
703 238
13 130
21 23
592 1147
1084 739
4 177
320 1093
485 819
283 709
64 930
49 52
220 19
69 12
293 11
1112 1213
378 654
249 542
546 60
741 408
736 579 535
1 446
691 1
570 1
1 715
287 1
76 1
1 442
488 1
1 474
35 1
714 1
624 1
1 99
31 1
270 1
47 1
229 1
1 127
733 1
1 51
7 1
484 1
1 428
517 1
342 1
1 207
1 463
1 324
1 92
1 274
1 146
1 431
649 1
1 57
538 1
400 1
507 1
397 1
201 1
632 1
550 1
16 1
222 1
224 1
709 1
23 1
1 155
53 1
352 1
1 178
1 304
1 511
1 667
416 1
643 1
410 1
692 1
734 1
1 702
1 288
333 1
354 1
36 1
144 1
230 1
5 1
1 666
1 180
1 281
601 1
689 1
398 1
218 1
1 237
679 1
1 269
1 527
515 1
1 722
353 1
117 1
179 1
607 1
478 1
693 1
219 1
161 1
1 608
226 1
78 1
677 1
562 1
249 1
1 157
500 1
1 403
1 323
1 592
1 102
704 1
514 1
589 1
536 1
369 1
494 1
1 633
1 420
1 492
1 60
1 393
645 1
253 1
168 1
1 457
534 1
87 1
1 712
606 1
1 176
320 1
1 150
1 30
1 399
267 1
54 1
1 89
1 729
346 1
1 374
1 405
1 9
1 594
1 234
1 165
604 1
1 363
572 1
1 414
1 455
637 1
1 313
1 233
1 596
388 1
1 413
1 211
590 1
518 1
1 451
1 344
338 1
1 362
411 1
728 1
1 184
71 1
145 1
535 1
123 1
1 328
1 169
330 1
1 175
1 505
1 653
502 1
1 64
614 1
1 680
1 623
24 1
1 331
1 707
464 1
476 1
1 85
598 1
19 1
433 1
1 124
675 1
1 732
626 1
708 1
261 1
585 1
1 472
1 603
220 1
154 1
705 1
238 1
170 1
1 471
1 151
711 1
1 622
94 1
246 1
1 640
205 1
396 1
303 1
727 1
496 1
1 187
62 1
129 1
1 726
676 1
291 1
688 1
661 1
568 1
1 384
306 1
1 93
1 26
1 668
382 1
1 616
160 1
113 1
1 381
285 1
1 532
646 1
221 1
137 1
1 39
245 1
658 1
528 1
1 241
673 1
1 242
83 1
627 1
356 1
1 299
15 1
1 642
314 1
1 555
548 1
1 430
1 2
63 1
710 1
1 247
1 195
1 367
1 277
450 1
1 368
1 339
1 701
1 114
272 1
1 495
1 453
192 1
1 419
1 86
138 1
1 591
557 1
1 198
425 1
1 48
506 1
1 56
1 17
96 1
360 1
107 1
1 379
1 503
1 119
1 332
447 1
1 260
1 437
1 706
1 412
1 316
1 650
1 66
1 652
258 1
1 409
1 276
556 1
1 482
551 1
1 349
1 84
1 8
573 1
1 232
1 485
159 1
1 593
1 120
1 126
441 1
628 1
1 371
439 1
135 1
1 197
1 678
1 255
456 1
1 657
380 1
106 1
70 1
361 1
1 300
1 526
1 200
116 1
1 698
44 1
183 1
1 508
1 392
583 1
1 75
214 1
1 481
172 1
1 125
1 68
365 1
257 1
1 292
544 1
435 1
101 1
1 654
1 724
674 1
483 1
1 660
519 1
58 1
497 1
1 406
415 1
1 520
152 1
1 305
1 521
582 1
656 1
18 1
4 1
317 1
1 490
1 167
1 385
462 1
1 110
1 461
11 1
1 468
21 1
1 203
655 1
223 1
1 600
46 1
530 1
1 43
103 1
723 1
684 1
1 553
244 1
67 1
1 130
1 65
670 1
264 1
625 1
189 1
1 256
1 581
280 1
1 327
401 1
1 524
340 1
554 1
721 1
404 1
1 236
1 243
366 1
325 1
1 196
432 1
141 1
1 469
1 449
579 1
1 139
1 504
25 1
533 1
1 28
1 569
647 1
1 140
3 1
1 686
1 275
1 6
480 1
560 1
55 1
1 586
1 421
72 1
1 373
697 1
295 1
1 364
1 136
1 262
1 61
1 523
424 1
1 630
131 1
171 1
1 641
1 148
1 467
1 345
1 644
1 736
1 620
190 1
391 1
1 42
311 1
268 1
1 491
147 1
1 208
387 1
1 537
1 164
648 1
395 1
1 215
1 731
1 407
1 239
297 1
109 1
719 1
302 1
1 235
487 1
1 248
383 1
1 635
341 1
1 703
1 282
347 1
1 41
1 545
716 1
1 286
1 669
100 1
1 578
199 1
1 618
1 444
1 202
1 251
567 1
605 1
634 1
1 283
664 1
696 1
1 509
231 1
1 90
1 687
278 1
735 1
1 50
1 49
1 718
1 27
584 1
1 91
1 434
1 133
549 1
1 318
1 217
351 1
1 717
1 359
1 372
672 1
52 1
1 699
301 1
1 580
543 1
240 1
417 1
1 279
1 74
1 315
33 1
1 547
489 1
1 720
1 334
1 438
1 32
1 254
1 621
204 1
1 210
1 182
343 1
1 448
683 1
209 1
389 1
695 1
1 156
1 20
59 1
1 348
1 690
104 1
1 725
1 615
1 609
1 185
563 1
685 1
617 1
1 294
1 498
1 559
1 522
1 118
564 1
250 1
1 263
1 98
1 350
3 2
1 322
1 14
1 611
565 1
1 418
574 1
326 1
1 599
546 1
1 81
37 1
335 1
158 1
597 1
512 1
376 1
181 1
225 1
426 1
1 153
1 427
1 143
499 1
1 193
1 265
1 298
1 730
128 1
1 577
310 1
1 613
77 1
1 336
552 1
177 1
1 337
115 1
575 1
10 1
38 1
1 308
636 1
134 1
1 423
95 1
470 1
576 1
355 1
1 501
1 595
1 694
1 663
386 1
1 516
612 1
88 1
45 1
370 1
1 212
296 1
665 1
671 1
486 1
174 1
1 629
1 631
659 1
587 1
1 289
191 1
525 1
1 80
1 566
358 1
445 1
465 1
186 1
40 1
1 163
1 105
466 1
12 1
1 97
1 473
443 1
1 619
213 1
440 1
1 252
273 1
475 1
540 1
1 173
357 1
69 1
82 1
1 558
1 542
1 271
1 166
1 194
1 319
1 402
1 375
1 460
1 290
1 79
1 122
429 1
228 1
510 1
1 561
1 121
108 1
408 1
1 493
1 436
394 1
1 651
1 284
22 1
34 1
700 1
1 259
1 602
1 638
1 206
1 682
458 1
1 216
1 111
1 571
479 1
1 73
309 1
188 1
162 1
1 681
588 1
477 1
1 293
1 321
1 454
452 1
529 1
266 1
1 422
227 1
1 513
459 1
1 713
132 1
112 1
142 1
1 312
13 1
541 1
610 1
1 29
1 531
1 662
1 149
1 329
378 1
307 1
1 377
390 1
539 1
639 1
938 637 543
529 530
836 835
311 312
402 403
882 883
588 587
862 863
1 6
772 773
501 502
285 286
239 240
35 34
280 279
647 648
573 574
262 263
529 528
828 827
645 644
352 351
375 374
789 790
599 600
82 81
268 269
643 642
671 670
854 853
548 547
454 453
121 122
464 463
848 849
671 672
590 589
723 722
903 904
592 593
456 457
134 135
545 546
859 860
363 362
153 154
739 740
128 127
658 659
663 662
614 615
655 654
459 458
44 45
315 314
161 160
562 563
548 549
61 62
171 172
8 9
459 460
425 424
304 303
142 143
127 126
753 754
514 513
907 906
580 581
33 34
401 402
442 443
534 535
526 525
737 736
811 810
400 399
476 475
391 392
930 929
577 576
549 550
143 144
735 736
690 689
485 486
250 249
619 618
422 423
148 147
408 409
464 465
591 590
555 554
70 71
850 849
851 852
170 169
930 931
30 31
908 909
632 631
147 146
432 431
934 935
539 540
729 730
454 455
39 40
733 734
400 401
222 221
363 364
63 62
277 276
94 95
56 57
416 417
308 307
65 66
427 428
270 269
377 376
556 555
721 720
82 83
597 596
777 776
691 690
360 359
545 544
779 778
245 244
246 247
741 740
469 470
43 42
819 820
586 585
237 236
97 98
580 579
922 921
881 882
547 546
716 717
230 229
428 429
647 646
569 568
383 384
672 673
140 139
407 408
112 113
420 421
281 280
607 606
696 695
700 701
431 430
662 661
87 86
795 796
78 79
226 225
539 538
770 771
183 182
936 935
914 913
608 607
6 783
625 624
188 187
181 180
719 720
370 369
510 509
908 907
76 77
707 706
387 388
19 20
170 171
377 378
44 43
484 483
932 931
65 64
873 874
798 797
755 756
816 817
578 577
165 164
666 667
604 605
14 13
47 48
829 828
665 664
110 109
842 841
783 784
508 509
25 24
217 218
919 920
339 340
300 299
184 185
691 692
84 85
919 918
829 830
412 411
856 855
478 479
310 311
615 616
484 485
752 751
274 275
413 414
859 858
800 801
217 216
356 357
680 681
622 621
281 282
846 845
88 87
252 251
151 152
732 733
474 473
395 396
533 532
641 640
490 489
896 895
803 802
223 222
272 273
446 447
767 766
297 298
483 482
864 865
444 443
38 37
491 490
467 466
461 460
386 385
409 410
781 782
652 651
405 406
620 619
846 847
501 500
563 564
344 345
462 461
258 257
839 838
667 668
201 202
611 612
330 331
344 343
537 536
765 764
536 535
71 72
775 776
337 336
321 320
758 759
813 812
338 339
374 373
417 418
677 676
112 111
886 887
926 927
660 661
397 398
834 833
711 710
472 4
407 406
158 157
107 106
288 289
566 567
614 613
32 33
264 263
421 422
91 90
713 714
92 93
129 128
430 429
764 763
204 203
578 579
533 534
168 169
899 898
734 735
104 103
805 804
595 596
889 888
119 118
359 358
871 872
769 770
445 446
627 628
97 96
766 765
850 851
438 439
382 381
168 167
300 301
361 362
260 261
181 182
744 743
808 809
318 317
25 26
837 836
275 276
527 526
225 224
500 499
937 938
122 123
365 366
30 29
920 921
644 643
5 4
10 9
290 289
523 522
47 46
494 495
193 194
774 773
649 650
436 437
178 177
560 559
712 713
27 26
198 197
825 824
537 538
832 831
335 336
141 142
822 821
617 616
777 778
591 592
415 414
875 876
84 83
923 922
64 63
12 13
435 434
477 476
100 99
761 762
452 453
340 341
594 595
726 725
739 738
570 569
892 891
133 132
623 624
886 885
811 812
525 524
760 759
492 491
440 439
393 394
288 287
807 806
405 404
50 51
808 807
562 561
885 884
188 189
847 848
277 278
480 479
642 641
687 688
857 856
758 757
19 18
10 11
186 185
176 175
391 390
360 361
384 385
904 905
200 201
752 753
823 822
896 897
744 745
228 227
521 522
487 488
878 877
709 710
494 493
583 582
146 145
220 219
636 637
247 248
893 894
159 158
215 216
870 871
860 861
756 757
543 544
56 55
61 60
8 7
273 274
834 835
711 712
328 327
189 190
380 379
427 426
617 618
208 209
601 602
588 589
299 298
282 283
14 15
683 682
707 708
259 260
640 639
89 90
892 893
442 441
603 602
356 355
814 813
934 933
741 742
749 748
889 890
365 364
645 646
200 199
540 541
410 411
370 371
295 296
309 310
718 719
927 928
434 433
487 486
685 684
70 69
301 302
586 587
51 52
332 333
803 804
872 873
925 924
418 419
137 138
254 253
58 57
912 911
815 814
96 95
583 584
248 249
347 346
15 16
212 213
132 131
48 49
527 528
447 448
584 585
1 7
826 827
22 23
506 507
694 693
844 845
785 786
916 917
633 632
140 141
524 523
665 666
897 898
264 265
285 284
210 209
259 258
604 603
833 832
715 716
699 698
824 823
475 474
195 194
333 334
383 382
108 109
663 664
104 105
743 742
879 878
611 610
444 445
389 390
630 631
324 325
581 582
575 576
638 637
28 29
211 212
134 133
924 923
88 89
191 190
36 35
630 629
516 515
111 110
657 656
349 350
245 246
228 229
573 572
658 657
266 265
67 66
93 94
308 309
788 789
124 123
3 317
594 593
505 506
718 717
352 353
242 241
107 108
680 679
155 154
313 312
438 437
231 230
862 861
304 305
262 261
530 531
496 495
785 784
125 124
728 727
612 613
2 1
187 186
929 928
763 762
511 512
575 574
826 825
279 278
686 685
912 913
244 243
32 31
20 21
440 441
254 255
75 76
210 211
868 869
102 101
489 488
354 355
639 638
232 233
118 117
599 598
144 145
284 283
207 206
394 395
532 531
393 392
705 706
626 625
436 435
172 173
498 497
24 23
86 85
404 403
572 571
41 42
541 542
449 448
135 136
702 701
560 561
115 114
910 911
906 905
916 915
354 353
820 821
242 243
49 50
678 677
67 68
334 335
542 543
415 416
386 387
184 183
521 520
567 568
99 98
115 116
648 649
294 295
597 598
148 149
424 423
724 725
79 80
357 358
748 747
208 207
236 235
396 397
855 854
324 323
687 686
689 688
926 925
571 570
503 504
877 876
755 754
347 348
223 224
515 514
787 786
727 726
150 149
558 557
858 857
551 552
253 252
831 830
608 609
518 517
156 155
114 113
329 328
760 761
511 510
22 21
903 902
796 797
866 867
751 750
456 455
163 164
315 316
653 654
818 817
17 18
517 516
343 342
238 239
81 80
319 318
27 28
901 902
768 769
54 55
213 214
551 550
368 367
117 116
267 268
367 366
45 46
305 306
481 480
729 728
286 287
2 162
166 165
793 794
554 553
91 92
867 868
196 195
338 337
557 556
914 915
559 558
5 627
380 381
698 697
329 330
815 816
432 433
767 768
738 737
900 901
869 870
730 731
473 472
197 196
341 342
59 58
841 840
696 697
72 73
52 53
272 271
174 175
60 59
800 799
227 226
656 655
205 204
323 322
192 191
519 520
120 121
566 565
369 368
565 564
704 703
130 131
670 669
320 319
412 413
2 3
468 467
884 883
179 178
605 606
256 257
202 203
234 235
909 910
774 775
12 11
462 463
508 507
138 139
327 326
179 180
426 425
620 621
723 724
345 346
700 699
918 917
650 651
39 38
152 153
326 325
388 389
237 238
518 519
450 451
552 553
695 694
150 151
449 450
137 136
36 37
271 270
378 379
101 100
703 702
505 504
307 306
805 806
498 499
512 513
678 679
652 653
465 466
126 125
176 177
681 682
103 102
40 41
722 721
791 790
731 732
772 771
251 250
750 749
78 77
635 634
502 503
801 802
372 373
219 218
810 809
780 781
74 73
296 297
5 6
54 53
675 674
668 669
4 3
837 838
267 266
693 692
634 633
376 375
497 496
839 840
936 937
853 852
291 290
660 659
420 419
745 746
709 708
120 119
233 234
458 457
293 294
844 843
199 198
351 350
791 792
747 746
105 106
163 162
471 470
221 220
818 819
492 493
865 866
468 469
293 292
129 130
74 75
683 684
673 674
174 173
332 331
371 372
888 887
879 880
68 69
159 160
635 636
705 704
16 17
629 628
482 481
303 302
842 843
214 215
899 900
193 192
788 787
799 798
933 932
714 715
780 779
166 167
231 232
874 875
891 890
255 256
451 452
675 676
398 399
313 314
240 241
600 601
609 610
157 156
292 291
321 322
349 348
894 895
881 880
795 794
793 792
206 205
623 622
864 863
478 477
