28
470 2 377
388 387
282 283
432 433
234 233
419 420
328 327
386 387
2 84
58 59
267 266
164 163
463 464
102 101
227 228
84 85
437 438
323 322
452 453
276 277
413 412
278 279
454 455
240 239
48 47
370 371
260 259
286 287
119 118
157 156
145 146
269 268
118 117
64 63
119 120
104 103
117 116
258 259
341 340
242 241
219 220
357 358
108 107
266 265
1 2
229 230
104 105
135 136
90 91
221 220
70 69
166 165
151 150
462 461
155 156
22 23
343 342
359 360
383 382
372 373
409 410
124 123
371 372
234 235
468 467
175 174
91 92
161 162
384 383
50 51
360 361
44 45
63 62
53 52
113 114
342 341
72 73
375 376
264 263
7 8
269 270
19 18
450 449
236 235
268 267
369 368
65 64
27 26
45 46
469 470
171 172
152 151
222 221
127 128
196 195
110 111
69 68
456 455
379 378
189 188
324 323
4 3
274 273
213 214
147 146
200 199
350 349
241 240
204 205
361 362
226 227
419 418
78 77
203 202
325 326
446 445
115 114
61 62
311 310
4 5
448 447
140 141
35 36
14 13
78 79
130 129
74 75
411 412
193 192
80 79
454 453
315 5
281 280
368 367
358 359
432 431
134 135
12 11
375 374
158 157
137 138
39 40
257 258
224 225
131 132
253 254
395 394
417 418
327 326
421 420
178 179
10 9
105 106
88 89
92 93
295 296
264 265
339 338
206 207
107 106
23 24
417 416
352 351
219 218
398 397
20 21
405 406
318 317
275 276
87 86
10 11
71 72
228 229
216 215
95 94
211 212
185 184
17 18
285 284
316 315
180 181
404 403
60 61
312 313
334 333
406 407
41 40
429 430
34 33
66 67
7 1
461 460
405 404
177 178
457 456
255 254
24 25
357 356
320 321
332 333
198 199
177 176
88 87
309 310
133 134
142 143
435 436
248 247
428 429
347 346
322 321
288 289
396 397
121 120
335 334
246 247
223 222
256 255
28 29
216 217
243 244
249 248
224 223
187 188
35 34
113 112
32 33
77 76
144 145
273 272
278 277
192 191
170 169
74 73
364 363
13 12
108 109
396 395
430 431
133 132
31 32
172 173
154 155
210 211
279 280
103 102
142 141
171 170
304 303
5 6
194 195
320 319
283 284
163 162
434 433
95 96
15 14
232 231
272 271
440 441
423 424
43 42
379 380
407 408
94 93
464 465
400 401
201 202
237 236
301 300
204 203
167 168
426 425
355 354
298 299
6 393
307 306
185 186
116 115
179 180
48 49
19 20
225 226
110 109
304 305
197 198
149 148
287 288
15 16
421 422
56 55
187 186
445 444
415 414
365 366
67 68
356 355
8 9
439 440
294 295
136 137
58 57
30 29
410 411
138 139
131 130
450 451
16 17
329 330
354 353
42 41
56 57
335 336
350 351
331 330
208 207
182 183
99 100
282 281
251 252
439 438
70 71
441 442
337 338
150 149
448 449
462 463
139 140
403 402
300 299
193 194
293 294
250 251
427 426
336 337
52 51
466 467
200 201
377 378
409 408
181 182
97 96
238 239
250 249
65 66
148 147
1 6
296 297
121 122
348 349
302 301
413 414
38 39
381 380
436 437
206 205
298 297
210 209
161 3
347 348
232 233
260 261
245 246
389 390
399 398
285 286
353 352
55 54
363 362
311 312
2 3
443 442
388 389
46 47
374 373
317 316
369 370
49 50
158 159
318 319
401 402
253 252
196 197
289 290
37 38
243 242
59 60
423 422
36 37
75 76
340 339
44 43
22 21
291 292
125 124
244 245
101 100
314 313
160 159
451 452
164 165
98 99
190 189
325 324
385 384
291 290
152 153
175 176
81 82
81 80
400 399
54 53
345 344
166 167
391 392
415 416
98 97
332 331
274 275
262 261
434 435
184 183
168 169
309 308
459 458
238 4
447 446
468 469
143 144
218 217
344 343
126 127
390 391
123 122
173 174
302 303
111 112
212 213
89 90
328 329
257 256
27 28
424 425
26 25
305 306
346 345
457 458
263 262
209 208
31 30
377 376
428 427
231 230
394 393
214 215
292 293
82 83
364 365
191 190
385 386
308 307
126 125
129 128
366 367
459 460
382 381
444 443
466 465
85 86
270 271
153 154
434 4 9
240 239
414 413
280 279
161 160
310 311
310 309
72 71
278 277
322 323
179 178
212 213
431 430
361 362
122 123
15 14
346 345
229 228
276 275
288 289
4 3
364 363
5 291
205 204
415 416
150 149
243 244
218 217
190 189
374 375
192 193
93 92
130 131
417 416
61 62
340 339
34 35
261 262
98 97
296 295
162 161
299 298
332 333
422 423
395 394
92 91
69 70
353 352
432 433
175 176
101 100
166 165
154 155
300 301
103 102
259 258
273 272
402 403
273 274
400 399
95 94
105 106
7 8
253 252
305 306
392 391
225 226
195 194
272 271
98 99
28 29
32 33
196 197
223 222
227 226
235 234
13 12
374 373
45 46
207 206
330 329
312 311
25 24
337 338
125 126
411 412
116 117
237 236
261 260
316 317
29 30
434 433
106 107
254 255
200 201
384 385
215 216
157 158
155 156
396 397
360 359
198 197
233 232
66 65
333 334
19 18
265 266
366 367
50 51
154 153
179 180
342 343
368 369
429 428
128 127
321 320
171 172
372 371
80 81
301 302
112 113
9 8
88 89
389 388
282 283
114 115
95 96
396 395
257 258
217 216
314 315
406 407
215 214
188 189
140 141
354 355
84 85
159 158
428 427
167 166
392 393
409 410
174 175
134 133
324 325
424 425
323 324
285 284
40 39
302 303
132 131
334 335
317 318
276 277
341 342
120 119
250 251
287 288
31 32
264 263
344 345
177 176
319 320
201 202
184 185
188 187
132 133
164 163
72 73
151 150
6 5
78 79
426 425
147 146
350 351
209 210
377 378
255 256
142 143
89 90
168 169
49 50
235 236
36 35
240 241
377 376
318 319
297 296
326 327
37 38
359 358
315 316
63 64
211 210
149 3
64 65
212 211
129 130
170 169
177 178
102 101
221 222
45 44
23 24
305 304
123 124
409 408
279 278
90 91
81 82
257 256
84 83
21 22
404 403
1 2
17 16
262 263
356 357
274 275
420 421
346 347
142 141
114 113
426 427
355 356
73 74
248 247
27 28
405 404
36 37
349 348
376 375
224 225
34 33
136 137
25 26
265 264
251 252
69 68
239 238
144 145
380 379
55 56
14 13
145 146
237 238
292 293
10 11
421 422
168 167
410 411
119 118
361 360
58 57
408 407
357 358
398 397
331 332
46 47
67 68
186 187
368 367
192 191
60 61
120 121
335 336
112 111
350 349
116 115
185 186
297 298
104 105
292 291
3 2
364 365
48 49
214 213
341 340
259 260
249 250
420 419
183 184
100 99
60 59
43 44
41 42
378 379
398 399
140 139
243 242
269 270
267 268
242 241
67 66
328 329
193 194
233 234
103 104
127 126
254 253
308 309
111 110
138 137
118 117
432 431
54 55
121 122
385 386
78 2
343 344
229 230
191 190
336 337
303 304
10 9
107 108
218 219
16 15
181 182
267 266
75 76
156 157
159 160
429 430
165 164
110 109
170 171
27 26
209 208
43 42
52 53
402 401
365 366
406 405
293 294
139 138
79 80
87 88
312 313
423 424
381 380
21 20
30 31
370 371
12 11
269 268
7 1
413 412
286 287
205 206
245 246
381 382
163 162
372 373
383 382
151 152
203 202
418 417
74 75
271 270
63 62
281 282
306 307
314 313
83 82
401 400
54 53
23 22
20 19
17 18
322 321
76 77
204 203
328 327
419 418
290 289
52 51
387 386
228 227
144 143
414 415
182 183
94 93
300 299
147 148
135 134
389 390
57 56
281 280
245 244
308 307
231 230
59 58
295 294
71 70
391 390
108 109
331 330
370 369
352 351
221 220
393 394
128 129
223 224
6 363
48 47
153 152
339 338
325 326
199 198
40 41
231 232
173 174
246 247
39 38
125 124
249 248
172 173
284 283
4 5
181 180
136 135
96 97
195 196
354 353
388 387
87 86
1 6
285 286
207 208
384 383
347 348
85 86
4 220
199 200
347 3 125
156 157
79 80
296 297
92 93
317 316
343 344
154 153
232 233
274 275
210 209
298 299
237 238
221 222
114 113
125 124
107 108
223 224
164 165
90 89
115 116
308 309
294 293
8 7
111 112
262 263
208 207
78 77
94 95
296 295
159 160
46 47
23 24
346 345
174 173
346 347
283 282
226 225
229 228
281 280
260 259
227 226
193 192
334 335
81 80
313 312
123 122
143 142
142 141
71 72
204 205
321 322
155 154
277 276
330 329
30 29
164 163
82 81
31 30
103 104
145 146
136 135
175 176
158 157
244 243
248 249
19 18
98 99
57 56
132 131
326 325
209 208
59 58
139 140
240 241
202 203
12 13
67 66
258 259
265 264
277 278
29 28
211 212
45 46
33 34
223 222
166 167
18 17
97 98
227 228
170 169
133 134
141 140
240 239
314 313
66 65
294 295
242 241
96 97
322 323
339 340
307 306
16 15
130 129
174 175
38 39
138 137
128 129
206 207
162 161
334 333
231 230
187 186
32 33
276 275
283 284
126 125
187 188
111 110
204 203
183 182
338 339
172 171
21 20
256 255
230 229
83 84
2 3
2 63
189 190
108 109
196 197
197 198
214 213
70 69
90 91
74 73
74 75
318 319
121 122
271 270
221 220
150 151
27 26
185 184
106 105
79 78
25 24
237 236
139 138
315 316
215 214
212 213
100 101
21 22
75 76
238 239
161 160
326 327
107 106
186 185
292 291
115 114
206 205
293 292
47 48
305 306
102 101
323 324
49 48
301 302
63 64
302 303
216 215
218 217
32 31
40 39
181 182
201 200
332 331
218 219
155 156
6 291
50 49
279 278
337 336
2 1
252 253
281 282
16 17
254 253
304 305
345 344
51 52
178 177
262 261
288 287
165 166
91 92
69 68
146 147
36 37
171 170
26 25
254 255
58 57
4 3
123 124
173 172
191 192
53 52
289 290
28 27
53 54
289 288
266 267
19 20
61 60
193 194
198 199
85 84
134 135
6 1
264 263
188 189
210 211
301 300
67 68
190 191
56 55
23 22
15 14
341 340
54 55
35 34
320 321
70 71
319 320
14 13
267 268
8 9
286 285
183 184
252 251
178 179
247 246
199 200
242 243
102 103
231 232
148 147
271 272
10 9
6 5
310 311
117 116
269 268
35 36
118 117
120 3
105 104
317 318
77 76
224 225
42 41
307 308
325 324
163 162
272 273
332 333
152 153
130 131
89 88
217 216
256 257
196 195
44 45
1 7
11 10
100 99
338 337
113 112
38 37
59 60
41 40
86 85
137 136
285 284
286 287
143 144
88 87
219 220
94 93
244 245
42 43
298 297
96 95
314 315
180 179
201 202
336 335
44 43
343 342
5 4
150 149
110 109
195 194
121 120
5 234
167 168
82 83
127 126
118 119
261 260
274 273
328 329
51 50
342 341
246 245
312 311
180 181
280 279
61 62
303 304
248 247
152 151
258 257
86 87
251 250
73 72
249 250
158 159
300 299
4 177
269 270
149 148
309 310
64 65
330 331
235 234
328 327
236 235
128 127
133 132
265 266
145 144
169 168
11 12
445 2 271
416 415
131 132
159 160
137 136
71 72
64 63
68 67
8 9
426 427
368 367
181 182
287 286
415 414
315 314
423 424
50 49
410 411
419 418
354 355
52 51
293 292
117 118
76 77
184 183
252 253
420 421
258 259
403 402
418 417
1 6
112 113
87 88
252 251
283 284
317 318
276 277
75 76
136 135
395 394
70 69
282 283
345 346
343 342
71 70
168 167
392 391
6 5
223 224
400 401
239 238
228 229
133 132
123 122
399 398
437 436
357 358
440 441
46 47
40 39
173 174
232 231
95 96
322 323
72 73
42 41
359 360
181 180
4 3
186 187
281 280
266 267
264 265
89 88
33 32
146 145
271 272
332 331
172 173
369 370
29 28
343 344
205 204
257 256
101 102
436 435
66 65
387 388
216 215
443 444
434 435
2 1
124 125
103 102
48 49
422 423
375 374
206 207
233 234
335 336
56 55
318 319
105 106
356 357
289 288
407 406
391 390
119 118
372 6
18 17
143 142
79 78
262 261
316 315
268 267
143 144
30 29
199 198
150 149
312 313
139 140
137 138
361 362
220 219
407 408
244 245
97 96
108 107
120 121
188 189
27 26
408 409
155 156
275 274
77 78
414 413
305 306
184 185
254 253
286 285
334 335
109 110
190 191
32 31
194 193
130 131
12 11
154 153
425 424
146 147
330 331
44 45
367 366
368 369
222 221
389 390
16 17
429 430
12 13
54 53
268 269
301 302
115 116
35 34
340 339
402 401
431 430
226 227
11 10
115 114
91 92
85 86
338 339
128 127
126 125
59 60
320 321
405 404
426 425
431 432
236 237
263 262
83 82
15 16
170 169
162 163
166 167
432 433
194 195
417 416
212 211
341 342
26 25
376 375
171 172
378 379
94 95
379 380
363 364
2 80
409 410
52 53
110 111
190 189
109 108
24 23
382 381
123 124
20 21
3 153
438 437
337 336
203 204
359 358
405 406
274 273
427 428
192 191
119 120
196 195
289 290
74 75
341 340
397 398
347 346
348 349
10 9
314 313
215 214
292 291
217 218
247 246
101 100
307 308
301 300
30 31
413 412
61 60
238 237
22 23
210 209
325 324
290 291
62 63
4 226
365 366
310 309
297 298
116 117
69 68
242 241
151 150
421 422
345 344
106 107
67 66
246 245
104 105
39 38
404 403
420 419
127 126
241 240
175 176
22 21
154 155
356 355
148 147
81 80
177 178
87 86
295 294
84 85
25 24
200 199
169 168
350 349
360 361
385 386
351 352
161 160
113 114
92 93
207 208
43 44
219 218
348 347
228 227
383 384
311 312
365 364
441 442
261 260
224 225
40 41
183 182
440 439
327 328
389 388
47 48
209 208
383 382
265 266
371 370
260 259
159 158
327 326
279 278
84 83
157 158
157 156
7 1
94 93
433 434
35 36
352 353
256 255
294 293
396 397
302 303
20 19
428 429
372 373
19 18
145 144
135 134
33 34
363 362
377 376
3 2
250 251
392 393
27 28
192 193
14 13
163 164
176 177
236 235
400 399
271 270
380 381
170 171
165 164
243 242
443 442
304 303
444 445
200 201
235 234
264 263
324 323
351 350
337 338
279 280
90 89
139 138
282 281
299 5
230 231
129 128
43 42
320 319
37 38
329 330
151 152
317 316
249 248
221 220
305 304
37 36
100 99
384 385
297 296
149 148
59 58
57 58
307 306
201 202
285 284
411 412
178 179
73 74
179 180
65 64
8 7
386 387
175 174
55 54
91 90
377 378
186 185
112 111
97 98
121 122
81 82
272 273
287 288
254 255
310 311
45 46
295 296
233 232
15 14
62 61
166 165
222 223
373 374
308 309
277 278
250 249
240 239
129 130
203 202
438 439
230 229
326 325
161 162
353 354
248 247
276 275
141 140
51 50
56 57
334 333
393 394
205 206
142 141
133 134
213 212
188 187
300 299
196 197
258 257
333 332
211 210
322 321
217 216
328 329
396 395
104 103
197 198
213 214
269 270
99 98
4 5
244 243
273 5 199
254 253
61 60
2 1
248 249
261 262
222 223
89 88
164 163
38 39
13 12
256 255
79 78
240 239
261 260
245 246
100 99
176 177
268 267
127 126
81 82
4 139
156 155
61 62
13 14
211 212
184 5
84 83
74 73
56 55
238 237
198 197
147 146
225 224
244 243
100 101
165 164
209 208
188 189
149 148
139 140
93 92
157 156
37 36
22 23
1 7
174 175
91 90
180 179
60 59
31 32
241 240
265 266
229 230
62 63
57 58
194 193
5 6
64 63
89 90
48 47
70 71
112 113
14 15
75 76
228 227
219 218
104 103
127 128
160 159
24 23
137 138
65 66
85 84
87 88
231 230
186 185
47 46
43 42
149 150
213 214
249 250
264 265
113 114
124 123
106 105
153 152
21 22
196 197
142 141
163 162
234 233
229 6
172 171
224 223
171 170
3 95
129 130
109 110
259 258
120 121
104 105
118 117
232 231
68 67
234 235
19 20
190 191
233 232
41 40
137 136
25 24
183 182
68 69
27 26
133 134
182 181
124 125
199 198
40 39
241 242
215 214
259 260
262 263
202 201
168 169
109 108
222 221
41 42
270 271
11 12
206 205
37 38
144 145
135 136
122 123
175 176
227 226
114 115
29 30
11 10
148 147
131 130
46 45
4 5
257 256
43 44
252 253
28 29
51 52
140 141
26 25
9 10
248 247
154 153
94 93
49 48
272 273
267 266
157 158
236 237
212 213
170 169
134 135
162 161
181 180
92 91
258 257
34 33
45 44
2 3
70 69
167 168
245 244
129 128
103 102
67 66
116 115
110 111
72 71
95 96
177 178
195 194
217 216
31 30
173 172
106 107
191 192
200 201
216 215
2 51
246 247
143 142
189 190
125 126
185 184
217 218
6 1
77 76
119 120
186 187
118 119
161 160
59 58
131 132
20 21
269 268
107 108
27 28
255 254
132 133
242 243
271 272
206 207
101 102
96 97
80 81
151 150
205 204
98 99
18 19
121 122
86 85
98 97
193 192
264 263
18 17
34 35
151 152
250 251
165 166
57 56
200 199
79 80
203 204
77 78
210 211
87 86
65 64
187 188
7 8
174 173
143 144
207 208
4 3
145 146
167 166
17 16
53 54
55 54
202 203
235 236
251 252
82 83
50 49
52 53
74 75
269 270
35 36
15 16
159 158
226 225
210 209
239 238
8 9
112 111
196 195
179 178
155 154
220 221
33 32
73 72
117 116
220 219
268 1 51
147 148
240 241
159 158
17 16
151 152
50 2
105 106
260 261
51 52
256 255
103 102
115 116
207 206
216 217
74 75
215 214
81 82
130 129
171 170
4 5
228 227
251 252
108 109
145 146
233 234
94 95
90 91
73 74
218 219
139 140
190 191
38 39
4 3
89 90
210 209
213 214
192 193
237 236
23 22
22 21
184 185
18 17
10 11
233 232
249 248
21 20
162 163
197 196
123 122
26 27
231 232
203 202
257 258
92 91
24 25
207 208
56 55
240 239
247 246
29 28
194 195
230 231
220 219
235 236
167 166
67 66
63 64
70 71
12 11
155 156
226 227
27 28
183 184
192 191
262 263
61 62
97 96
253 254
205 204
18 19
255 254
199 198
30 31
69 70
172 171
131 130
72 71
88 89
20 19
133 132
115 114
146 147
35 34
201 202
45 46
1 7
97 98
228 229
238 239
32 31
256 257
212 211
222 223
2 3
230 229
47 48
13 14
8 9
159 160
260 259
143 142
65 66
86 87
128 127
76 77
84 83
117 116
112 111
258 259
266 267
106 107
112 113
128 129
14 15
176 175
57 58
235 234
215 216
155 154
64 65
12 13
101 102
49 48
105 104
98 99
62 63
82 83
189 190
108 107
168 167
213 212
244 243
124 125
6 225
46 47
5 181
43 44
43 42
242 243
96 95
224 223
3 93
80 81
262 261
67 68
125 126
163 164
123 124
220 221
60 59
208 209
140 141
193 194
68 69
225 226
10 9
179 180
80 79
264 265
53 52
198 197
150 151
266 265
76 75
26 25
32 33
8 7
174 175
4 137
41 40
30 29
60 61
139 138
1 6
250 251
174 173
54 55
78 79
2 1
188 187
186 185
218 217
121 120
134 135
135 136
111 110
152 153
158 157
77 78
39 40
34 33
110 109
103 104
244 245
120 119
84 85
253 252
195 196
247 248
134 133
87 88
181 182
38 37
263 264
206 205
203 204
210 211
54 53
268 267
178 177
126 127
149 150
6 5
57 56
156 157
186 187
15 16
86 85
59 58
242 241
170 169
161 162
131 132
250 249
165 166
164 165
36 37
23 24
154 153
201 200
199 200
246 245
161 160
45 44
148 149
36 35
145 144
100 99
176 177
118 119
100 101
237 238
143 144
142 141
51 50
121 122
188 189
118 117
94 93
179 178
113 114
172 173
222 221
138 137
168 169
73 72
183 182
42 41
274 5 145
116 117
2 1
192 193
108 109
235 236
90 91
181 180
56 55
95 3
221 220
80 81
71 70
203 204
128 127
13 12
127 126
43 44
246 245
250 249
272 271
274 273
247 246
216 215
57 56
227 228
209 208
115 116
14 15
30 29
136 137
60 61
84 83
146 145
194 193
269 270
114 115
114 113
20 19
153 152
125 126
239 238
5 4
85 86
99 98
158 157
165 164
106 107
154 155
185 186
206 207
268 267
105 104
48 47
197 198
199 200
49 50
157 156
74 75
173 172
218 219
100 99
30 31
211 212
129 130
180 179
170 169
175 176
173 174
34 35
9 8
171 172
264 265
217 218
189 190
66 67
54 55
43 42
258 257
85 84
137 138
233 234
98 97
94 93
23 22
202 203
72 73
261 262
252 253
17 16
10 11
128 129
202 201
207 208
103 104
261 260
249 248
150 149
158 159
18 19
143 142
177 176
163 164
266 265
151 152
155 156
135 134
27 28
186 187
58 57
271 270
272 273
171 170
53 52
224 225
136 135
59 60
236 237
255 254
151 150
241 242
179 178
183 184
263 264
36 35
162 161
61 62
189 188
259 260
245 244
239 240
204 205
141 140
101 102
32 31
217 216
177 178
87 86
76 75
196 195
2 3
131 130
67 68
106 105
110 111
89 90
47 46
205 206
79 80
96 95
70 69
123 122
74 73
231 230
182 181
250 251
45 44
238 237
8 7
65 66
222 221
20 21
124 123
111 112
78 77
243 242
194 195
12 11
198 199
244 243
33 32
214 213
219 220
72 71
23 24
240 241
159 160
42 41
17 18
196 197
133 132
263 262
58 59
188 187
34 33
124 125
254 253
134 133
200 201
175 174
46 45
182 183
252 251
266 267
255 256
63 62
141 142
148 149
25 24
226 227
145 144
210 211
101 100
9 10
146 147
169 168
13 14
160 161
65 64
83 82
76 77
91 92
54 53
69 68
214 215
167 168
131 132
6 1
87 88
222 223
232 233
122 121
89 88
163 162
39 38
228 229
1 7
230 6
2 51
248 247
139 138
36 37
6 5
120 121
224 223
40 41
49 48
29 28
81 82
231 232
259 258
27 26
213 212
190 191
209 210
37 38
25 26
112 113
118 117
96 97
4 140
144 143
109 110
21 22
256 257
225 226
4 3
92 93
78 79
235 234
165 166
119 118
16 15
167 166
108 107
120 119
268 269
191 192
154 153
185 5
103 102
39 40
52 51
63 64
147 148
418 6 345
1 2
240 239
333 332
411 412
293 294
306 305
152 153
66 65
140 141
11 10
382 383
21 20
417 416
77 76
298 299
315 316
207 208
178 179
389 388
68 69
406 407
71 70
162 163
304 303
45 46
263 264
61 62
104 103
147 146
324 323
102 101
390 389
6 5
89 88
126 127
50 51
378 377
98 97
170 171
266 267
123 124
16 15
138 137
395 396
91 90
293 292
126 125
151 152
338 339
89 90
398 397
54 53
196 195
385 384
190 191
163 164
408 409
367 368
38 37
155 154
27 26
191 192
48 49
120 119
177 178
112 111
270 271
75 76
168 167
83 84
40 41
233 232
94 95
30 31
250 249
405 404
1 6
109 108
295 294
297 296
309 310
176 177
324 325
180 181
188 187
131 132
354 353
339 340
195 194
197 198
17 18
82 83
341 342
108 107
136 135
343 344
262 263
380 379
165 164
123 122
84 85
320 319
319 318
260 261
279 280
40 39
182 183
273 272
342 343
94 93
93 92
200 199
372 373
321 322
329 330
327 326
202 203
221 220
377 376
5 281
408 407
22 21
334 333
87 86
179 180
246 245
256 257
51 52
169 168
378 379
75 2
308 307
274 275
23 24
189 190
27 28
185 186
237 236
182 181
134 133
290 291
354 355
284 285
79 80
254 255
32 31
347 346
158 159
239 238
36 35
184 185
357 358
403 402
7 1
391 392
125 124
167 166
187 186
417 418
11 12
50 49
112 113
119 118
57 56
393 392
401 402
226 227
325 326
135 134
351 352
414 415
252 251
238 237
410 411
265 266
385 386
197 196
401 400
384 383
210 209
96 95
130 129
161 160
286 287
370 371
243 244
223 224
301 302
110 109
17 16
85 86
174 173
285 286
412 413
137 136
350 351
42 41
144 145
147 148
381 382
282 281
344 345
138 139
221 222
6 350
241 240
5 4
335 336
149 148
331 332
115 114
142 141
316 317
33 34
212 213
246 247
365 366
311 310
211 210
375 376
312 313
60 61
404 403
371 372
144 143
288 287
26 25
388 387
258 257
128 129
47 48
198 199
361 360
308 309
192 193
171 172
327 328
235 236
43 42
410 409
273 274
227 228
253 252
64 65
391 390
321 320
394 393
242 243
201 202
355 356
3 2
299 300
312 311
232 231
157 158
102 103
92 91
19 18
313 314
229 230
220 219
359 360
268 269
225 224
278 277
346 345
205 204
30 29
329 328
353 352
297 298
133 132
363 362
292 291
128 127
111 110
255 256
33 32
150 151
264 265
63 62
55 54
362 361
283 282
366 367
348 347
101 100
349 348
234 235
331 330
52 53
368 369
270 269
37 36
414 413
14 15
3 4
268 267
116 115
374 373
165 166
337 338
415 416
55 56
78 77
25 24
97 96
130 131
39 38
105 104
13 14
203 204
79 78
364 363
205 206
4 212
46 47
106 107
8 7
117 118
394 395
216 217
261 262
271 272
9 8
35 34
100 99
80 81
160 159
386 387
72 71
336 337
117 116
290 289
106 105
258 259
242 241
66 67
22 23
10 9
172 173
81 82
155 156
69 70
150 149
162 161
12 13
74 73
260 259
276 275
63 64
396 397
305 304
279 278
73 72
400 399
200 201
306 307
359 358
121 122
381 380
213 214
120 121
247 248
59 58
45 44
356 357
334 335
303 302
175 174
59 60
175 176
340 341
99 98
68 67
208 209
216 215
170 169
188 189
194 193
218 219
283 284
145 146
323 322
226 225
157 156
230 231
318 317
218 217
276 277
253 254
140 139
88 87
315 314
3 143
20 19
234 233
58 57
153 154
374 375
245 244
222 223
301 300
183 184
370 369
250 251
399 398
405 406
114 113
249 248
229 228
289 288
215 214
28 29
43 44
295 296
207 206
364 365
365 3 25
59 60
229 230
171 172
50 51
32 31
322 323
193 192
281 280
350 351
284 285
149 148
361 360
37 36
357 356
31 30
253 254
144 143
264 265
135 136
38 39
151 152
74 73
110 109
84 85
237 236
321 322
363 364
342 341
63 62
289 288
338 337
128 129
102 101
13 12
258 259
100 99
187 186
2 66
225 226
343 344
251 250
312 313
216 215
61 60
52 53
112 111
19 18
256 257
230 231
293 294
188 187
335 336
350 349
86 87
160 161
12 11
318 319
198 197
329 330
34 35
180 179
32 33
292 291
71 70
182 183
142 141
179 178
165 166
125 124
321 320
146 145
193 194
247 248
292 293
300 301
42 43
219 218
235 234
173 172
132 131
272 271
352 351
252 251
276 275
100 101
130 131
6 306
268 267
135 134
106 107
147 146
11 10
181 182
122 123
266 265
49 48
3 2
128 127
93 92
346 345
159 160
210 211
212 213
63 64
133 132
95 94
330 331
165 164
310 311
184 183
285 286
22 21
202 203
113 114
281 282
223 224
349 348
341 340
105 104
232 233
345 344
151 150
117 118
166 167
20 19
2 1
336 337
3 4
354 355
116 117
64 65
53 54
17 18
14 13
148 147
95 96
114 115
238 237
271 270
36 35
104 103
327 326
49 50
94 93
213 214
120 119
111 110
323 324
121 122
40 39
184 185
284 283
58 59
121 120
302 301
214 215
244 243
320 319
269 270
67 68
309 310
274 275
273 274
138 139
22 23
297 298
198 199
157 156
278 279
24 23
288 287
144 145
108 109
14 15
21 20
212 211
106 105
15 16
206 205
196 197
99 98
199 200
27 28
102 103
86 85
209 208
314 313
8 7
354 353
79 80
312 311
260 261
116 115
57 56
346 347
9 10
290 291
228 229
5 246
88 89
177 176
178 177
278 277
302 303
228 227
75 76
325 324
78 79
97 96
308 307
299 298
355 356
242 241
241 240
71 72
217 216
140 141
333 334
201 200
306 307
112 113
309 308
289 290
260 259
9 8
299 300
142 143
359 360
279 280
249 250
233 234
5 4
3 126
157 158
54 55
16 17
218 217
91 90
256 255
223 222
167 168
41 40
81 82
221 222
127 126
342 343
262 263
249 248
358 357
264 263
137 138
82 83
252 253
287 286
29 30
195 194
276 277
196 195
153 152
236 235
339 338
206 207
266 267
352 353
69 70
317 316
246 247
174 173
56 55
273 272
42 41
153 154
139 140
296 297
269 268
38 37
258 257
163 164
1 6
149 150
46 47
68 69
225 224
72 73
358 359
189 188
189 190
52 51
328 327
305 304
80 81
243 242
44 45
205 204
170 169
261 262
209 210
295 296
48 47
5 6
77 78
163 162
304 303
34 33
315 314
362 363
66 67
136 137
98 97
245 244
174 175
191 190
254 255
202 201
154 155
76 77
326 325
318 317
46 45
180 181
25 24
119 118
158 159
315 316
339 340
192 191
161 162
283 282
134 133
91 92
26 27
176 175
219 220
332 333
204 203
75 74
107 108
155 156
347 348
7 1
87 88
168 169
25 26
170 171
364 365
362 361
332 331
129 130
57 58
62 61
29 28
83 84
89 90
221 220
123 124
226 227
239 240
44 43
239 238
334 335
186 4
294 295
329 328
232 231
207 208
348 1 308
150 151
238 239
175 176
268 267
305 304
156 155
16 15
325 326
161 160
288 289
237 236
71 70
331 332
73 74
128 127
238 237
307 306
230 231
171 170
146 147
64 2
89 88
151 152
189 188
52 51
195 194
210 209
213 212
92 93
291 290
117 118
294 295
125 126
149 148
261 260
286 287
101 100
325 324
283 284
9 10
7 8
162 163
269 270
122 121
11 12
309 308
337 336
327 328
177 176
321 320
24 23
191 192
342 341
103 102
103 104
94 95
345 344
50 51
324 323
199 198
4 178
330 329
347 348
253 252
251 250
340 339
282 281
180 181
288 287
204 205
239 240
61 62
200 201
201 202
6 1
11 10
271 270
198 197
107 106
272 273
216 217
123 124
130 129
84 85
320 319
279 280
258 259
57 58
207 206
272 271
246 245
241 240
194 193
244 245
142 141
20 21
13 12
316 315
99 100
178 179
37 36
66 65
243 244
299 298
330 331
104 105
232 231
297 298
277 278
79 80
157 158
102 101
259 260
6 292
254 253
230 229
44 45
138 139
276 275
282 283
334 333
166 165
296 295
37 38
133 134
190 189
303 302
43 42
210 211
199 200
262 261
212 211
14 13
314 313
164 163
3 4
140 139
284 285
257 258
108 107
203 202
182 183
157 156
143 144
217 218
347 346
76 77
213 214
322 323
82 81
131 132
342 343
277 276
30 31
190 191
249 248
106 105
119 118
221 220
228 229
145 146
160 159
196 197
192 193
116 117
97 96
110 109
216 215
222 223
128 129
186 185
26 25
281 280
170 169
27 28
175 174
236 235
15 14
54 55
179 180
256 257
136 135
115 114
27 26
292 293
17 18
43 44
21 22
111 110
249 250
140 141
274 275
185 184
64 65
227 226
79 78
154 153
109 108
327 326
268 269
99 98
73 72
19 20
87 86
42 41
307 308
290 289
24 25
317 318
252 251
38 39
47 48
168 169
90 89
135 134
340 341
40 41
329 328
46 45
58 59
67 66
306 305
209 208
337 338
22 23
49 50
61 60
120 119
232 233
264 265
56 55
143 142
221 222
7 1
313 312
112 113
173 172
30 29
31 32
164 165
293 294
300 299
75 76
301 300
243 242
52 53
335 336
111 112
84 83
34 33
321 322
113 114
161 162
214 215
91 90
1 2
174 173
332 333
344 343
241 242
35 34
9 8
35 36
318 319
225 224
302 301
339 338
115 116
274 273
132 133
78 77
71 72
97 98
5 4
144 145
172 171
82 83
138 137
69 68
87 88
29 28
74 75
69 70
57 56
62 63
296 297
121 3
315 314
67 68
248 247
49 48
186 187
127 126
247 246
60 59
316 317
18 19
130 131
167 168
235 5
263 262
183 184
93 94
152 153
227 228
254 255
256 255
310 311
92 91
80 81
17 16
167 166
205 206
224 223
278 279
335 334
39 40
3 2
188 187
265 266
136 137
158 159
267 266
46 47
219 218
304 303
122 123
345 346
53 54
125 124
155 154
225 226
203 204
196 195
208 207
181 182
149 150
86 85
6 5
233 234
33 32
96 95
219 220
310 309
264 263
311 312
286 285
147 148
448 4 23
72 71
80 2
249 248
418 419
427 428
272 273
187 188
83 84
398 397
53 52
221 222
346 345
136 135
316 315
395 396
394 395
385 384
269 270
193 192
208 209
102 101
12 11
352 353
132 133
370 369
298 297
168 169
47 48
202 203
287 286
195 196
344 343
107 108
73 74
329 330
57 56
408 409
267 266
293 294
29 28
232 233
422 421
341 340
27 26
15 16
407 406
303 302
30 31
145 146
238 239
428 429
433 432
340 339
432 431
81 82
256 255
336 335
282 283
5 301
166 167
388 387
154 153
271 272
27 28
243 244
378 377
347 348
56 55
392 393
378 379
360 359
24 23
137 138
65 66
129 128
55 54
259 258
175 174
363 364
204 205
158 157
430 429
423 422
13 14
226 225
283 284
261 262
134 133
313 314
277 278
178 177
251 250
338 337
254 255
54 53
59 60
277 276
21 20
324 323
15 14
368 369
439 438
281 282
98 97
65 64
122 123
152 151
417 416
224 225
201 200
213 214
361 362
273 274
406 405
92 91
124 123
190 189
351 352
183 182
176 175
25 26
261 260
295 294
268 267
168 167
436 437
142 141
85 84
403 404
358 357
8 9
279 278
18 17
269 268
356 357
382 381
42 41
215 214
147 148
143 142
238 237
196 197
445 444
440 439
318 317
44 45
145 144
402 403
244 245
179 178
46 45
305 304
436 435
19 18
335 334
399 398
122 121
322 323
201 202
112 113
163 164
349 348
351 350
180 179
434 435
36 37
331 332
98 99
29 30
49 48
6 5
32 31
51 52
240 241
180 181
119 118
130 131
407 408
43 44
426 427
247 246
324 325
144 143
300 299
376 377
313 312
67 68
114 113
149 148
337 336
209 210
440 441
373 374
37 38
386 387
70 71
7 8
328 329
125 124
421 420
306 307
349 350
141 140
104 103
95 94
380 381
229 230
413 414
105 104
292 293
90 91
383 382
211 212
199 198
190 191
276 275
264 263
99 100
19 20
373 372
199 200
117 118
164 165
280 279
353 354
425 424
290 291
197 198
411 410
304 303
43 42
78 79
203 204
356 355
100 101
325 326
415 414
22 21
391 392
418 417
206 205
185 184
106 105
438 437
110 109
40 39
139 140
308 309
128 127
95 96
63 62
319 320
362 363
330 331
149 150
318 319
36 35
309 310
23 22
296 295
253 252
119 120
370 371
326 327
108 109
308 307
412 413
136 137
448 447
234 235
171 172
399 400
50 51
169 170
260 259
321 322
160 159
372 371
315 314
442 443
189 188
245 246
177 176
242 243
359 358
74 75
254 253
312 311
389 390
423 424
291 292
3 2
224 223
302 301
47 46
446 445
281 280
106 107
161 162
265 266
116 115
126 127
58 59
305 306
236 237
39 38
288 289
401 402
11 10
217 216
78 77
250 249
61 62
242 241
69 70
41 40
111 110
443 444
165 166
4 3
187 186
320 321
86 87
287 288
171 170
126 125
75 76
285 286
262 263
231 232
365 366
90 89
33 32
67 66
316 317
173 174
85 86
155 156
195 194
346 347
275 274
270 271
410 409
400 401
34 33
153 3
111 112
207 206
446 447
389 388
6 1
93 94
103 102
35 34
405 404
1 2
182 181
397 396
384 383
49 50
235 236
361 360
61 60
186 185
10 9
114 115
342 343
228 229
194 193
130 129
156 157
334 333
299 298
257 258
368 367
82 83
223 222
393 394
208 207
63 64
191 192
13 12
355 354
76 77
289 290
173 172
297 296
338 339
212 213
227 228
1 7
92 93
215 216
375 376
231 230
265 264
135 134
385 386
328 327
220 219
131 132
221 220
344 345
419 420
69 68
365 364
333 332
284 285
4 227
247 248
96 97
218 217
380 379
160 161
120 121
162 163
434 433
416 415
441 442
5 4
139 138
426 425
58 57
158 159
233 234
16 17
155 154
239 240
341 342
256 257
183 184
88 87
430 431
367 366
25 24
311 310
219 218
390 391
116 117
211 210
81 80
89 88
411 412
73 72
151 150
146 147
251 252
375 6
311 2 35
12 11
2 3
170 171
297 298
4 159
8 9
306 307
309 308
270 269
205 206
149 150
65 64
197 198
80 79
278 277
191 192
133 132
249 248
43 44
281 280
302 301
265 264
59 58
82 81
74 75
298 299
134 133
262 263
141 142
83 82
72 71
229 228
184 185
162 163
20 21
284 285
193 194
6 1
202 203
254 255
306 305
129 128
57 58
167 168
307 308
303 304
228 227
88 89
33 34
55 56
137 138
14 15
174 173
69 68
187 188
109 108
106 105
102 101
271 272
247 248
229 230
37 38
5 210
50 51
242 241
186 185
136 135
46 47
266 265
204 203
26 27
261 6
45 46
139 140
49 48
157 158
31 30
234 233
296 297
159 160
4 3
169 168
109 110
13 12
204 205
238 239
302 303
196 197
200 201
146 147
123 124
279 278
310 311
126 125
130 131
162 161
122 121
78 77
291 292
237 236
30 29
257 258
294 295
222 221
236 235
13 14
256 255
18 19
145 144
186 187
84 85
149 148
225 226
62 61
24 23
21 22
271 270
224 223
259 260
169 170
155 154
118 119
190 189
253 252
25 26
128 127
276 275
156 155
38 39
183 184
273 274
180 179
93 92
44 45
208 207
60 61
108 3
114 113
293 294
214 213
101 100
114 115
83 84
42 41
107 106
218 219
123 122
117 116
300 301
75 76
1 2
88 87
234 235
41 40
24 25
262 261
231 230
16 17
285 286
202 201
93 94
156 157
249 250
193 192
147 148
251 252
221 220
143 144
64 63
69 70
280 279
246 245
172 173
176 175
7 8
283 284
10 11
231 232
54 55
217 216
177 178
233 232
91 92
103 102
129 130
151 150
166 167
219 220
188 189
225 224
245 244
20 19
165 164
59 60
72 73
99 98
165 166
118 117
161 160
287 286
206 207
1 7
27 28
179 178
191 190
6 5
276 277
74 73
31 32
40 39
290 289
217 218
98 97
37 36
95 94
116 115
125 124
198 199
275 274
16 15
209 208
140 141
103 104
291 290
89 90
240 241
85 86
288 289
251 250
67 68
119 120
282 283
244 243
76 77
194 195
305 304
113 112
91 90
310 309
87 86
300 299
131 132
34 35
112 111
182 181
66 65
99 100
63 62
264 263
239 240
212 213
282 281
267 266
177 176
79 78
120 121
52 53
105 104
9 10
80 81
143 142
49 50
171 172
175 174
134 135
247 246
29 28
164 163
212 211
57 2
268 269
70 71
257 256
153 152
288 287
32 33
153 154
35 36
96 95
292 293
54 53
139 138
152 151
238 237
222 223
200 199
253 254
18 17
136 137
146 145
210 211
243 242
215 214
181 180
268 267
96 97
47 48
67 66
183 182
43 42
126 127
111 110
195 196
22 23
51 52
5 4
216 215
272 273
296 295
227 226
258 259
281 3 208
129 128
52 53
18 19
222 223
115 114
154 153
40 41
1 6
79 78
173 172
118 119
268 267
16 15
75 76
185 184
14 13
67 66
29 30
256 255
213 214
19 20
191 190
175 174
268 269
127 126
174 173
185 186
271 272
257 256
56 55
171 170
277 276
123 124
91 90
89 90
101 100
15 14
121 120
202 203
131 130
65 66
135 136
198 197
23 24
17 16
102 101
133 132
225 224
30 31
164 165
42 43
93 94
144 145
161 160
60 61
137 138
106 107
34 33
3 2
169 170
116 115
126 125
48 47
236 6
89 88
193 192
95 94
37 36
63 62
155 154
197 196
275 276
152 153
117 116
118 117
54 53
87 88
184 183
109 110
237 238
35 36
110 111
177 176
245 244
112 111
82 83
155 156
195 196
159 158
238 239
234 235
278 279
146 147
2 52
242 241
243 244
246 245
271 270
254 255
162 161
191 192
75 74
124 125
102 103
76 77
156 157
230 229
186 187
198 199
218 219
21 22
182 183
250 251
13 12
221 220
127 128
163 164
139 140
178 177
108 107
38 37
70 69
74 73
165 166
263 264
187 188
209 210
274 275
99 98
203 204
81 82
237 236
157 158
248 249
150 149
248 247
252 253
50 51
27 28
168 167
211 212
113 112
141 140
5 4
8 9
56 57
188 189
181 180
58 59
10 9
137 136
159 160
175 176
54 55
81 80
231 232
44 43
91 92
265 264
214 215
11 10
200 201
209 208
25 26
132 131
20 21
227 228
5 6
194 195
229 228
86 87
148 147
266 265
85 86
120 119
152 151
243 242
64 65
277 278
73 72
77 78
241 240
24 25
206 207
3 4
279 280
141 142
260 261
227 226
190 5
71 72
201 202
22 23
169 168
67 68
182 181
150 151
258 259
47 46
162 163
148 149
45 46
11 12
83 84
98 3
44 45
231 230
106 105
134 135
61 62
26 27
1 7
4 144
205 204
261 262
50 49
63 64
207 208
60 59
253 254
199 200
259 260
233 234
262 263
274 273
267 266
251 252
171 172
114 113
222 221
99 100
7 8
105 104
32 33
270 269
80 79
96 95
179 178
193 194
257 258
213 212
217 218
96 97
142 143
232 233
272 273
32 31
18 17
281 280
42 41
123 122
103 104
223 224
2 1
133 134
249 250
215 216
29 28
179 180
247 246
239 240
129 130
84 85
108 109
71 70
219 220
58 57
69 68
49 48
40 39
217 216
122 121
146 145
225 226
93 92
35 34
139 138
166 167
211 210
205 206
39 38
461 6 443
4 5
305 304
262 261
449 450
403 402
371 372
396 395
128 129
288 289
19 18
426 425
123 124
133 132
174 175
401 402
85 86
178 179
415 414
260 259
89 90
424 425
420 421
400 401
126 127
377 378
226 225
440 441
247 248
148 149
138 137
1 6
241 240
63 64
206 205
199 200
304 303
64 65
394 395
443 442
248 249
169 170
36 37
94 93
186 185
140 141
96 97
61 60
231 230
272 271
435 434
302 301
246 245
68 69
448 449
219 220
409 408
268 269
328 329
461 460
383 384
170 171
381 382
177 178
328 327
444 445
394 393
110 111
15 14
167 168
94 95
256 255
372 373
378 379
427 428
38 39
410 409
115 114
34 35
227 226
414 413
74 73
65 66
251 250
273 274
108 109
107 108
321 320
430 429
360 359
256 257
41 40
100 101
386 387
224 225
55 56
137 136
261 260
22 23
155 154
352 353
280 279
192 193
27 28
20 21
41 42
336 337
356 355
57 58
157 156
83 82
229 230
48 49
153 154
187 186
96 95
153 152
321 322
91 90
190 189
317 318
368 369
288 287
11 12
436 437
229 228
189 188
119 118
217 218
25 24
357 358
6 5
69 70
116 115
457 456
25 26
82 2
296 295
146 145
326 325
168 169
162 161
191 190
107 106
16 17
297 296
140 139
457 458
50 51
403 404
236 235
145 144
67 68
413 412
220 221
176 177
160 159
9 10
67 66
241 242
106 105
441 442
342 343
77 78
437 438
391 392
276 277
365 364
4 3
121 120
316 317
146 147
351 350
293 292
122 121
216 215
28 29
35 36
3 158
379 380
251 252
113 114
134 133
242 243
72 71
16 15
433 434
158 159
211 212
88 87
363 362
204 203
380 381
315 314
301 300
307 306
142 141
345 346
109 110
8 7
162 163
279 278
5 310
182 183
253 254
447 446
40 39
52 51
263 262
265 266
305 306
207 208
452 453
171 172
332 333
111 112
84 83
329 330
236 237
327 326
348 347
274 275
231 232
37 38
324 323
213 214
459 458
239 240
234 4
77 76
160 161
312 311
217 216
332 331
132 131
80 81
415 416
235 234
316 315
152 151
124 125
283 282
417 416
130 129
31 32
335 336
201 202
454 453
2 1
204 205
34 33
318 319
390 391
149 150
208 209
104 105
238 237
80 79
62 61
218 219
228 227
214 215
45 44
362 361
313 314
243 244
176 175
165 166
323 322
211 210
454 455
88 89
341 340
1 7
428 429
345 344
352 351
388 389
253 252
431 432
360 361
355 354
353 354
103 102
165 164
460 459
302 303
384 385
128 127
76 75
195 196
278 277
183 184
134 135
456 455
2 3
418 417
130 131
151 150
138 139
365 366
23 24
388 387
74 75
135 136
397 398
18 17
42 43
290 289
222 221
393 392
258 259
311 310
188 187
293 294
207 206
299 298
117 118
156 155
224 223
452 451
87 86
266 267
79 78
313 312
180 179
144 143
419 420
400 399
285 286
291 290
397 396
21 22
174 173
270 269
426 427
49 50
47 46
164 163
340 339
418 419
282 281
270 271
265 264
337 338
13 12
422 421
245 244
246 247
72 73
349 350
196 197
238 239
383 382
399 398
430 431
30 29
250 249
333 334
358 359
307 308
375 374
199 198
43 44
212 213
405 406
97 98
99 98
276 275
280 281
56 57
334 335
193 194
31 30
143 142
444 443
408 407
357 356
104 103
433 432
347 346
371 370
11 10
308 309
411 410
448 447
377 376
264 263
194 195
55 54
26 27
267 268
120 119
147 148
299 300
125 126
386 6
53 54
59 58
445 446
405 404
116 117
375 376
9 8
14 13
424 423
423 422
223 222
258 257
59 60
47 48
53 52
255 254
287 286
181 182
406 407
112 113
330 331
100 99
167 166
181 180
184 185
343 344
46 45
84 85
173 172
439 440
122 123
209 210
363 364
319 320
273 272
63 62
367 366
295 294
20 19
370 369
284 283
439 438
91 92
33 32
451 450
298 297
232 233
101 102
324 325
201 200
368 367
338 339
412 411
191 192
348 349
285 284
198 197
71 70
390 389
341 342
93 92
436 435
202 203
373 374
291 292
399 4 268
270 269
163 164
30 31
43 44
195 196
142 143
379 378
236 235
369 368
226 227
145 146
88 89
227 228
209 210
391 390
59 60
298 297
363 364
223 222
142 141
250 251
84 85
39 40
388 389
13 14
313 312
388 387
95 96
149 148
385 384
345 346
138 139
8 7
97 96
393 392
51 52
390 389
200 201
198 197
316 315
67 68
290 289
27 26
370 369
183 182
216 215
36 37
167 168
230 229
236 237
309 310
371 372
21 20
128 127
299 298
153 154
382 381
46 47
250 249
133 134
280 279
323 322
282 283
281 280
160 161
398 397
11 12
123 124
221 220
229 228
225 224
308 307
4 5
334 6
264 263
207 206
319 320
32 31
312 311
100 99
395 396
265 264
110 111
240 239
163 162
56 57
120 119
211 212
29 30
4 202
289 288
213 212
331 332
376 377
296 297
172 173
133 132
342 343
165 164
159 160
75 74
56 55
109 108
370 371
265 266
145 144
221 222
268 269
9 8
240 241
392 391
174 175
337 338
77 76
339 338
375 376
317 316
84 83
340 341
64 63
337 336
363 362
39 38
91 92
199 198
185 184
367 366
292 291
373 372
147 148
2 72
275 276
281 282
152 151
180 179
72 73
23 24
188 187
122 121
81 82
303 304
10 11
19 20
279 278
45 44
158 157
144 143
384 383
336 335
216 217
50 51
187 186
98 97
116 115
99 98
327 328
233 232
288 287
112 111
110 109
361 362
340 339
49 48
121 120
105 104
326 327
258 257
243 242
274 275
290 291
66 65
253 254
176 177
58 59
178 179
352 351
3 4
213 214
27 28
87 86
285 284
356 355
5 6
273 274
306 305
1 7
278 277
268 5
344 343
386 385
181 180
330 331
294 293
6 1
184 183
190 189
170 171
102 103
360 361
83 82
77 78
155 154
34 35
255 256
276 277
200 199
15 14
146 147
355 354
132 131
12 13
167 166
352 353
42 41
242 241
243 244
341 342
115 114
40 41
247 246
188 189
255 254
193 194
93 92
380 381
374 375
368 367
55 54
356 357
224 223
358 359
202 203
374 373
260 259
245 244
137 138
204 205
101 100
204 203
314 315
393 394
135 136
140 139
168 169
218 219
161 162
127 126
231 232
271 272
283 284
293 292
107 106
321 320
365 366
87 88
70 69
149 150
307 306
364 365
347 348
130 131
104 103
170 169
152 153
387 386
128 129
324 325
114 113
123 122
177 178
108 107
208 209
80 79
318 317
117 118
395 394
67 66
225 226
208 207
354 353
106 105
125 126
10 9
186 185
22 21
18 19
286 287
17 16
239 238
191 190
330 329
252 251
299 300
73 74
101 102
130 129
263 262
68 69
248 249
382 383
348 349
248 247
33 32
95 94
140 141
48 47
91 90
399 398
197 196
22 23
62 63
112 113
150 151
329 328
344 345
2 1
397 396
314 313
219 220
176 175
54 53
135 134
235 234
261 262
311 310
346 347
137 3
165 166
18 17
230 231
89 90
49 50
70 71
116 117
211 210
29 28
334 335
158 159
309 308
52 53
272 273
195 194
214 215
61 60
15 16
79 78
26 25
261 260
124 125
62 61
193 192
3 2
156 155
380 379
294 295
332 333
191 192
206 205
174 173
119 118
259 258
81 80
358 357
323 324
85 86
349 350
246 245
296 295
171 172
256 257
35 36
38 37
42 43
302 303
58 57
270 271
267 266
65 64
75 76
285 286
301 300
237 238
326 325
360 359
218 217
156 157
93 94
305 304
350 351
234 233
45 46
321 322
252 253
378 377
302 301
318 319
33 34
25 24
181 182
305 4 263
247 248
32 33
173 174
305 304
203 204
25 24
191 190
29 28
184 183
228 227
268 267
181 180
269 270
304 303
206 207
56 57
131 130
85 84
223 222
114 113
86 87
200 201
39 40
32 31
260 261
126 125
1 7
14 13
27 28
42 41
120 121
253 254
90 91
2 56
6 5
258 257
220 219
259 260
71 70
17 16
161 160
131 132
61 60
199 200
88 89
148 147
264 263
65 66
250 251
12 11
45 46
66 67
118 117
296 297
1 2
290 289
108 107
80 79
189 188
287 288
175 176
231 232
31 30
246 247
11 10
99 100
249 248
103 102
46 47
59 60
180 179
146 145
132 133
172 173
236 235
292 293
298 299
5 4
257 256
169 168
88 87
119 120
303 302
15 16
241 242
193 192
144 143
84 83
182 181
166 165
268 269
104 105
218 219
266 267
125 124
138 137
195 194
162 161
154 155
145 144
92 91
223 224
197 198
39 38
252 253
35 34
240 241
127 126
98 97
94 93
288 289
233 232
216 215
143 142
50 51
20 21
251 252
109 110
26 27
283 282
277 276
2 3
210 211
193 194
65 64
172 171
53 54
239 240
201 202
162 163
186 185
12 13
152 151
122 123
151 150
190 189
51 52
214 213
119 118
100 101
7 8
117 116
231 230
150 149
157 156
127 128
69 70
300 301
3 4
50 49
238 237
81 80
111 112
85 86
284 283
54 55
214 215
258 259
20 19
238 239
141 140
146 147
286 287
293 294
135 136
278 279
62 61
22 21
40 41
68 67
110 111
17 18
174 175
136 137
78 79
82 81
75 74
221 220
148 149
243 242
178 179
124 123
286 285
244 243
108 109
95 96
57 58
244 245
187 188
280 279
245 246
44 45
212 213
24 23
271 270
199 198
297 298
95 94
224 225
205 204
14 15
76 75
22 23
196 197
106 3
226 225
171 170
26 25
142 141
89 90
156 4
265 264
122 121
138 139
68 69
38 37
29 30
284 285
104 103
291 290
37 36
274 273
265 266
83 82
33 34
71 72
9 10
158 157
234 235
43 44
280 281
102 101
256 6
170 169
263 262
63 64
135 134
98 99
254 255
19 18
229 230
165 164
299 300
217 218
36 35
236 237
207 208
217 216
96 97
49 48
74 73
140 139
76 77
249 250
221 222
291 292
275 274
282 281
163 164
276 275
130 129
153 154
273 272
209 208
277 278
153 152
159 158
183 182
210 209
72 73
9 8
133 134
301 302
184 185
294 295
159 160
47 48
195 196
5 206
106 107
226 227
178 177
166 167
114 115
115 116
228 229
128 129
1 6
77 78
186 187
295 296
52 53
177 176
192 191
43 42
167 168
58 59
261 262
92 93
112 113
211 212
234 233
62 63
202 203
271 272
439 5 271
415 416
119 120
330 331
291 290
422 421
399 398
351 352
106 105
56 55
278 279
163 162
110 111
395 396
414 413
119 118
123 122
289 290
361 360
8 7
205 206
430 431
164 163
283 284
426 425
428 429
215 214
1 6
14 15
210 211
361 362
88 87
223 4
94 95
179 180
409 410
194 193
171 170
375 374
86 85
23 24
114 113
173 174
258 257
98 97
307 308
268 269
118 117
86 87
70 71
292 291
112 111
137 136
74 73
239 238
33 34
25 24
248 249
373 374
364 363
438 439
268 267
412 413
212 211
261 260
377 378
18 19
372 371
247 248
33 32
152 151
38 37
16 17
401 400
266 267
344 343
215 216
156 157
402 403
138 137
89 88
19 20
328 329
115 116
318 317
271 272
393 394
23 22
261 262
333 334
335 334
13 14
430 429
92 91
183 184
72 73
420 421
36 37
226 227
12 11
71 72
424 423
205 204
229 228
63 62
393 392
131 130
199 198
385 384
130 129
264 263
149 150
49 48
338 337
381 382
236 235
304 305
192 191
115 114
335 336
340 341
384 383
157 158
419 420
316 315
9 10
83 82
54 55
208 209
109 110
438 437
416 417
252 251
195 194
332 333
262 263
365 366
124 123
254 253
391 390
399 400
219 220
169 170
296 295
307 306
364 365
417 418
380 379
253 252
44 43
171 172
369 368
76 77
2 79
185 186
185 184
282 281
298 299
94 93
142 143
89 90
83 84
148 149
214 213
38 39
140 139
138 139
243 244
344 345
301 302
126 127
186 187
297 298
41 42
103 104
210 209
288 287
195 196
117 116
433 434
339 338
306 305
188 187
151 3
278 277
256 255
324 325
293 292
418 419
249 250
128 127
122 121
433 432
26 25
242 241
11 10
230 229
357 358
166 165
392 391
287 286
325 326
26 27
227 228
254 255
81 80
348 347
300 301
189 190
376 377
134 133
240 241
60 61
239 240
303 302
282 283
107 106
407 406
40 41
221 222
5 295
82 81
233 234
362 363
328 327
74 75
182 183
199 200
59 58
181 180
135 136
223 224
69 70
35 36
320 319
30 29
28 27
167 166
217 216
48 47
8 9
156 155
66 65
274 273
7 1
247 246
308 309
153 154
160 159
327 326
354 355
21 22
231 232
68 69
404 405
108 109
414 415
44 45
67 66
132 133
207 206
45 46
275 274
176 175
230 231
143 144
342 341
39 40
395 394
141 140
58 57
90 91
270 269
176 177
321 320
409 408
34 35
2 3
145 146
84 85
145 144
270 271
141 142
146 147
281 280
266 265
234 235
385 386
63 64
193 192
113 112
322 321
233 232
220 221
403 404
100 99
324 323
102 103
402 401
100 101
147 148
407 408
245 244
68 67
47 46
99 98
17 18
42 43
349 350
355 356
104 105
208 207
167 168
351 350
120 121
50 51
50 49
161 160
124 125
32 31
424 425
31 30
272 273
382 383
202 203
314 313
132 131
5 4
172 173
337 336
181 182
367 6
258 259
411 412
304 303
277 276
330 329
76 75
332 331
52 53
29 28
155 154
340 339
297 296
312 313
397 398
191 190
387 388
95 96
212 213
310 311
319 318
178 179
259 260
54 53
177 178
323 322
371 370
20 21
300 299
368 367
349 348
380 381
237 236
376 375
152 153
387 386
92 93
265 264
312 311
435 434
411 410
423 422
427 428
406 405
314 315
13 12
52 51
134 135
226 225
342 343
97 96
345 346
201 202
203 204
128 129
347 346
369 370
6 5
286 285
354 353
360 359
309 310
276 275
279 280
161 162
246 245
78 77
437 436
289 288
242 243
294 293
197 196
435 436
101 102
65 64
59 60
358 359
125 126
159 158
80 79
56 57
388 389
164 165
357 356
16 15
175 174
168 169
432 431
61 62
372 373
397 396
316 317
218 219
188 189
224 225
257 256
389 390
238 237
4 3
426 427
284 285
1 2
250 251
200 201
378 379
218 217
197 198
107 108
352 353
292 3 212
248 249
140 141
13 12
170 169
15 16
153 152
71 70
70 69
102 101
264 263
115 116
73 74
287 286
76 75
20 19
91 90
258 257
41 40
45 46
231 232
111 112
215 214
180 181
280 281
188 189
236 237
44 45
6 245
249 250
101 3
268 267
110 109
192 193
278 279
196 195
145 146
194 193
154 155
108 107
265 266
148 147
176 177
279 280
93 94
106 105
73 72
32 31
202 201
85 84
231 230
194 195
245 246
122 121
66 67
5 4
178 179
137 136
237 238
164 163
48 47
82 81
229 230
68 67
126 127
288 289
32 33
284 283
96 97
198 197
133 132
125 124
56 55
189 190
132 131
24 25
252 253
161 162
61 60
76 77
14 15
254 253
29 28
184 183
173 174
199 198
89 90
160 161
212 213
278 277
14 13
17 18
23 22
175 174
151 150
11 10
121 120
83 82
206 205
200 201
269 270
207 206
252 251
18 19
138 139
159 158
83 84
191 190
52 53
203 202
39 40
68 69
246 247
122 123
234 233
200 199
112 113
285 286
140 139
213 214
10 9
35 34
63 62
219 218
292 291
291 290
233 232
227 228
259 258
218 217
271 270
197 5
64 63
239 238
282 283
235 236
287 288
276 277
80 79
8 7
192 191
242 243
129 130
169 168
47 46
150 149
157 158
106 107
220 219
41 42
257 256
111 110
44 43
87 86
6 1
109 108
244 243
167 166
117 116
289 290
88 89
224 225
259 260
187 186
138 137
177 178
251 250
98 99
43 42
254 255
162 163
221 220
256 255
134 135
185 184
93 92
187 188
211 210
27 26
263 262
266 267
17 16
203 204
168 167
71 72
97 98
38 39
134 133
9 8
222 221
52 51
123 124
152 151
117 118
58 57
131 130
25 26
223 222
1 7
165 166
118 119
269 268
37 36
275 274
275 276
183 182
62 61
4 3
120 119
11 12
159 160
153 154
173 172
175 176
135 136
240 239
94 95
273 272
145 144
271 272
37 38
57 56
248 247
58 59
242 241
156 155
115 114
22 21
30 31
223 224
217 216
60 59
54 55
75 74
103 104
2 54
50 49
95 96
99 100
209 210
182 181
205 204
273 274
216 215
50 51
30 29
144 143
157 156
225 226
142 141
179 180
227 226
228 229
81 80
241 240
208 209
234 235
129 128
6 5
146 147
103 102
66 65
87 88
282 281
125 126
3 2
211 212
149 4
104 105
114 113
165 164
208 207
261 262
85 86
143 142
36 35
34 33
77 78
28 27
48 49
172 171
264 265
171 170
261 260
91 92
20 21
78 79
23 24
285 284
65 64
186 185
128 127
1 2
404 4 222
224 223
15 16
71 72
249 248
338 6
274 273
183 182
382 381
19 18
171 170
210 209
360 359
280 279
161 160
148 149
46 47
42 43
332 333
184 185
52 53
84 83
370 371
28 29
189 188
70 71
231 232
36 35
143 144
283 284
191 192
347 346
111 110
120 119
115 114
388 387
146 147
96 97
223 222
156 155
177 176
388 389
105 104
368 369
285 286
316 317
4 205
265 266
130 131
214 215
185 186
272 273
47 48
10 11
318 319
365 364
38 39
66 65
371 372
238 239
200 199
145 146
349 350
304 303
32 33
395 396
77 78
168 169
172 173
298 299
252 253
2 73
231 230
225 224
89 88
191 190
336 337
370 369
87 88
126 127
392 393
159 160
129 130
364 363
319 320
297 298
306 305
93 94
351 352
212 211
329 330
43 44
30 29
315 314
118 117
124 123
323 324
202 201
154 153
244 243
114 113
107 106
55 54
113 112
155 154
163 162
380 381
3 2
133 132
393 394
7 8
311 310
247 246
32 31
108 107
402 401
222 221
39 40
150 149
145 144
228 229
257 256
188 187
69 68
24 23
296 295
368 367
134 135
392 391
261 262
55 56
195 196
235 236
398 397
194 195
126 125
339 340
365 366
56 57
345 344
122 121
293 292
31 30
61 60
4 3
213 212
321 322
225 226
180 179
236 237
385 384
205 206
374 373
300 301
250 249
316 315
276 277
345 346
325 324
272 271
308 307
317 318
5 271
233 232
293 294
228 227
267 266
143 142
338 339
254 253
255 254
158 159
300 299
240 241
242 243
404 403
98 97
74 75
104 103
259 258
268 269
237 238
177 178
350 351
18 17
148 147
341 340
135 136
276 275
178 179
356 355
391 390
291 292
79 80
51 52
99 100
109 108
219 220
356 357
105 106
216 215
331 332
158 157
76 75
8 9
40 41
274 275
296 297
210 211
112 111
198 199
218 217
344 343
241 242
46 45
23 22
73 74
80 81
267 268
122 123
265 264
165 164
7 1
353 352
279 278
140 139
115 116
376 375
216 217
1 2
303 302
5 4
13 14
61 62
263 262
358 357
20 19
255 256
311 312
218 219
186 187
280 281
181 182
341 342
63 64
11 12
313 312
125 124
378 377
207 208
165 166
257 258
282 283
366 367
36 37
183 184
58 57
286 287
361 362
354 353
142 141
376 377
208 209
250 251
121 120
45 44
133 134
84 85
288 287
327 328
34 33
245 244
229 230
17 16
5 6
399 400
251 252
220 221
400 401
399 398
390 389
67 66
193 194
118 119
354 355
261 260
166 167
157 156
35 34
136 137
394 395
26 27
294 295
53 54
385 386
92 93
103 102
201 200
269 270
96 95
328 329
141 140
379 378
42 41
213 214
128 129
363 362
99 98
306 307
151 150
175 176
168 167
360 361
359 358
387 386
67 68
22 21
175 174
127 128
87 86
94 95
6 1
374 375
290 289
196 197
171 172
48 49
305 304
396 397
193 192
259 260
383 384
24 25
234 233
234 235
373 372
343 342
348 347
288 289
310 309
335 334
334 333
78 79
326 325
101 100
3 139
226 227
69 70
190 189
379 380
21 20
282 281
89 90
63 62
169 170
320 321
110 109
197 198
83 82
277 278
309 308
90 91
246 245
25 26
285 284
65 64
383 382
102 101
161 162
81 82
203 202
164 163
263 264
38 37
181 180
151 152
301 302
204 203
9 10
138 137
27 28
85 86
153 152
206 207
51 50
132 131
348 349
313 314
15 14
331 330
326 327
402 403
323 322
91 92
336 335
60 59
173 174
117 116
291 290
76 77
59 58
13 12
248 247
239 240
49 50
277 4 276
165 166
130 129
268 267
179 180
256 255
39 38
2 3
90 89
103 104
126 125
153 154
171 172
235 234
273 272
142 4
264 265
54 53
121 120
63 62
188 187
33 32
13 14
105 104
178 177
64 63
65 66
106 107
216 217
74 73
102 101
75 74
71 72
246 245
150 149
197 196
193 192
124 123
245 244
159 160
185 186
213 212
193 194
275 276
253 252
6 5
81 80
22 23
47 48
182 183
43 42
98 99
233 234
98 97
180 181
43 44
2 52
126 127
171 170
199 200
78 77
13 12
211 212
59 58
135 136
192 191
258 259
241 242
184 185
219 220
37 38
275 274
232 233
60 59
111 112
1 6
161 160
174 175
237 238
178 179
129 128
224 223
2 1
168 167
151 150
147 146
91 90
183 184
33 34
34 35
88 89
141 140
70 71
61 60
19 20
75 76
56 57
40 39
207 206
250 249
109 108
191 190
9 8
145 144
25 24
125 124
138 139
16 15
227 226
182 181
148 147
215 214
28 27
102 103
140 139
243 242
248 249
260 259
222 221
107 108
55 56
110 111
25 26
82 83
228 227
21 22
237 236
54 55
274 273
177 176
46 45
62 61
232 6
207 208
195 196
236 235
41 40
10 9
202 201
24 23
83 84
142 143
153 152
58 57
138 137
101 100
81 82
86 85
114 115
246 247
21 20
152 151
220 221
226 225
241 240
27 26
203 202
28 29
257 258
225 224
68 69
201 200
240 239
265 266
195 194
93 92
164 165
208 209
248 247
18 19
30 31
112 113
115 116
223 222
276 277
37 36
219 218
257 256
269 268
176 175
269 270
209 210
244 243
263 262
91 92
161 162
5 4
1 7
230 229
45 44
215 216
170 169
204 203
218 217
197 198
96 95
105 106
252 251
87 86
123 122
18 17
7 8
270 271
164 163
131 132
78 79
70 69
99 100
174 173
155 156
49 48
14 15
16 17
169 168
204 205
264 263
109 110
228 229
4 3
41 42
167 166
136 137
73 72
35 36
80 79
52 53
128 127
77 76
11 12
198 199
134 133
30 29
154 155
253 254
46 47
231 230
67 68
266 267
145 146
187 5
64 65
262 261
251 250
214 213
158 159
121 122
238 239
113 114
49 50
190 189
188 189
119 120
163 162
119 118
261 260
11 10
67 66
173 172
88 87
93 94
135 134
116 117
156 157
97 3
254 255
158 157
84 85
51 50
149 148
131 130
211 210
32 31
132 133
95 94
206 205
143 144
271 272
118 117
296 6 223
68 69
100 101
45 46
276 277
209 208
105 104
192 193
97 96
173 172
197 196
174 175
112 111
294 293
176 175
284 285
39 38
185 186
160 161
164 165
206 207
149 150
185 184
84 83
38 37
108 107
45 44
59 60
81 80
100 99
6 248
195 194
7 1
241 242
203 204
263 262
77 78
140 141
181 180
36 37
165 166
212 213
132 131
190 191
236 237
235 236
229 230
203 202
30 31
265 264
255 256
32 33
27 26
95 94
66 65
51 50
147 146
77 76
121 122
130 131
35 34
108 109
75 74
50 49
82 81
261 262
171 172
155 156
133 134
189 190
40 41
139 138
29 28
67 66
252 251
118 117
275 274
245 246
229 228
204 205
261 260
281 282
56 55
126 125
130 129
115 116
266 265
227 228
197 198
167 168
11 10
152 153
14 13
285 286
222 221
169 168
137 138
188 187
17 18
31 32
244 243
214 215
104 103
20 19
267 266
112 113
159 158
88 89
61 62
118 119
28 27
41 42
170 169
142 141
187 186
225 224
287 286
293 292
117 116
219 218
288 289
144 145
64 63
218 217
137 136
4 3
253 252
21 20
70 71
98 99
152 151
242 243
1 2
189 188
273 272
15 14
46 47
192 191
129 128
227 226
290 291
55 2
161 162
126 127
211 210
267 268
39 40
148 149
173 174
7 8
52 51
8 9
123 122
151 4
63 62
295 294
280 279
125 124
87 86
147 148
288 287
25 26
231 232
60 61
254 253
205 206
210 209
136 135
58 57
180 179
88 87
247 246
194 193
94 93
70 69
177 176
47 48
251 250
103 3
16 17
71 72
260 259
12 11
238 239
213 214
226 225
143 144
231 230
92 91
133 132
207 208
258 257
271 272
115 114
222 223
159 160
278 277
157 156
96 95
216 215
84 85
220 221
216 217
64 65
233 232
119 120
244 245
258 259
181 182
281 280
24 23
140 139
134 135
284 283
239 240
13 12
36 35
201 200
53 52
155 154
90 89
59 58
72 73
128 127
271 270
78 79
43 44
275 276
107 106
6 1
158 157
2 3
143 142
79 80
124 123
179 178
196 195
274 273
42 43
22 21
121 120
295 296
178 177
111 110
5 4
171 170
240 241
5 199
98 97
48 49
219 220
154 153
33 34
268 269
86 85
269 270
6 5
212 211
249 250
73 74
256 257
164 163
56 57
223 224
114 113
16 15
235 234
264 263
23 22
18 19
166 167
282 283
290 289
54 53
234 233
9 10
279 278
292 291
109 110
249 248
25 24
29 30
201 202
162 163
92 93
200 199
146 145
237 238
182 183
68 67
105 106
91 90
184 183
76 75
82 83
102 101
254 255
264 5 18
243 242
146 145
146 147
198 199
164 163
181 182
230 229
118 119
106 107
45 44
46 45
133 132
199 200
225 224
9 10
48 47
106 105
247 246
210 211
62 61
3 2
18 17
185 186
11 12
148 149
161 162
99 98
104 103
141 140
75 74
87 88
40 41
27 26
56 57
251 250
234 233
116 115
191 190
124 123
70 71
241 242
39 40
236 237
145 144
161 160
217 218
205 206
128 129
157 156
127 126
9 8
259 258
142 143
183 184
61 60
24 23
261 260
89 90
120 121
70 69
138 137
174 175
78 77
156 155
171 170
37 38
107 108
25 26
173 174
136 137
58 59
68 69
216 217
154 153
238 239
187 186
176 175
263 262
201 200
191 192
136 4
179 180
216 215
73 74
86 85
228 229
166 165
97 98
134 135
111 112
84 85
130 129
109 110
193 194
252 251
93 3
38 39
178 177
213 214
46 47
181 180
212 213
196 195
167 166
233 232
197 198
92 91
159 158
223 224
257 256
236 235
168 169
64 65
29 28
259 260
124 125
34 35
189 188
228 227
86 87
231 230
65 66
152 153
115 114
89 88
54 55
78 79
10 11
15 14
190 189
103 102
235 234
152 151
3 4
207 208
169 170
82 81
139 140
172 171
263 264
253 254
212 211
110 111
1 6
201 202
163 162
195 194
258 257
21 22
179 5
36 35
14 13
5 4
112 113
219 218
82 83
176 177
121 122
63 62
227 226
250 249
19 18
60 59
94 93
25 24
57 58
81 80
222 223
16 15
247 248
83 84
144 143
147 148
17 16
245 244
244 243
94 95
182 183
215 214
71 72
30 29
51 50
197 196
184 185
33 32
21 20
42 41
6 222
91 90
31 30
151 150
8 7
131 132
149 150
99 100
141 142
204 205
240 239
52 51
245 246
76 75
159 160
36 37
206 207
49 48
261 262
203 204
113 114
44 43
219 220
125 126
208 209
80 79
20 19
188 187
118 117
173 172
31 32
133 134
42 43
53 52
238 237
138 139
158 157
108 109
63 64
192 193
66 67
123 122
73 72
95 96
56 55
226 225
1 2
164 165
5 6
117 116
240 241
77 76
127 128
22 23
255 256
104 105
220 221
101 100
232 231
68 67
203 202
101 102
209 210
1 7
96 97
155 154
249 248
34 33
167 168
120 119
2 50
255 254
252 253
53 54
13 12
28 27
130 131
535 4 82
510 511
72 73
494 495
110 111
265 266
191 192
388 387
377 376
228 227
231 230
92 91
60 61
117 116
462 461
17 16
77 76
75 76
31 30
401 402
175 176
63 64
59 58
26 25
6 447
463 462
380 381
60 59
486 485
527 528
192 193
140 141
164 165
171 170
265 264
389 390
284 283
393 392
512 513
338 337
408 409
78 79
480 481
446 445
282 281
354 355
36 35
489 488
373 374
151 150
252 251
13 12
14 15
114 113
179 180
221 222
380 379
239 238
100 99
467 468
220 219
62 63
122 123
533 534
1 2
257 256
400 401
385 384
131 130
516 517
4 271
139 138
143 142
149 150
472 471
109 110
356 357
220 221
441 440
269 270
136 135
500 499
181 182
348 347
286 287
253 252
345 344
431 430
127 126
413 412
240 239
458 459
351 350
168 167
497 498
111 112
427 428
443 442
124 123
223 222
210 211
121 120
493 492
181 180
185 184
490 491
108 107
95 96
14 13
273 274
520 521
314 315
288 289
130 129
235 236
35 34
375 374
154 153
255 256
188 187
282 283
4 5
67 68
351 352
3 2
93 94
244 245
342 341
339 338
193 194
133 132
88 89
302 303
161 162
28 29
473 472
148 147
489 490
355 356
170 169
465 466
275 274
174 173
146 147
505 506
82 83
278 279
70 71
306 307
505 504
305 306
419 420
372 371
487 486
448 449
449 450
234 235
300 301
533 532
65 64
71 72
325 326
512 511
41 42
399 398
293 292
79 80
399 400
257 258
155 154
254 255
11 12
269 268
156 157
330 329
24 23
198 197
435 434
6 5
107 106
214 215
186 185
309 310
335 334
426 425
492 491
524 525
138 137
164 163
302 301
363 362
236 237
125 126
378 377
136 137
32 33
343 342
253 254
53 52
419 418
129 128
259 258
532 531
49 50
246 245
510 509
177 176
497 496
296 295
392 391
58 57
264 263
370 371
219 218
482 481
200 201
328 329
434 433
227 226
366 367
410 409
382 383
51 52
195 196
308 307
93 92
146 145
317 318
421 422
372 373
143 144
156 155
416 415
171 172
471 470
383 384
443 444
331 332
248 247
159 158
28 27
417 418
524 523
394 393
112 113
184 183
167 166
57 56
479 478
140 139
202 201
365 366
46 45
66 65
501 500
210 209
530 529
504 503
439 438
378 379
233 234
450 451
97 98
315 316
142 141
8 7
250 249
432 431
457 458
214 213
209 208
361 362
317 316
476 475
469 470
411 412
508 507
202 203
261 262
75 74
208 207
16 15
188 189
327 326
303 304
535 534
27 26
353 354
33 34
440 439
81 80
250 251
293 294
199 198
483 482
376 375
414 413
74 73
381 382
357 358
353 352
204 205
232 231
1 7
132 131
213 212
365 364
19 18
206 205
273 272
407 406
397 396
237 238
87 88
457 456
514 515
260 259
9 10
360 359
394 395
216 215
328 327
89 90
499 498
370 369
521 522
271 272
509 508
325 324
50 51
228 229
44 43
456 455
279 280
286 285
488 487
81 82
290 289
343 344
287 288
186 187
18 17
452 453
324 323
334 333
459 460
116 115
55 56
502 503
408 407
49 48
275 276
70 69
522 523
124 125
515 516
149 148
43 42
8 9
321 320
225 224
122 121
331 330
232 233
175 174
530 531
519 518
195 194
493 494
319 320
134 133
416 417
404 403
423 422
119 118
348 349
96 97
460 461
100 101
340 339
204 203
333 332
104 105
349 350
507 506
528 529
423 424
197 196
436 437
127 128
103 104
218 217
479 480
367 368
284 285
226 225
323 322
103 102
47 46
475 474
514 513
135 134
454 453
38 39
248 249
40 39
389 388
517 518
519 520
478 477
445 444
114 115
20 21
406 405
425 424
199 200
468 469
336 335
119 120
230 229
300 299
241 242
247 246
309 308
217 216
526 527
465 464
108 109
429 430
495 496
41 40
91 90
207 206
436 435
476 477
296 297
313 314
163 162
5 359
85 84
311 312
24 25
53 54
361 360
152 151
369 368
452 451
160 161
191 190
77 78
268 267
385 386
280 281
179 178
448 447
463 464
158 157
87 86
190 189
502 501
54 55
99 98
304 305
426 427
19 20
336 337
441 442
1 6
244 243
313 312
397 398
85 86
433 432
321 322
395 396
364 363
341 340
485 484
415 414
47 48
159 160
260 261
292 291
4 3
525 526
386 387
466 467
438 437
212 211
410 411
37 36
38 37
277 278
165 166
391 390
118 117
483 484
319 318
183 3
106 105
11 10
153 152
310 311
21 22
291 290
241 240
405 404
144 145
345 346
421 420
454 455
346 347
178 177
101 102
61 62
44 45
83 84
473 474
172 173
169 168
67 66
295 294
298 299
68 69
2 95
263 262
403 402
29 30
266 267
277 276
242 243
31 32
429 428
297 298
223 224
22 23
269 5 178
193 194
41 42
179 180
64 65
141 142
24 23
164 165
157 158
194 195
45 44
173 174
11 10
33 34
183 184
254 253
7 8
97 96
150 151
206 205
44 43
152 151
1 6
175 176
183 182
23 22
90 89
48 49
36 37
106 105
105 104
200 199
238 237
72 73
156 157
56 55
234 235
30 29
249 250
212 213
99 100
115 114
265 266
166 165
240 239
61 62
59 60
174 175
266 267
96 95
93 92
78 79
84 85
218 217
146 147
152 153
247 246
3 94
139 138
26 27
77 78
226 227
167 166
238 239
210 209
33 32
162 163
263 262
106 107
79 80
121 122
181 180
203 204
118 119
123 122
216 215
130 129
109 108
83 82
136 135
2 50
13 14
118 117
25 24
252 251
189 188
163 164
133 132
111 112
144 145
63 64
257 258
63 62
201 200
250 251
22 21
187 188
69 68
80 81
244 245
51 52
134 133
2 1
101 102
169 168
112 113
51 50
261 262
141 140
7 1
121 120
216 217
123 124
13 12
125 126
39 38
207 208
265 264
75 76
232 233
28 27
186 187
244 243
16 15
5 182
259 258
114 113
98 99
73 74
260 259
214 215
76 77
170 169
61 60
221 220
256 257
208 209
171 170
213 214
17 18
167 168
86 87
142 143
36 35
226 6
233 234
66 65
37 38
54 55
267 268
149 148
161 160
155 154
223 222
197 196
128 127
248 249
263 264
102 103
248 247
98 97
9 10
5 6
229 228
231 232
41 40
224 225
54 53
111 110
255 254
198 197
127 126
86 85
221 222
223 224
256 255
236 237
58 57
34 35
131 132
39 40
75 74
211 210
138 4
202 203
184 185
43 42
178 177
52 53
81 82
70 71
136 137
148 147
242 243
66 67
46 45
230 231
230 229
69 70
172 173
228 227
92 91
120 119
17 16
212 211
178 179
145 146
207 206
134 135
246 245
48 47
103 104
18 19
83 84
14 15
241 240
205 204
19 20
155 156
130 131
128 129
108 107
190 191
219 218
252 253
159 158
193 192
47 46
101 100
160 159
91 90
161 162
67 68
8 9
88 89
21 20
30 31
3 2
139 140
28 29
143 144
109 110
31 32
189 190
171 172
125 124
88 87
117 116
191 192
5 4
177 176
202 201
3 4
116 115
269 268
185 186
242 241
260 261
11 12
154 153
94 95
219 220
235 236
195 196
72 71
149 150
59 58
26 25
56 57
198 199
274 5 254
253 252
58 57
232 233
135 136
44 43
65 66
211 212
70 71
190 189
150 151
154 155
112 113
255 254
147 148
37 38
82 83
97 98
133 134
28 27
51 52
240 241
57 56
31 30
269 270
156 155
206 205
1 7
37 36
226 227
43 42
250 251
110 111
28 29
193 194
101 102
130 131
46 47
188 189
203 202
79 80
74 73
174 175
150 149
139 138
143 142
216 217
232 231
239 240
87 88
49 48
193 192
93 92
101 100
46 45
65 64
33 34
185 186
214 215
35 36
187 188
220 219
5 185
230 6
23 24
211 210
149 148
206 207
142 141
197 198
171 172
120 121
237 238
61 60
75 76
123 124
115 114
191 190
253 254
20 19
51 2
55 56
82 81
256 257
248 247
223 222
20 21
140 141
104 103
184 183
237 236
151 152
198 199
67 66
53 54
85 84
234 233
204 203
145 144
45 44
131 132
162 161
108 109
199 200
153 152
259 258
109 110
53 52
251 252
48 47
96 97
181 180
135 134
129 128
230 231
153 154
176 177
126 127
273 272
187 186
216 215
8 9
10 11
63 64
247 246
95 3
218 217
117 116
262 263
168 167
266 265
235 234
90 89
264 265
113 114
136 137
156 157
268 269
108 107
117 118
219 218
213 212
16 15
13 12
176 175
243 242
127 128
5 6
196 195
250 249
244 243
74 75
213 214
267 266
111 112
272 271
271 270
40 41
174 173
69 70
228 229
194 195
182 183
133 132
34 35
245 244
165 164
179 180
81 80
235 236
239 238
130 129
143 144
182 181
118 119
166 167
138 137
116 115
166 165
255 256
4 3
9 10
119 120
17 18
274 273
59 60
38 39
29 30
201 200
13 14
147 146
67 68
31 32
208 207
41 42
88 89
49 50
228 227
68 69
178 179
4 140
146 145
258 257
168 169
106 107
39 40
192 191
246 245
125 124
170 169
162 163
5 4
104 105
3 2
242 241
84 83
91 90
14 15
106 105
224 223
249 248
260 259
122 121
125 126
27 26
100 99
221 222
177 178
21 22
78 77
157 158
204 205
202 201
72 73
225 224
19 18
8 7
77 76
102 103
11 12
92 91
55 54
85 86
159 158
33 32
95 96
170 171
79 78
24 25
263 264
93 94
159 160
225 226
62 63
58 59
160 161
6 1
123 122
17 16
261 260
164 163
61 62
25 26
173 172
86 87
99 98
197 196
23 22
268 267
220 221
71 72
261 262
1 2
209 210
209 208
266 1 125
169 168
191 190
129 130
156 157
29 30
82 83
258 257
189 190
261 260
110 111
215 216
106 107
161 162
38 37
192 191
36 37
125 126
214 213
133 132
91 92
204 205
134 133
70 71
19 20
155 156
203 204
265 266
36 35
69 68
81 80
51 52
15 16
95 96
259 260
170 169
117 118
248 249
155 154
48 47
247 246
40 39
22 23
76 77
87 88
1 2
208 207
162 163
214 215
109 108
24 23
66 65
246 245
111 112
29 28
56 55
84 85
138 139
15 14
263 264
46 45
67 66
226 227
137 136
14 13
21 20
120 121
146 147
175 174
166 165
164 163
176 177
81 82
4 3
231 232
103 104
72 71
64 63
1 6
93 94
171 172
51 50
185 184
65 64
179 180
44 43
239 238
54 55
252 253
86 85
58 59
4 5
255 254
69 70
173 172
153 154
193 192
201 202
224 223
67 68
5 6
73 74
148 149
144 145
141 140
73 72
177 178
134 135
200 199
248 247
160 161
213 212
83 84
53 52
62 63
144 143
180 181
216 217
113 114
262 263
173 174
31 30
176 175
27 26
218 217
229 230
226 225
40 41
89 90
261 262
242 241
211 210
107 108
88 89
100 101
244 243
142 143
8 7
188 189
196 195
228 227
131 132
221 220
179 5
250 249
46 47
59 60
234 233
184 183
50 2
26 25
8 9
237 236
159 160
118 119
124 123
229 228
24 25
208 209
87 86
16 17
194 195
126 127
35 34
95 94
33 32
44 45
77 78
113 112
186 185
186 187
109 110
205 206
103 102
39 38
22 21
258 259
115 116
117 116
62 61
194 193
97 96
252 251
79 80
142 141
34 33
152 151
57 58
75 74
251 250
124 125
128 129
57 56
210 209
231 230
242 243
136 4
138 137
232 233
91 90
197 196
224 225
48 49
188 187
203 202
257 256
3 93
17 18
145 146
99 100
28 27
12 13
140 139
237 238
165 164
240 239
157 158
220 219
207 206
158 159
200 201
221 222
182 181
43 42
255 256
130 131
166 167
6 223
254 253
114 115
104 105
53 54
170 171
128 127
245 244
97 98
79 78
119 120
234 235
11 10
198 197
183 182
19 18
241 240
2 3
60 61
7 1
236 235
12 11
42 41
9 10
75 76
150 151
199 198
101 102
121 122
105 106
31 32
219 218
168 167
264 265
153 152
211 212
99 98
122 123
148 147
149 150
501 5 65
365 366
4 3
211 210
105 104
327 328
429 430
152 151
216 215
29 28
94 93
232 233
277 276
149 148
108 109
254 255
154 155
180 181
119 118
278 279
353 354
248 247
269 268
61 62
287 288
379 378
465 464
260 259
439 438
400 399
51 52
437 438
5 4
145 144
31 32
248 249
136 137
486 487
336 5
89 2
383 384
435 436
30 29
14 15
223 222
404 403
256 257
131 132
336 337
36 35
240 241
379 380
302 303
24 25
227 226
204 203
207 208
190 191
85 86
231 230
126 127
390 389
113 114
108 107
243 242
142 141
6 5
459 458
450 449
256 255
210 209
10 11
169 168
437 436
125 124
384 385
370 371
391 392
443 442
309 310
142 143
106 105
359 358
406 407
431 432
233 234
167 168
459 460
34 35
434 435
205 206
457 458
45 44
152 153
282 283
197 196
375 376
74 75
181 182
130 129
492 491
313 314
118 117
166 165
25 26
117 116
107 106
79 78
156 155
445 444
433 434
464 463
58 57
65 64
96 95
251 252
271 270
469 468
445 446
186 187
53 54
405 404
9 10
485 486
217 216
385 386
275 274
320 321
467 466
415 414
49 50
192 191
59 60
206 207
280 279
54 55
356 357
104 103
468 467
43 42
150 151
460 461
397 398
37 38
319 318
419 6
208 209
263 262
70 71
325 324
67 68
130 131
442 441
342 341
347 346
30 31
422 421
273 272
196 195
377 378
362 361
316 317
346 345
431 430
19 18
307 306
408 407
199 198
112 111
23 22
46 47
102 103
139 138
367 366
351 352
136 135
201 200
481 482
212 213
489 488
415 416
177 176
185 186
451 452
37 36
389 388
311 310
358 357
232 231
427 428
225 226
257 258
197 198
12 11
133 134
24 23
260 261
274 273
360 361
169 170
325 326
229 228
240 239
265 264
487 488
331 330
115 116
294 293
99 100
122 123
483 484
82 81
8 7
64 63
408 409
369 368
62 63
391 390
229 230
313 312
127 128
76 77
304 303
65 66
293 292
416 417
246 247
71 72
205 204
194 195
171 3
419 420
72 73
393 394
146 147
429 428
55 56
412 411
13 12
350 349
302 301
220 221
238 237
364 363
363 362
446 447
382 383
20 19
355 356
466 465
285 284
289 288
202 201
48 49
328 329
110 109
479 480
41 42
199 200
28 27
354 355
494 495
455 456
263 264
27 26
470 471
311 312
329 330
395 394
332 331
175 174
237 236
190 189
179 178
473 472
479 478
365 364
1 6
159 158
396 397
490 491
77 78
184 185
321 322
291 292
307 308
94 95
447 448
393 392
316 315
426 425
499 498
7 1
339 338
453 452
296 297
166 167
475 476
375 374
299 298
115 114
41 40
220 219
112 113
145 146
349 348
218 219
82 83
245 244
482 483
401 400
126 125
121 122
262 261
120 119
469 470
148 147
51 50
411 410
295 296
2 1
214 215
133 132
18 17
417 418
218 217
249 250
178 177
337 338
194 193
33 34
225 224
70 69
413 412
144 143
381 380
239 238
490 489
45 46
224 223
396 395
59 58
347 348
322 323
406 405
211 212
99 98
251 250
180 179
14 13
281 280
367 368
283 284
320 319
499 500
471 472
318 317
413 414
83 84
241 242
455 454
101 100
277 278
272 271
175 176
270 269
98 97
81 80
234 235
162 163
327 326
295 294
457 456
245 246
202 203
15 16
462 461
80 79
140 141
344 343
92 91
57 56
44 43
334 335
352 353
424 423
266 267
480 481
192 193
306 305
52 53
69 68
448 449
275 276
129 128
497 498
84 85
4 253
290 289
474 475
333 334
286 285
140 139
184 183
299 300
339 340
150 149
374 373
74 73
47 48
401 402
433 432
450 451
444 443
90 89
422 423
420 421
315 314
171 172
376 377
156 157
267 268
477 478
173 172
340 341
386 387
228 227
441 440
344 345
496 497
477 476
324 323
350 351
485 484
333 332
496 495
39 38
61 60
2 3
403 402
439 440
173 174
243 244
388 387
158 157
373 372
163 164
165 164
305 304
287 286
372 371
40 39
236 235
253 254
381 382
359 360
398 399
427 426
424 425
134 135
161 160
453 454
409 410
301 300
66 67
123 124
97 96
32 33
298 297
160 159
473 474
187 188
291 290
342 343
221 222
21 22
462 463
308 309
161 162
17 16
188 189
21 20
111 110
493 492
9 8
154 153
91 90
501 500
265 266
101 102
87 88
182 183
369 370
120 121
258 259
75 76
92 93
213 214
87 86
137 138
493 494
281 282
392 5 121
236 235
93 94
46 45
227 226
348 349
75 74
279 278
354 355
150 149
169 170
223 222
359 360
41 40
73 74
194 195
121 120
255 256
100 99
202 203
5 6
379 378
340 341
40 39
322 321
130 131
9 8
172 173
358 359
269 268
249 248
153 154
352 353
237 238
77 76
5 263
44 45
98 99
267 266
91 90
173 174
276 277
247 248
301 302
312 311
46 47
295 294
323 322
126 127
262 261
245 244
208 207
265 264
209 208
79 78
97 96
108 107
175 176
297 298
101 100
324 323
252 251
80 81
229 228
284 285
141 140
319 318
233 234
134 133
163 164
103 104
48 47
230 231
314 313
350 351
239 240
367 368
123 124
83 82
384 383
175 174
184 185
191 190
370 369
289 288
69 68
232 231
306 307
168 169
60 61
122 123
223 224
164 165
35 34
218 217
89 88
138 137
390 391
202 201
243 242
392 391
292 293
263 264
206 207
39 38
144 143
338 339
136 135
7 1
360 361
85 84
376 377
357 358
357 356
154 155
20 21
336 337
281 282
221 222
186 187
119 120
280 279
9 10
56 55
386 385
140 139
52 53
33 32
260 261
193 194
187 188
299 300
235 234
125 124
230 229
275 274
380 381
365 364
325 324
14 15
347 348
142 141
337 338
252 253
166 165
238 239
158 159
290 289
271 272
344 343
142 143
232 233
64 63
28 29
171 170
71 72
160 159
113 114
94 95
331 330
63 62
93 92
11 12
251 250
200 199
12 13
82 81
157 156
388 389
258 259
181 180
30 29
192 193
95 96
65 66
297 296
199 4
334 333
278 277
329 330
157 158
103 102
315 316
270 269
1 2
205 206
225 224
85 86
148 149
56 57
89 90
309 310
299 298
371 372
335 336
247 246
255 254
315 314
333 332
379 380
259 260
153 152
17 16
119 118
320 321
112 111
240 241
373 372
172 171
367 366
183 184
150 151
113 112
138 139
362 361
2 3
16 15
25 26
64 65
214 215
282 283
115 116
326 325
228 227
387 388
34 33
59 58
370 371
328 329
41 42
296 295
220 219
44 43
121 122
109 108
390 389
353 354
135 3
355 356
387 386
345 346
37 38
331 332
268 267
162 161
18 17
188 189
6 1
340 339
326 327
51 52
241 242
203 204
58 57
145 144
287 288
19 20
211 212
24 25
36 35
181 182
362 363
225 226
7 8
42 43
189 190
345 344
60 59
114 115
146 145
177 178
210 209
342 343
350 349
196 197
364 363
3 4
31 32
257 256
30 31
5 4
73 72
97 98
301 300
125 126
49 48
128 129
161 160
377 378
384 385
129 130
105 106
236 237
128 127
244 243
132 133
196 195
147 146
37 36
101 102
319 320
91 92
382 381
168 167
216 215
281 280
218 219
318 317
51 50
253 254
258 257
211 210
217 216
198 197
185 186
109 110
118 117
294 293
111 110
84 83
13 14
328 6
80 79
351 352
266 265
62 61
176 177
162 163
22 21
270 271
2 71
346 347
106 107
76 75
137 136
304 305
276 275
28 27
312 313
19 18
303 302
287 286
307 308
117 116
67 66
105 104
152 151
87 88
23 22
366 365
23 24
220 221
179 178
273 272
374 373
70 69
182 183
286 285
213 212
303 304
10 11
54 53
155 156
369 368
274 273
382 383
180 179
26 27
49 50
309 308
305 306
310 311
374 375
291 290
167 166
87 86
200 201
316 317
132 131
375 376
335 334
67 68
246 245
250 249
204 205
342 341
214 213
77 78
283 284
54 55
148 147
192 191
291 292
