15
23 3 16
17 16
2 9
21 6
23 22
3 4
14 13
18 19
19 20
15 4
12 13
18 5
16 15
1 6
1 7
6 5
7 8
11 10
2 3
2 1
10 9
21 22
3 12
4 5
21 2 21
17 16
1 2
7 8
4 13
9 2
2 3
5 6
15 14
11 3
18 17
6 1
9 10
13 14
21 20
12 11
5 16
1 7
4 5
4 3
19 6
20 19
30 4 19
16 15
19 20
3 4
17 16
11 12
23 5
1 2
18 17
20 21
14 13
12 13
30 29
26 25
24 23
5 4
25 24
6 27
1 6
19 4
28 29
3 15
22 21
9 10
8 7
2 11
27 28
6 5
2 3
7 1
9 8
23 5 7
2 3
18 5
1 7
4 3
10 9
4 5
15 16
7 8
22 21
22 23
18 19
2 1
3 12
16 17
14 13
1 6
9 2
6 21
10 11
6 5
20 19
15 4
13 12
20 2 9
2 9
9 10
15 16
1 2
11 3
3 4
6 5
7 1
14 13
12 11
5 15
13 4
18 19
4 5
6 1
7 8
2 3
18 6
16 17
20 19
20 5 13
2 1
19 20
15 5
11 3
1 6
5 4
17 16
18 6
6 5
13 14
3 2
16 15
3 4
9 2
1 7
7 8
9 10
18 19
11 12
13 4
22 2 15
4 3
20 21
12 13
15 14
12 11
9 10
22 21
4 14
5 4
19 18
17 5
1 7
6 5
2 1
7 8
9 2
11 3
1 6
3 2
6 20
17 18
16 15
30 1 10
14 13
27 28
19 20
16 17
13 12
27 6
11 2
5 4
22 21
9 10
7 8
8 9
15 16
15 3
1 7
4 3
25 26
6 5
20 21
30 29
23 24
24 25
6 1
3 2
28 29
4 19
11 12
18 17
2 1
23 5
38 6 13
4 3
7 8
4 22
29 28
26 25
5 4
33 6
17 3
25 24
15 14
16 15
27 5
20 19
35 36
31 32
10 9
1 2
1 6
18 17
1 7
33 34
2 12
13 12
14 13
18 19
27 28
23 22
37 36
30 29
38 37
31 30
6 5
24 23
10 11
35 34
20 21
3 2
9 8
30 5 22
17 18
6 1
1 7
28 27
24 23
21 20
25 24
22 21
25 26
4 3
11 2
27 6
30 29
4 19
2 3
16 17
8 9
5 4
7 8
19 20
12 13
15 3
15 16
11 12
9 10
5 6
29 28
13 14
1 2
5 23
32 6 18
27 26
13 12
5 4
1 7
15 3
9 8
3 2
32 31
5 6
15 16
4 3
1 2
28 6
7 8
16 17
31 30
11 2
29 30
25 26
6 1
25 24
29 28
9 10
5 23
4 19
20 21
23 24
22 21
20 19
17 18
14 13
12 11
23 5 22
17 16
15 16
15 4
22 23
4 5
18 5
12 13
6 1
1 7
10 9
11 10
3 2
6 5
8 7
2 9
21 22
18 19
3 12
3 4
6 21
1 2
20 19
14 13
34 3 17
12 11
19 18
30 6
18 17
30 31
22 23
2 1
4 5
12 13
15 16
11 2
4 20
13 14
23 24
9 8
20 21
15 3
3 4
25 5
2 3
26 27
21 22
28 29
10 9
33 34
7 1
6 1
28 27
7 8
16 17
32 33
6 5
25 26
31 32
22 4 19
5 4
6 1
11 3
5 6
5 17
4 3
21 22
15 16
10 9
3 2
4 14
20 6
7 8
19 18
7 1
13 12
2 1
21 20
9 2
14 15
17 18
11 12
31 3 31
20 19
16 17
15 3
24 25
12 11
17 18
23 24
30 31
3 2
19 4
2 1
27 28
8 9
4 5
22 21
6 27
6 5
1 6
29 28
5 23
30 29
3 4
13 12
8 7
14 13
21 20
7 1
15 16
11 2
10 9
25 26
