22
620 187 458
55 54
305 306
200 201
29 28
375 376
136 135
169 170
403 404
255 256
351 350
426 425
149 150
370 369
530 531
422 423
299 300
95 94
374 375
30 31
260 259
175 176
90 91
137 136
104 103
480 481
552 551
264 265
99 98
131 130
62 63
117 116
488 487
601 600
20 21
30 29
215 214
282 283
134 133
453 452
297 298
545 546
16 15
167 166
570 571
253 254
302 303
68 69
283 284
521 520
495 494
219 218
102 101
584 583
438 439
527 528
192 191
352 353
346 345
506 507
421 422
93 92
386 387
254 255
617 616
267 266
524 525
251 252
231 230
423 424
208 209
417 418
436 435
609 608
199 200
98 97
238 239
389 390
110 109
178 179
295 296
459 458
407 406
452 451
166 165
508 507
604 603
583 582
173 174
565 566
339 340
319 318
462 461
14 15
537 536
247 248
460 459
103 102
533 532
598 597
385 384
77 76
593 592
355 356
122 121
374 373
442 441
310 309
44 45
381 382
492 493
602 601
540 539
331 330
519 520
26 25
207 206
391 392
80 79
396 397
349 348
361 362
607 608
18 17
557 558
445 444
516 517
315 316
171 170
373 372
244 243
251 250
222 221
226 225
229 230
512 511
504 505
180 179
403 402
496 495
595 596
164 165
590 591
467 468
289 290
59 60
208 207
298 299
360 359
400 399
80 81
143 142
522 523
217 218
291 292
296 297
93 94
333 332
21 22
321 320
580 581
357 356
348 347
506 505
54 53
111 112
304 305
49 48
567 568
241 240
554 555
412 413
198 199
38 37
336 335
138 139
247 246
436 437
61 60
478 477
4 5
526 525
6 7
619 620
287 286
351 352
304 303
273 274
105 104
357 358
380 379
220 219
276 275
82 83
263 262
237 236
562 563
212 211
43 44
465 466
193 194
308 307
572 571
300 301
155 156
160 161
378 379
492 491
602 603
330 329
501 500
612 613
41 42
342 341
250 249
460 461
416 415
125 124
23 24
411 412
517 518
232 231
464 463
365 366
562 561
415 414
469 470
532 531
146 147
115 114
398 397
111 110
365 364
224 223
587 586
372 371
434 435
186 185
440 441
294 293
49 50
73 74
385 386
32 33
615 616
594 593
100 99
164 163
326 325
118 119
244 245
126 125
190 191
354 353
234 233
533 534
158 157
320 319
337 336
484 485
7 8
238 237
614 615
540 541
204 203
418 419
115 116
358 359
378 377
471 470
607 606
181 182
538 537
339 338
202 203
10 11
454 453
52 53
487 486
327 328
462 463
591 592
456 457
154 153
265 266
280 281
78 77
426 427
182 183
195 196
155 154
85 84
557 556
307 306
388 389
2 3
402 401
215 216
568 569
137 138
394 395
268 267
188 187
87 88
337 338
381 380
134 135
577 578
431 432
446 445
123 122
11 12
278 279
613 614
606 605
618 617
204 205
579 580
277 276
241 242
388 387
70 71
366 367
569 570
327 326
498 499
392 393
168 169
162 161
410 409
34 35
258 259
457 458
547 546
515 516
559 558
287 288
610 611
127 128
59 58
474 475
325 324
449 450
610 609
599 600
361 360
605 604
183 184
188 189
534 535
145 144
311 312
499 500
619 618
349 350
120 119
271 270
399 398
479 478
433 434
333 334
46 47
468 469
212 213
542 541
454 455
172 171
269 268
384 383
123 124
232 233
579 578
226 227
210 211
575 574
489 488
535 536
39 40
481 482
279 280
552 553
291 290
8 9
71 72
420 421
282 281
407 408
286 285
594 595
88 89
406 405
217 216
467 466
234 235
51 50
346 347
36 35
34 33
243 242
81 82
86 87
256 257
313 312
236 235
141 140
438 437
448 449
40 41
38 39
473 472
599 598
149 148
577 576
100 101
45 46
475 476
130 129
178 177
514 515
309 308
245 246
70 69
529 530
73 72
68 67
451 450
444 443
174 175
12 13
363 362
270 269
227 228
509 510
86 85
496 497
65 66
563 564
430 431
260 261
167 168
225 224
18 19
512 513
181 180
152 153
323 322
464 465
377 376
391 390
522 521
612 611
524 523
56 55
92 91
572 573
75 76
485 486
620 79
43 42
61 62
368 367
480 479
140 139
404 405
141 142
52 51
127 126
133 132
316 317
194 195
455 456
210 209
310 311
184 185
173 172
240 239
114 113
32 31
22 23
371 370
221 220
20 19
328 329
14 13
497 498
229 228
354 355
553 554
484 483
343 342
394 393
151 150
248 249
106 105
582 581
66 67
543 542
476 477
491 490
439 440
556 555
344 343
334 335
416 417
253 252
47 48
341 340
95 96
113 112
128 129
294 295
428 427
318 317
275 274
314 313
197 198
408 409
25 24
514 513
538 539
65 64
432 433
429 430
448 447
10 9
428 429
151 152
560 559
550 549
121 120
510 511
363 364
108 107
37 36
489 490
196 197
84 83
186 187
443 442
284 285
193 192
273 272
548 549
410 411
26 27
344 345
118 117
527 526
163 162
214 213
324 323
96 97
502 501
590 589
483 482
551 550
257 258
78 79
560 561
145 146
57 56
278 277
57 58
564 565
509 508
3 4
321 322
1 2
159 160
292 293
263 264
106 107
158 159
586 585
519 518
420 419
64 63
588 589
109 108
528 529
471 472
544 545
289 288
27 28
503 504
89 90
548 547
332 331
190 189
424 425
315 314
395 396
584 585
446 447
576 575
5 6
75 74
587 588
143 144
413 414
574 573
368 369
401 400
205 206
261 262
202 201
131 132
502 503
473 474
596 597
567 566
544 543
272 271
493 494
147 148
16 17
177 176
222 223
156 157
301 302
383 382
632 88 471
304 305
105 106
112 113
378 379
290 289
52 53
60 61
529 530
225 224
479 480
60 59
297 298
507 508
95 96
428 427
158 159
474 473
322 323
287 286
349 348
285 286
603 602
517 516
307 308
329 330
229 230
380 381
600 601
216 217
234 235
342 343
627 628
84 83
232 233
32 31
379 380
174 173
368 369
124 125
497 496
306 307
494 495
516 515
55 54
519 520
256 255
209 210
54 53
300 301
577 576
402 403
171 170
389 390
176 175
534 535
574 573
435 434
357 358
490 491
571 570
559 558
110 111
149 148
129 130
11 10
474 475
13 14
489 490
447 448
45 46
253 252
399 398
157 158
563 564
272 273
103 102
383 384
396 395
629 630
64 63
608 607
333 334
193 192
335 336
578 579
198 197
559 560
548 547
202 201
84 85
279 278
91 92
269 268
367 368
106 107
162 163
71 72
403 404
189 188
142 143
322 321
89 88
254 253
277 276
319 320
93 92
411 412
4 5
160 161
464 465
240 239
482 481
17 18
435 436
213 214
437 436
31 30
510 509
126 127
18 19
181 182
42 41
406 405
230 231
591 592
23 22
160 159
245 246
425 426
10 9
462 463
619 618
40 39
308 309
317 318
604 605
514 515
360 359
27 26
25 26
439 440
293 292
24 23
557 558
401 402
583 584
628 629
79 78
82 81
187 188
326 325
266 265
568 567
446 445
221 222
40 41
387 388
121 120
448 449
443 444
456 455
249 250
172 173
29 28
407 408
364 365
606 605
180 181
90 89
273 274
620 621
174 175
257 258
203 202
44 43
155 156
244 243
512 511
232 231
355 356
16 15
562 563
272 271
385 386
285 284
206 207
409 410
484 485
536 537
265 264
74 73
612 613
377 378
536 535
570 569
303 302
239 238
538 539
406 407
93 94
423 424
75 74
550 551
416 415
189 190
252 251
288 287
3 4
518 517
151 150
388 389
469 470
3 2
141 140
540 539
591 590
611 610
590 589
586 587
194 193
212 213
69 68
341 340
484 483
325 324
114 113
66 65
167 166
387 386
478 479
207 208
148 147
438 437
525 526
312 311
528 529
413 412
101 100
284 283
588 587
622 621
129 128
541 540
153 152
50 49
491 492
544 543
267 266
105 104
573 572
61 62
194 195
125 126
299 300
99 98
522 521
503 502
470 471
109 108
418 419
441 442
421 422
237 238
575 574
282 281
268 267
632 309
511 510
101 102
533 532
329 328
548 549
24 25
359 358
366 365
115 114
316 315
512 513
518 519
154 153
87 88
64 65
399 400
579 580
171 172
433 432
352 353
111 112
141 142
208 209
392 393
315 314
584 585
364 363
5 6
282 283
144 143
36 37
580 581
132 133
527 526
228 227
353 354
165 166
408 409
615 614
552 553
290 291
445 444
351 350
256 257
38 39
488 487
80 79
442 443
162 161
417 418
312 313
48 49
464 463
501 500
414 415
502 501
131 130
294 293
596 595
348 347
468 467
28 27
127 128
578 577
347 346
155 154
306 305
117 116
374 375
499 500
593 594
178 177
86 85
561 560
98 97
405 404
56 55
260 259
261 262
344 345
395 394
360 361
616 615
245 244
146 147
550 549
176 177
394 393
565 564
13 12
566 565
431 430
327 328
585 586
616 617
623 624
67 66
246 247
453 452
250 251
342 341
334 335
531 532
613 614
434 433
468 469
370 369
588 589
522 523
319 318
530 531
59 58
576 575
452 451
215 214
608 609
78 77
571 572
372 373
51 52
505 504
567 566
226 225
270 271
56 57
499 498
597 598
422 423
259 258
478 477
261 260
483 482
373 374
401 400
149 150
278 277
228 229
152 151
223 222
546 545
601 602
179 178
355 354
593 592
236 235
624 625
291 292
523 524
7 8
288 289
356 357
131 132
120 119
430 429
254 255
243 242
90 91
326 327
203 204
398 397
481 480
492 493
554 553
58 57
486 485
87 86
477 476
219 218
17 16
186 187
367 366
431 432
19 20
279 280
471 472
503 504
299 298
236 237
473 472
339 338
140 139
136 135
281 280
429 428
248 249
582 583
276 275
263 264
77 76
438 439
611 612
8 9
623 622
620 619
352 351
459 458
546 547
552 551
363 362
47 48
488 489
382 383
337 336
218 217
73 72
30 29
508 509
70 71
581 582
76 75
631 632
124 123
497 498
110 109
197 196
145 144
82 83
556 557
600 599
410 411
67 68
310 309
344 343
391 392
165 164
63 62
33 34
134 133
568 569
45 44
449 450
183 182
122 123
507 506
555 556
349 350
372 371
107 108
185 186
487 486
1 2
440 441
35 34
195 196
94 95
607 606
527 528
96 97
462 461
391 390
314 313
146 145
495 496
38 37
168 169
320 321
456 457
270 269
204 205
167 168
212 211
191 192
216 215
99 100
521 520
603 604
457 458
163 164
233 234
346 345
544 545
425 424
543 542
303 304
555 554
241 240
384 385
371 370
382 381
12 11
42 43
626 625
136 137
296 295
301 302
447 446
221 220
460 461
14 15
332 333
274 275
184 183
338 337
630 631
122 121
596 597
513 514
420 419
618 617
534 533
21 20
467 466
118 119
104 103
180 179
627 626
476 475
117 118
134 135
297 296
450 451
70 69
339 340
537 538
185 184
81 80
200 201
542 541
396 397
191 190
22 21
116 115
139 138
200 199
51 50
242 241
331 330
310 311
205 206
226 227
494 493
35 36
460 459
610 609
594 595
33 32
170 169
362 361
525 524
375 376
7 6
262 263
413 414
454 453
332 331
377 376
420 421
47 46
324 323
505 506
219 220
427 426
465 466
316 317
211 210
198 199
156 157
561 562
295 294
599 598
417 416
138 137
248 247
454 455
224 223
534 130 344
304 305
32 31
279 278
190 191
219 220
131 130
63 64
224 223
86 85
340 341
408 409
357 356
197 198
376 375
194 193
69 68
282 283
230 229
205 206
333 332
417 418
7 6
201 200
306 307
322 323
261 260
44 45
437 438
225 226
433 432
144 143
510 509
371 372
307 308
335 334
159 160
7 8
316 317
394 395
348 347
484 483
406 405
78 79
183 184
190 189
456 455
446 445
244 243
83 82
480 481
213 214
387 386
248 249
437 436
518 517
407 406
263 262
186 187
510 511
221 222
255 254
103 104
14 13
369 370
383 384
352 353
327 326
50 51
423 422
128 127
160 161
489 488
210 211
145 146
12 11
162 161
75 74
198 199
243 242
402 403
497 498
293 292
525 526
427 426
228 227
133 134
270 269
41 40
281 282
296 295
226 227
411 412
78 77
339 340
339 338
313 314
151 152
241 240
55 56
490 491
290 291
276 275
169 170
79 80
65 66
304 303
132 131
150 149
404 403
534 533
2 1
394 393
176 175
99 98
35 34
460 459
20 21
380 379
59 58
271 270
410 411
486 487
211 212
41 42
109 108
280 281
91 92
155 154
338 337
109 110
117 118
303 302
325 326
168 169
288 287
238 239
324 323
174 175
396 397
221 220
63 62
450 451
359 360
218 219
136 135
398 397
111 112
108 107
65 64
383 382
524 525
252 253
59 60
466 465
73 74
100 99
3 4
15 16
279 280
364 365
174 173
263 264
114 115
236 237
424 423
325 324
301 300
377 376
101 102
127 126
159 158
330 331
5 6
496 497
103 102
315 314
140 141
461 462
188 187
269 268
462 463
479 480
23 22
25 24
430 431
202 201
419 420
284 285
203 204
477 478
455 454
43 42
246 247
122 121
434 433
466 467
241 242
150 151
389 390
49 50
491 492
95 96
358 359
315 316
180 179
488 487
34 33
309 308
207 208
155 156
37 38
200 199
332 331
392 393
111 110
38 39
149 148
66 67
312 311
216 217
363 362
87 88
180 181
473 472
76 77
114 113
51 52
453 452
90 89
15 14
195 194
53 54
400 399
402 401
10 11
113 112
88 89
352 351
251 250
72 71
505 506
107 106
20 19
468 469
196 197
96 97
27 28
121 120
233 234
534 154
504 503
337 336
362 361
234 235
334 333
136 137
106 105
486 485
162 163
343 342
421 420
275 274
297 296
165 164
473 474
140 139
470 471
367 366
192 191
378 377
177 178
501 500
57 56
388 389
289 288
36 35
44 43
238 237
348 349
427 428
32 33
232 231
516 517
163 164
116 117
471 472
49 48
528 527
173 172
57 58
146 147
22 21
178 179
76 75
469 470
526 527
494 493
461 460
482 483
29 28
391 392
361 360
533 532
412 413
98 97
306 305
62 61
311 310
386 385
414 413
25 26
381 380
430 429
260 259
124 125
444 445
185 186
203 202
318 317
232 233
141 142
521 520
298 299
208 209
346 345
48 47
9 8
484 485
523 522
148 147
193 192
93 94
504 505
181 182
134 135
500 499
90 91
125 126
454 453
507 506
129 128
239 240
448 449
210 209
246 245
295 294
441 440
528 529
46 47
524 523
336 335
399 398
440 439
319 320
409 410
10 9
252 251
322 321
465 464
271 272
154 153
130 129
254 253
167 168
277 278
373 374
287 286
277 276
482 481
284 283
464 463
364 363
222 223
123 122
262 261
207 206
54 55
516 515
119 120
502 501
511 512
4 5
494 495
255 256
382 381
515 514
72 73
366 365
321 320
514 513
428 429
477 476
313 312
378 379
291 292
23 24
17 18
157 158
475 476
12 13
267 268
30 31
459 458
354 353
520 519
298 297
354 355
156 157
434 435
449 450
388 387
257 256
446 447
356 355
224 225
408 407
95 94
518 519
228 229
345 344
143 142
375 374
286 285
395 396
273 272
349 350
80 81
347 346
367 368
290 289
139 138
344 343
16 17
444 443
259 258
248 247
61 60
532 531
86 87
513 512
417 416
318 319
214 215
69 70
68 67
84 85
342 341
385 384
171 170
249 250
369 368
231 230
294 293
244 245
45 46
152 153
475 474
196 195
257 258
436 435
145 144
124 123
499 498
425 424
350 351
30 29
404 405
310 309
236 235
26 27
495 496
493 492
36 37
415 416
372 373
329 328
93 92
503 502
119 118
265 264
185 184
358 357
101 100
218 217
204 205
177 176
490 489
171 172
468 467
508 509
443 442
19 18
442 441
299 300
2 3
115 116
330 329
167 166
213 212
529 530
426 425
400 401
70 71
182 183
188 189
452 451
273 274
422 421
52 53
439 438
457 458
104 105
530 531
456 457
522 521
391 390
84 83
447 448
133 132
419 418
431 432
478 479
138 137
507 508
82 81
166 165
302 301
216 215
266 267
370 371
414 415
265 266
327 328
40 39
490 137 329
288 289
370 369
89 88
299 298
227 226
183 182
104 103
67 66
407 408
423 424
3 4
257 256
96 97
199 200
286 285
124 123
305 304
476 477
358 359
389 390
297 296
467 466
274 273
452 451
137 136
356 357
379 378
354 355
453 452
16 17
28 27
57 56
274 275
141 140
342 343
283 284
210 209
372 373
178 177
41 40
419 420
217 218
148 149
362 361
120 121
244 245
59 60
337 338
149 150
292 291
138 139
92 93
448 447
198 197
43 42
250 249
433 434
153 152
260 261
17 18
400 401
105 106
212 213
11 10
318 319
407 406
112 111
329 328
209 208
465 466
404 403
267 268
315 316
322 323
187 186
50 51
330 329
134 133
230 229
240 239
76 75
145 144
396 397
119 118
481 482
259 258
423 422
204 203
264 263
479 478
377 378
486 485
71 72
48 49
285 284
337 336
243 242
459 458
404 405
473 474
213 214
171 170
395 396
398 399
228 227
220 221
366 367
276 275
311 312
461 462
311 310
243 244
194 195
320 321
188 187
54 53
169 170
391 392
360 359
68 69
51 52
295 294
428 429
262 263
23 24
65 66
401 402
347 348
228 229
166 165
232 231
327 328
218 219
432 433
8 7
7 6
2 1
94 93
296 295
81 82
277 278
223 224
290 291
144 143
173 172
314 315
91 92
193 194
324 325
216 215
222 221
307 308
237 238
172 171
416 417
195 196
192 191
252 253
358 357
108 107
293 294
140 139
272 273
211 212
30 31
411 412
347 346
134 135
204 205
210 211
313 314
417 418
64 63
40 39
427 426
463 462
180 181
236 235
133 132
70 69
242 241
162 163
146 145
151 150
179 178
411 410
434 435
302 301
13 14
471 472
338 339
217 216
304 303
113 114
414 413
341 342
381 382
455 456
425 424
235 234
374 375
377 376
164 165
259 260
74 73
151 152
126 125
432 431
321 322
438 437
160 161
326 327
154 155
348 349
156 157
159 160
185 186
454 455
415 416
370 371
112 113
437 436
183 184
267 266
2 3
135 136
270 269
351 350
428 427
383 384
458 457
189 190
269 268
13 12
61 60
205 206
65 64
483 482
399 400
334 335
318 317
22 23
419 418
87 88
85 86
158 157
37 36
326 325
282 281
28 29
76 77
388 387
240 241
101 100
310 309
412 413
141 142
189 188
15 16
446 447
104 105
202 203
255 254
261 262
32 33
96 95
67 68
345 344
429 430
380 379
485 484
121 122
349 350
422 421
19 18
73 72
214 215
147 146
256 255
415 414
181 182
202 201
126 127
330 331
142 143
388 389
444 445
89 90
247 246
394 395
34 33
158 159
276 277
116 115
340 341
155 156
316 317
439 440
208 207
131 130
362 363
380 381
301 300
57 58
409 408
489 488
320 319
486 487
77 78
351 352
245 246
101 102
184 185
95 94
435 436
443 442
84 85
20 19
137 138
459 460
62 63
79 78
83 82
166 167
390 391
386 387
74 75
383 382
177 176
22 21
421 420
257 258
52 53
128 129
405 406
31 32
475 474
331 332
469 468
130 129
305 306
448 449
30 29
45 46
238 239
70 71
308 309
248 249
450 449
198 199
264 265
368 369
453 454
490 106
237 236
11 12
484 483
80 81
111 110
279 278
312 313
431 430
132 131
39 38
163 164
281 280
375 376
271 272
478 477
465 464
83 84
162 161
271 270
425 426
80 79
58 59
392 393
470 469
364 363
473 472
446 445
107 106
116 117
190 191
233 232
175 176
168 167
54 55
333 334
45 44
148 147
55 56
360 361
15 14
124 125
290 289
219 220
265 266
197 196
373 374
282 283
225 224
222 223
38 37
355 356
353 354
9 8
398 397
336 335
470 471
323 324
385 384
48 47
409 410
253 254
25 26
87 86
118 117
468 467
481 480
127 128
230 231
207 206
443 444
460 461
153 154
114 115
372 371
457 456
339 340
366 365
174 173
287 286
247 248
464 463
480 479
98 97
402 403
287 288
292 293
475 476
441 442
368 367
234 233
34 35
122 123
180 179
169 168
386 385
192 193
299 300
36 35
298 297
489 490
365 364
42 41
280 279
24 25
344 343
440 441
61 62
307 306
438 439
487 488
9 10
200 201
44 43
100 99
27 26
120 119
108 109
110 109
174 175
346 345
353 352
303 302
5 6
91 90
451 450
99 98
226 225
252 251
21 20
47 46
4 5
394 393
250 251
49 50
103 102
332 333
641 565 298
636 635
78 79
626 627
211 210
331 330
117 116
384 385
352 351
624 623
65 66
186 185
208 207
400 399
250 251
163 164
500 501
274 275
475 474
195 194
522 521
49 50
196 197
585 586
431 430
413 414
451 450
95 96
309 308
529 530
560 561
371 372
212 211
210 209
25 26
217 218
288 289
193 192
79 80
471 472
167 168
187 188
478 479
52 53
278 277
337 336
641 640
323 324
168 169
224 223
17 16
465 464
32 33
396 397
416 417
263 264
301 300
120 121
570 571
560 559
68 69
105 106
163 162
125 124
329 328
419 420
19 20
225 224
21 20
53 54
55 54
35 36
85 86
298 297
502 503
575 576
108 641
202 201
62 63
286 285
623 622
523 524
288 287
445 446
304 305
601 600
525 524
188 189
241 240
353 354
588 589
555 554
573 572
443 444
175 174
433 434
46 45
568 569
558 559
200 199
159 160
511 510
361 360
214 215
314 313
485 484
585 584
291 292
404 403
414 415
531 530
432 433
505 506
14 13
309 310
286 287
13 12
318 317
205 204
489 488
520 519
574 573
377 378
313 312
351 350
247 246
431 432
437 436
164 165
430 429
81 82
603 602
419 418
404 405
269 268
98 99
51 50
448 447
180 179
616 617
504 503
60 61
468 469
508 509
483 482
38 39
391 392
633 632
578 577
489 490
111 110
105 104
627 628
67 66
552 551
397 398
37 36
97 96
234 235
65 64
69 70
571 572
231 230
254 255
303 304
191 190
491 492
353 352
251 252
328 327
449 450
136 137
409 408
56 57
29 30
543 542
283 282
493 494
180 181
369 368
413 412
394 395
499 500
481 482
340 341
603 604
610 611
355 356
510 509
244 243
277 276
493 492
411 412
284 285
621 620
518 519
115 114
271 270
305 306
416 415
67 68
172 171
259 260
201 200
411 410
463 464
375 376
616 615
381 380
474 473
8 9
434 435
39 40
548 549
216 217
207 206
112 113
536 537
367 366
438 439
448 449
55 56
310 311
502 501
261 262
466 467
104 103
18 19
320 319
302 301
184 183
265 264
554 553
574 575
479 480
533 532
41 40
77 76
607 608
276 275
507 508
3 4
469 470
106 107
425 426
537 538
226 225
290 289
613 614
283 284
454 453
563 564
177 176
576 577
632 631
606 607
49 48
629 628
527 526
513 514
177 178
578 579
298 299
59 58
343 344
486 487
326 325
544 545
209 208
367 368
495 496
147 148
52 51
429 428
238 237
89 88
119 118
192 191
498 497
365 366
59 60
441 440
327 326
41 42
102 103
511 512
15 14
307 306
527 528
108 107
408 407
515 514
135 136
21 22
333 334
140 139
258 257
456 455
127 126
349 350
356 357
152 153
467 468
513 512
423 422
517 516
157 158
446 447
185 184
2 3
91 90
119 120
437 438
138 137
624 625
342 343
16 15
550 551
547 548
610 609
332 331
233 232
166 165
427 426
118 117
423 424
581 582
242 243
639 640
72 71
421 422
613 612
400 401
84 83
156 157
439 440
37 38
140 141
274 273
242 241
151 152
435 436
239 238
223 222
458 457
619 620
44 43
75 74
153 154
324 325
587 586
23 24
359 358
245 246
248 247
132 131
562 561
256 257
604 605
109 110
230 229
385 386
319 318
406 405
376 377
536 535
11 10
182 181
596 595
329 330
129 128
213 214
203 204
606 605
202 203
505 504
600 599
97 98
374 375
370 371
302 303
596 597
281 280
403 402
73 72
169 170
215 216
338 339
562 563
357 358
345 344
396 395
598 599
342 341
102 101
265 266
476 477
384 383
237 236
161 162
101 100
312 311
229 228
46 47
24 25
296 295
244 245
90 89
45 44
333 332
339 340
401 402
522 523
370 369
541 542
193 194
532 531
462 461
555 556
381 382
540 541
149 148
461 460
566 565
518 517
394 393
373 372
365 364
220 221
129 130
150 151
587 588
498 499
135 134
544 543
227 228
410 409
292 293
145 146
591 590
564 565
199 198
629 630
170 171
494 495
546 545
633 634
417 418
186 187
345 346
134 133
618 617
144 145
539 538
566 567
196 195
35 34
388 389
475 476
92 93
57 58
127 128
570 569
6 5
608 609
28 29
373 374
122 121
154 155
362 361
349 348
338 337
94 93
150 149
1 2
262 263
601 602
133 132
281 282
77 78
444 445
255 256
379 380
336 335
297 296
122 123
452 453
198 197
382 383
460 459
535 534
81 80
456 457
173 174
427 428
322 321
99 100
491 490
139 138
611 612
314 315
76 75
473 472
91 92
556 557
583 582
279 280
70 71
213 212
10 9
270 269
295 294
249 248
584 583
308 307
155 156
590 589
442 441
116 115
23 22
234 233
267 268
173 172
546 547
621 622
317 316
355 354
347 346
87 86
260 261
240 239
62 61
507 506
235 236
598 597
363 364
231 232
568 567
484 483
279 278
266 267
125 126
379 378
27 26
112 111
638 639
496 497
515 516
6 7
594 593
12 11
455 454
580 581
147 146
179 178
84 85
625 626
335 334
206 205
392 393
485 486
549 550
594 595
360 359
636 637
634 635
477 478
465 466
160 161
109 108
553 552
64 63
290 291
387 386
462 463
131 130
525 526
534 533
167 166
83 82
487 488
638 637
258 259
387 388
529 528
451 452
424 425
398 399
189 190
540 539
363 362
322 323
316 315
31 30
443 442
42 43
31 32
222 221
390 389
391 390
114 113
252 253
618 619
558 557
4 5
219 218
591 592
47 48
592 593
144 143
88 87
420 421
7 8
142 141
18 17
94 95
299 300
614 615
348 347
321 320
579 580
34 33
159 158
123 124
471 470
271 272
253 254
480 481
459 458
176 175
250 249
182 183
227 226
220 219
406 407
272 273
631 630
74 73
294 293
520 521
28 27
143 142
524 345 101
518 517
254 255
513 512
307 308
214 213
39 40
7 6
204 205
264 263
312 311
117 116
414 413
129 128
4 5
380 381
145 146
336 335
403 404
455 456
370 369
515 514
20 21
414 415
115 116
333 334
109 108
416 417
239 238
202 201
132 133
305 306
284 283
61 60
517 516
235 234
483 482
451 452
120 119
309 310
258 259
78 79
257 258
481 480
32 31
288 289
304 303
393 394
211 212
240 239
387 386
3 2
489 488
460 461
516 515
468 467
401 402
173 172
110 109
356 357
421 422
214 215
405 404
124 125
435 434
522 521
223 224
257 256
31 30
137 138
194 195
329 330
168 167
155 156
401 400
354 355
246 247
470 469
453 454
342 341
285 286
174 175
119 118
235 236
397 396
13 12
353 354
396 395
82 81
422 423
425 424
367 366
457 456
511 512
156 157
316 317
337 338
209 210
413 412
328 327
383 382
375 374
94 93
290 289
178 177
114 113
510 511
178 179
319 320
250 249
169 168
501 502
201 200
29 28
351 352
457 458
213 212
251 250
363 362
441 440
41 40
282 281
444 445
518 519
187 188
388 389
223 222
163 162
68 69
134 133
260 261
207 206
465 466
233 232
363 364
371 372
389 390
324 325
384 383
360 359
147 146
267 268
42 41
97 96
339 340
478 479
362 361
269 268
435 436
368 369
304 305
44 45
158 159
306 307
175 176
149 148
225 224
500 501
89 90
131 130
428 427
296 295
504 503
477 476
129 130
165 164
205 206
487 486
141 140
282 283
72 73
27 26
513 514
37 36
153 154
398 397
181 180
84 85
148 147
89 88
226 227
154 155
105 106
405 406
198 199
262 263
122 123
491 492
445 446
274 273
505 506
451 450
55 54
394 395
171 172
233 234
8 7
475 474
58 57
231 232
359 358
509 510
20 19
247 248
166 167
80 81
62 61
326 325
496 495
177 176
36 35
37 38
300 299
408 409
96 95
253 252
67 68
379 380
181 182
65 66
384 385
125 126
399 398
56 55
220 219
452 453
376 375
83 84
256 255
492 493
10 9
358 357
52 51
152 153
315 314
327 326
470 471
379 378
448 449
344 345
39 38
399 400
418 419
25 24
62 63
443 442
377 376
64 65
360 361
169 170
296 297
317 318
519 520
490 489
504 505
372 373
47 48
42 43
203 202
80 79
485 484
49 48
10 11
408 407
179 180
14 15
265 264
143 144
217 218
346 345
222 221
77 76
163 164
240 241
59 60
437 436
428 429
12 11
135 136
365 364
430 429
158 157
93 92
523 524
328 329
218 219
50 51
249 248
433 434
6 5
44 43
221 220
319 318
8 9
86 87
149 150
488 487
254 253
50 49
355 356
267 266
111 112
284 285
447 448
450 449
98 99
15 16
509 508
367 368
507 506
303 302
272 271
312 313
229 228
443 444
128 127
37 524
343 344
431 432
82 83
139 138
165 166
291 292
59 58
332 331
294 293
486 485
473 474
287 288
241 242
418 417
194 193
184 185
273 272
53 54
193 192
430 431
134 135
98 97
323 322
209 208
391 392
208 207
281 280
126 127
87 88
190 191
302 301
315 316
351 350
192 191
502 503
66 67
287 286
441 442
131 132
47 46
160 159
74 75
472 473
352 353
508 507
90 91
100 101
225 226
29 30
63 64
424 423
499 498
464 465
292 293
482 481
4 3
27 28
45 46
118 117
332 333
415 416
522 523
244 243
382 381
170 171
262 261
420 421
186 185
145 144
16 17
499 500
426 425
438 437
120 121
370 371
244 245
407 406
331 330
115 114
374 373
21 22
270 269
462 463
497 496
295 294
160 161
13 14
190 189
57 56
108 107
340 341
246 245
71 72
495 494
278 277
392 393
216 215
19 18
484 483
231 230
243 242
112 113
279 278
106 107
402 403
411 412
18 17
469 468
471 472
111 110
478 477
276 277
199 200
461 462
338 339
279 280
238 237
349 350
260 259
23 22
236 237
151 150
103 102
299 298
70 71
410 409
467 466
251 252
85 86
347 346
77 78
70 69
391 390
104 105
266 265
173 174
498 497
140 139
189 188
411 410
136 137
104 103
91 92
479 480
458 459
520 521
336 337
270 271
349 348
440 439
388 387
184 183
297 298
34 35
75 76
2 1
419 420
309 308
151 152
475 476
186 187
433 432
275 274
228 227
455 454
198 197
334 335
348 347
203 204
322 321
162 161
342 343
426 427
217 216
276 275
123 124
439 438
320 321
141 142
230 229
300 301
121 122
459 460
33 34
196 195
313 314
310 311
464 463
386 385
73 74
94 95
143 142
446 447
197 196
291 290
100 99
210 211
182 183
378 377
102 101
491 490
493 494
23 24
26 25
53 52
33 32
366 365
324 323
648 41 345
443 444
24 23
618 617
458 459
614 613
520 521
331 332
486 485
532 533
361 362
347 348
80 79
165 166
38 39
343 342
29 30
131 132
290 289
489 488
300 299
576 575
593 594
217 218
113 112
99 100
313 314
223 224
144 143
313 312
126 125
471 472
20 21
485 484
578 577
645 644
48 47
496 497
544 543
261 260
443 442
30 31
302 303
350 351
510 509
148 147
587 586
35 36
95 96
56 57
201 202
46 45
326 327
423 424
77 78
16 15
102 103
286 285
520 519
51 50
431 430
160 159
489 490
27 26
420 419
73 74
179 178
608 607
180 181
117 116
535 536
386 387
458 457
441 442
510 511
589 590
623 622
525 524
42 43
601 602
20 19
29 28
282 283
415 414
570 569
382 381
89 90
420 421
277 278
251 250
641 640
71 72
372 373
446 445
161 160
266 267
50 49
509 508
34 35
149 148
574 573
560 561
121 122
566 567
483 482
561 562
423 422
389 388
32 33
599 600
270 271
82 81
171 170
376 377
512 513
540 541
459 460
596 595
155 156
390 389
547 548
353 352
27 28
491 490
617 616
85 86
104 105
38 37
274 273
104 103
550 551
6 5
186 187
88 87
587 588
504 505
412 411
590 591
463 462
254 255
447 446
77 76
390 391
326 325
138 139
48 49
11 10
463 464
70 71
527 526
399 398
279 280
547 546
579 578
166 167
488 487
545 544
422 421
214 215
17 18
129 130
491 492
620 619
249 248
477 478
515 516
244 245
181 182
379 380
635 634
194 195
418 417
224 225
145 144
281 280
551 552
605 604
298 299
461 460
146 147
484 483
559 558
22 23
567 568
58 59
482 481
465 466
246 245
32 31
582 583
410 411
356 357
155 154
612 611
632 633
80 81
56 55
315 314
247 248
139 140
367 366
401 400
176 177
76 75
8 7
43 44
62 61
437 436
230 231
311 310
304 305
236 235
338 339
555 556
455 454
19 18
40 39
191 192
3 4
514 515
204 205
183 184
99 98
172 171
451 452
518 517
607 606
538 537
218 219
403 404
234 233
136 137
282 281
435 436
284 283
240 239
93 94
536 537
152 151
407 406
397 398
500 501
211 212
529 528
432 433
534 533
638 639
316 317
231 232
97 96
72 73
592 591
16 17
481 480
452 453
201 200
91 90
266 265
284 285
68 67
335 334
345 346
243 244
97 98
198 199
257 256
504 503
276 275
456 457
334 333
128 127
431 432
341 342
505 506
87 86
526 525
168 169
412 413
545 546
52 51
167 168
469 468
8 9
642 643
101 100
120 119
2 3
626 627
170 169
637 636
53 52
318 317
232 233
596 597
528 527
598 597
364 363
394 395
268 267
429 430
418 419
89 88
384 385
69 70
175 174
256 255
523 522
382 383
417 416
195 196
361 360
609 608
61 60
157 156
41 42
577 576
12 13
322 321
440 439
323 324
615 614
468 467
542 543
146 145
476 477
337 338
157 158
632 631
636 635
207 206
500 499
153 154
619 618
178 177
447 448
165 164
60 59
648 647
37 36
354 355
502 501
125 124
208 209
323 322
534 535
475 474
611 610
517 516
108 109
369 368
563 562
530 529
495 496
186 185
203 202
182 183
111 110
275 274
142 141
393 394
406 405
427 428
492 493
352 351
365 364
601 600
540 539
265 264
84 83
254 253
564 563
288 289
115 116
583 584
137 138
67 66
102 101
213 212
134 135
229 230
373 374
380 381
357 358
630 629
360 359
229 228
287 288
385 386
193 194
264 263
269 270
126 127
362 363
475 476
503 502
62 63
631 630
41 40
309 310
162 161
286 287
349 348
366 365
416 415
24 25
521 522
319 320
461 462
308 309
111 112
257 258
438 439
197 196
507 506
556 557
303 304
321 320
638 637
114 113
114 115
625 626
105 106
108 107
149 150
646 647
328 327
401 402
480 479
605 606
247 246
190 189
643 644
133 134
456 455
627 628
554 555
344 345
291 290
449 450
427 426
404 405
557 558
54 53
340 339
599 598
225 226
300 301
337 336
203 204
259 260
220 219
604 603
486 487
200 199
470 469
400 399
642 641
118 117
582 581
573 572
549 550
142 143
15 14
378 379
572 571
580 581
123 124
252 253
173 174
251 252
151 150
158 159
273 272
646 645
243 242
585 586
375 376
548 549
184 185
375 374
346 347
297 298
625 624
227 228
54 55
349 350
565 566
448 449
370 369
564 565
294 293
277 276
239 238
511 512
262 261
584 585
372 371
440 441
208 207
370 371
429 428
354 353
132 133
473 474
553 554
307 306
198 197
14 13
34 33
47 46
426 425
343 344
249 250
205 206
465 464
609 610
579 580
21 22
241 242
435 434
407 408
294 295
222 221
438 437
569 568
26 25
172 173
571 570
620 621
560 559
479 478
615 616
497 498
308 307
64 63
518 519
324 325
64 65
454 453
176 175
128 129
552 553
594 595
513 514
291 292
634 633
217 216
211 210
213 214
523 524
234 235
450 451
494 493
268 269
85 84
192 193
622 621
466 467
12 11
7 6
262 263
2 1
109 110
495 494
44 45
329 330
131 130
384 383
508 507
395 396
539 538
336 335
238 237
240 241
332 333
237 236
397 396
279 278
613 612
377 378
163 164
226 227
640 639
180 179
295 296
92 91
302 301
9 10
75 74
120 121
153 152
65 66
93 92
470 471
209 210
329 328
306 305
530 531
311 312
216 215
79 78
472 473
122 123
592 593
106 107
408 409
409 410
628 629
189 188
499 498
434 433
82 83
119 118
223 222
135 136
331 330
340 341
358 359
259 258
532 531
575 574
541 542
602 603
392 393
318 319
5 4
221 220
187 188
391 392
271 272
293 292
297 296
68 69
414 413
368 367
40 648
58 57
315 316
588 589
355 356
191 190
402 403
140 141
387 388
424 425
163 162
94 95
624 623
445 444
598 521 1
6 7
348 347
312 311
485 484
478 479
177 176
192 191
83 84
399 400
452 451
489 488
569 570
37 38
530 529
452 453
412 413
325 326
366 367
304 305
551 552
486 485
393 392
104 105
332 333
448 447
178 179
238 237
509 508
156 157
294 293
182 181
78 79
123 122
341 340
543 542
50 49
126 125
182 183
52 53
449 448
89 90
192 193
500 499
362 361
332 331
279 280
209 210
231 232
597 598
410 411
370 371
317 318
571 572
218 217
374 373
436 437
82 83
186 187
424 425
467 466
18 19
299 300
369 370
4 5
511 512
553 552
365 364
498 499
62 61
253 252
405 404
377 378
594 595
506 507
337 338
33 34
199 200
54 53
161 160
260 259
577 578
279 278
514 513
13 14
330 329
456 457
19 20
334 333
367 368
237 236
81 80
172 173
135 136
78 77
419 418
294 295
344 343
214 215
432 433
428 429
39 40
242 243
379 380
427 428
503 502
235 236
68 67
493 494
287 286
63 62
264 263
63 64
315 314
171 170
65 66
227 228
587 586
540 539
495 496
415 414
234 235
266 265
555 556
450 451
180 179
388 389
588 587
434 433
204 205
491 490
82 81
408 409
378 379
198 197
381 382
70 69
354 353
34 35
122 121
31 30
196 195
101 102
267 268
580 581
421 420
28 27
15 16
46 45
149 150
9 8
335 334
280 281
113 112
89 88
118 119
219 220
13 12
17 16
26 27
386 385
350 349
457 458
147 148
17 18
278 277
328 329
317 316
291 292
309 308
563 562
138 139
460 461
178 177
413 414
36 37
258 259
484 483
85 86
48 49
175 174
543 544
276 275
250 251
569 568
573 572
510 511
246 245
21 22
287 288
592 593
401 402
232 233
394 393
589 590
230 229
391 392
447 446
154 155
74 73
59 60
430 431
107 108
516 515
357 356
483 482
521 520
2 3
489 490
250 249
509 510
469 468
555 554
388 387
560 561
458 459
429 430
258 257
167 166
125 124
46 47
75 74
108 109
242 241
275 274
310 311
293 292
537 536
385 384
549 548
445 444
565 566
316 315
505 504
375 374
126 127
168 169
42 41
272 273
441 442
44 45
159 160
87 86
254 255
419 420
35 36
140 139
180 181
151 152
252 251
585 584
147 146
219 218
360 359
112 111
79 80
535 536
223 222
176 175
59 58
98 99
342 341
11 10
157 158
91 92
557 556
396 395
149 148
584 583
469 470
247 248
299 298
92 93
574 575
571 570
549 550
411 412
455 454
514 515
146 145
487 486
464 463
32 31
302 301
141 142
40 41
247 246
410 409
72 71
426 427
271 272
266 267
319 318
9 10
460 459
216 215
391 390
325 324
581 582
576 575
582 583
346 345
68 69
217 216
309 310
568 567
240 239
462 461
508 507
14 15
425 426
151 150
121 120
166 165
464 465
474 473
66 67
212 213
437 438
245 244
466 465
213 214
369 368
116 115
276 277
185 184
522 521
195 194
256 255
198 199
167 168
312 313
534 533
231 230
355 356
212 211
403 402
372 371
127 128
71 70
478 477
323 324
558 557
502 501
164 163
423 424
404 403
396 397
284 285
26 25
208 207
335 336
355 354
535 534
183 184
376 377
546 545
304 303
577 576
206 205
226 227
100 99
7 8
129 128
88 87
327 326
449 450
422 421
330 331
208 209
283 282
579 580
482 481
439 438
257 256
493 492
462 463
243 244
136 137
261 262
563 564
506 505
203 204
43 44
130 131
560 559
359 358
152 153
594 593
444 443
239 238
523 522
337 336
527 526
339 338
476 475
65 64
190 189
24 23
406 407
110 111
387 386
347 346
211 210
512 513
290 289
262 263
527 528
190 191
5 6
118 117
517 516
202 201
164 165
480 481
51 52
477 476
162 163
113 114
327 328
357 358
365 366
559 558
32 33
364 363
567 566
297 298
526 525
494 495
254 253
24 25
131 132
397 398
519 520
436 435
260 261
591 592
224 225
541 542
102 103
455 456
361 360
596 595
496 497
313 314
434 435
351 350
23 22
170 169
446 445
565 564
47 48
188 189
561 562
578 579
283 284
101 100
596 597
28 29
473 472
55 56
270 271
306 305
488 487
400 401
407 408
474 475
321 320
123 124
363 362
55 54
96 95
3 4
42 43
84 85
399 398
106 107
529 528
381 380
225 226
300 301
394 395
73 72
553 554
296 295
96 97
297 296
153 154
307 306
137 138
519 518
50 51
234 233
547 548
532 533
90 91
94 95
144 143
530 531
94 93
498 497
240 241
143 142
282 281
269 268
422 423
140 141
352 351
228 229
547 546
200 201
1 2
467 468
470 471
20 21
405 406
504 503
186 185
173 174
288 289
57 58
291 290
155 156
538 537
540 541
500 501
57 56
134 135
442 443
372 373
129 130
269 270
274 273
60 61
525 524
480 479
202 203
517 518
322 323
416 417
38 39
340 339
133 134
574 573
105 106
76 77
532 531
550 551
389 390
453 454
206 207
321 322
197 196
524 523
585 586
75 76
98 97
432 431
588 589
171 172
384 383
109 110
104 103
440 439
224 223
345 344
491 492
161 162
545 544
29 30
440 441
187 188
144 145
132 133
222 221
418 417
353 352
115 114
117 116
471 472
119 120
249 248
375 376
382 383
598 154
194 193
342 343
221 220
319 320
158 159
302 303
11 12
308 307
264 265
416 415
286 285
591 590
539 538
349 348
523 48 328
222 221
130 129
213 212
482 483
321 320
172 173
458 457
58 59
445 446
475 476
214 215
187 186
209 208
120 121
7 6
409 410
430 429
401 402
53 54
435 434
16 15
224 225
386 385
414 415
399 400
132 133
469 470
239 238
158 157
51 52
329 330
319 320
442 443
332 333
247 248
164 163
162 163
430 431
79 80
298 297
521 520
69 68
352 353
168 167
98 99
457 456
500 501
354 355
332 331
266 267
200 201
96 97
408 407
509 508
252 253
474 475
19 18
422 421
308 307
358 357
489 488
518 517
119 120
470 471
428 429
18 17
104 105
133 134
234 233
413 414
515 516
454 455
70 71
262 261
182 183
203 202
9 10
500 499
422 423
52 53
230 229
342 343
168 169
111 112
160 161
57 56
513 512
43 44
9 8
232 231
62 61
173 174
519 518
310 311
334 335
299 300
295 294
205 204
131 130
382 383
90 89
74 75
121 122
237 238
218 219
88 87
425 424
44 45
6 5
458 459
3 2
427 428
143 144
22 23
281 282
302 303
299 298
267 268
327 326
287 286
451 452
249 250
402 403
210 209
68 67
81 80
187 188
233 232
198 197
28 29
101 102
291 290
369 370
433 434
56 55
488 487
143 142
105 106
296 295
149 150
216 215
419 420
318 317
438 437
110 111
58 57
70 69
119 118
368 367
467 468
153 152
272 271
464 463
207 208
223 222
241 240
292 293
201 202
383 384
24 23
394 393
235 236
336 335
359 360
21 22
25 24
103 104
433 432
466 467
231 230
38 39
386 387
19 20
446 447
100 101
509 510
246 245
469 468
159 158
136 137
493 494
432 431
390 389
472 471
93 92
219 220
485 486
146 147
263 264
311 312
260 261
194 193
46 47
482 481
465 464
259 260
283 284
13 14
114 113
13 12
190 189
370 371
177 176
265 264
167 166
407 406
327 328
510 511
214 213
412 413
33 32
398 399
83 84
76 77
60 59
276 275
409 408
211 210
394 395
14 15
139 140
41 42
25 26
444 445
159 160
263 262
81 82
99 100
315 314
481 480
20 21
328 329
438 439
344 343
478 479
145 144
323 324
228 227
138 137
284 285
352 351
136 135
401 400
221 220
435 436
108 109
453 452
95 94
522 521
256 257
207 206
49 48
206 205
180 181
268 269
340 341
466 465
41 40
305 306
244 243
124 125
449 450
170 171
109 110
417 418
404 403
178 177
508 507
102 103
376 375
341 342
316 315
499 498
203 204
241 242
270 269
257 258
340 339
461 460
391 392
396 397
354 353
436 437
26 27
199 198
218 217
336 337
301 300
504 505
91 92
322 321
155 156
135 134
506 505
289 288
85 86
255 256
338 337
279 278
418 419
460 459
285 286
325 326
290 289
126 127
313 312
349 350
117 116
77 78
514 515
93 94
351 350
291 292
174 175
128 129
64 63
178 179
195 194
273 272
398 397
477 478
224 223
74 73
84 85
132 131
487 486
161 162
517 516
157 156
379 378
314 313
253 254
406 405
40 39
495 494
249 248
473 474
35 34
411 412
79 78
365 364
303 304
441 440
197 196
16 17
60 61
345 344
347 346
485 484
185 186
378 377
117 118
107 106
50 51
520 519
46 45
362 361
188 189
211 212
75 76
355 356
318 319
28 27
380 379
29 30
385 384
366 365
49 50
190 191
380 381
151 150
34 33
36 37
374 375
443 444
425 426
91 90
462 461
388 389
366 367
62 63
181 182
217 216
152 151
38 37
240 239
297 296
247 246
361 360
252 251
229 228
149 148
11 12
496 495
405 404
83 82
442 441
439 440
166 165
3 4
373 374
491 490
199 200
462 463
390 391
349 348
503 504
294 293
169 170
480 479
147 148
523 133
266 265
484 483
317 316
259 258
377 376
226 225
107 108
333 334
473 472
454 453
116 115
123 124
330 331
30 31
496 497
417 416
523 522
235 234
114 115
372 373
154 153
273 274
382 381
362 363
254 255
4 5
122 123
35 36
32 31
278 277
65 64
364 363
493 492
498 497
503 502
393 392
447 448
346 345
288 287
451 450
191 192
491 492
368 369
275 274
146 145
65 66
277 276
112 113
415 416
243 242
193 192
396 395
73 72
356 357
87 86
251 250
279 280
455 456
338 339
171 172
301 302
48 47
98 97
448 449
138 139
175 176
179 180
270 271
128 127
155 154
325 324
426 427
184 185
513 514
236 237
501 502
196 195
387 388
11 10
420 421
89 88
227 226
140 141
54 55
309 310
358 359
489 490
43 42
424 423
66 67
372 371
142 141
304 305
1 2
96 95
323 322
283 282
280 281
507 506
244 245
411 410
184 183
125 126
165 164
72 71
309 308
477 476
307 306
7 8
511 512
348 347
483 68 317
385 384
95 94
34 33
331 332
127 126
397 398
51 50
167 168
240 239
7 6
405 406
139 138
293 294
151 150
85 86
321 322
291 290
474 473
113 112
119 118
364 365
439 438
202 201
97 96
254 255
354 353
96 95
53 52
116 117
471 470
393 394
177 176
443 442
452 453
280 279
151 152
3 4
400 401
176 175
326 325
120 121
73 74
23 24
163 164
278 277
480 481
231 230
253 254
227 226
242 241
223 222
92 93
170 171
32 31
461 462
343 344
419 418
339 340
71 70
372 373
233 234
83 82
239 238
456 457
54 53
284 283
214 215
154 153
333 332
43 42
163 162
37 38
76 75
100 99
445 444
125 124
397 396
465 466
412 413
448 449
389 390
297 296
112 111
481 482
78 79
60 59
470 469
388 389
268 269
141 142
375 376
64 63
92 91
136 135
369 368
199 198
210 209
100 101
129 130
437 436
31 30
243 242
175 174
22 23
84 83
475 474
301 300
28 27
205 206
359 358
345 344
185 184
183 182
155 156
135 134
15 14
84 85
299 300
386 385
407 408
157 158
402 403
143 144
137 136
249 250
74 75
4 5
352 351
94 93
70 69
10 11
404 405
318 317
200 201
339 338
434 433
309 308
467 466
128 127
282 283
77 76
459 460
162 161
218 217
411 412
479 480
128 129
431 430
68 69
161 160
340 341
314 315
77 78
427 426
454 453
370 371
420 419
264 263
154 155
464 463
181 182
325 324
173 172
32 33
191 192
281 280
251 252
272 271
43 44
109 108
67 68
37 36
413 414
365 366
236 235
459 458
288 289
267 266
107 108
410 411
110 109
452 451
81 80
125 126
146 147
461 460
195 194
44 45
415 416
152 153
73 72
421 422
335 336
373 374
48 47
265 266
319 320
454 455
323 322
446 445
67 66
262 263
41 42
463 462
187 188
58 57
287 288
323 324
180 181
421 420
349 348
468 469
157 156
211 212
38 39
384 383
425 424
48 49
409 408
435 436
387 386
271 270
261 262
249 248
314 313
247 248
415 414
233 232
63 62
148 149
368 367
426 425
483 482
193 194
21 22
148 147
383 382
351 350
211 210
273 272
61 62
89 90
294 295
292 291
356 355
281 282
336 337
15 16
243 244
170 169
251 250
30 29
423 424
334 333
363 362
302 301
428 427
377 378
437 438
315 316
219 220
441 440
2 3
286 285
123 122
338 337
297 298
133 132
473 472
232 231
261 260
20 21
89 88
115 116
392 391
374 375
191 190
223 224
298 299
90 91
304 305
186 187
285 284
104 103
34 35
102 103
458 457
39 40
244 245
246 245
450 451
362 361
434 435
237 236
370 369
138 137
213 214
207 206
159 158
277 276
447 446
98 97
56 57
145 146
98 99
150 149
186 185
360 359
388 387
230 229
279 278
349 350
58 59
54 55
367 366
472 471
81 82
295 296
422 423
329 328
483 151
87 88
72 71
449 450
145 144
377 376
46 47
177 178
105 104
114 115
41 40
204 203
303 302
330 331
204 205
180 179
326 327
2 1
455 456
246 247
341 342
122 121
381 380
106 107
394 395
141 140
347 348
390 391
379 380
440 439
354 355
131 132
312 313
258 257
218 219
169 168
306 305
6 5
12 11
328 327
52 51
190 189
101 102
143 142
475 476
166 167
174 173
259 258
287 286
203 202
188 189
208 209
113 114
347 346
352 353
66 65
195 196
179 178
24 25
290 289
237 238
212 213
406 407
171 172
346 345
56 55
396 395
119 120
400 399
134 133
18 17
320 321
225 224
7 8
363 364
402 401
241 240
307 308
428 429
226 225
199 200
360 361
184 183
392 393
25 26
111 110
10 9
80 79
257 256
164 165
252 253
316 317
307 306
303 304
20 19
196 197
357 356
50 49
409 410
64 65
216 215
265 264
117 118
86 87
478 477
416 417
329 330
36 35
444 443
319 318
372 371
432 433
124 123
357 358
403 404
229 228
222 221
275 274
260 259
29 28
207 208
26 27
165 166
139 140
9 8
270 269
442 441
61 60
310 311
335 334
46 45
431 432
159 160
228 227
309 310
448 447
197 198
468 467
268 267
382 381
417 418
293 292
379 378
14 13
12 13
216 217
192 193
273 274
234 235
479 478
17 16
464 465
398 399
476 477
256 255
276 275
105 106
18 19
130 131
220 221
430 429
311 312
343 342
471 109 297
147 148
367 366
54 53
272 273
3 4
167 166
341 340
381 380
80 79
460 461
375 376
139 140
338 339
138 137
40 39
348 347
462 463
320 321
428 427
94 95
442 443
214 215
359 358
189 190
319 318
48 49
456 457
156 157
393 394
278 279
143 142
206 205
91 92
191 190
162 163
192 193
38 39
4 5
251 252
333 332
253 252
153 152
92 93
43 42
77 78
309 308
411 410
6 5
215 216
199 200
432 433
440 441
428 429
109 108
321 322
373 374
379 380
349 348
152 151
156 155
399 400
100 99
415 416
425 424
316 317
327 326
29 30
111 112
130 129
455 454
89 88
86 85
384 383
354 355
423 422
81 80
375 374
352 353
244 245
324 323
291 292
304 305
284 283
172 171
326 325
72 71
50 51
451 450
385 386
333 334
34 35
412 411
469 470
121 122
49 50
246 245
431 430
69 68
430 429
397 398
325 324
24 25
25 26
450 449
183 184
422 421
331 332
413 414
263 262
119 120
257 258
110 109
240 241
170 169
238 237
210 209
259 260
174 175
468 469
303 304
462 461
249 248
371 372
227 226
366 365
153 154
243 242
137 136
256 257
390 389
27 26
59 58
343 342
414 415
222 221
294 295
62 63
431 432
336 337
401 402
100 101
247 248
159 160
298 299
61 62
401 400
238 239
260 261
435 436
330 331
322 323
219 218
31 32
416 417
212 213
115 116
385 384
315 314
466 465
425 426
438 439
14 15
219 220
267 268
146 147
196 195
229 230
445 446
118 119
87 88
28 27
419 420
269 270
64 65
36 37
182 181
388 387
158 157
222 223
178 177
277 276
67 68
318 317
98 99
173 174
22 21
267 266
129 128
133 134
83 82
8 7
127 128
32 33
290 289
185 186
335 334
443 444
47 46
141 140
197 198
106 107
268 269
313 312
250 249
381 382
130 131
180 181
150 149
396 395
73 72
71 70
457 458
142 141
408 409
399 398
9 8
211 212
227 228
96 95
168 169
234 235
352 351
214 213
217 216
254 253
377 376
367 368
194 193
45 46
329 330
23 22
123 124
342 341
423 424
360 359
283 282
271 272
202 203
300 299
10 11
76 75
105 104
185 184
97 98
139 138
161 162
204 203
274 275
175 176
344 345
378 377
38 37
86 87
463 464
182 183
125 124
23 24
426 427
281 280
208 209
52 53
67 66
402 403
379 378
234 233
176 177
103 104
417 418
452 453
355 356
188 187
225 226
301 300
121 120
271 270
202 201
440 439
85 84
64 63
225 224
19 18
103 102
135 136
340 339
471 470
20 21
242 241
93 94
282 281
247 246
388 389
15 16
52 51
273 274
56 57
20 19
295 296
266 265
275 276
236 237
455 456
437 436
150 151
419 418
434 433
301 302
81 82
254 255
155 154
395 394
350 349
392 393
277 278
194 195
197 196
460 459
362 363
188 189
145 144
55 54
135 134
396 397
442 441
310 311
368 369
409 410
407 406
102 101
287 288
12 11
114 115
239 240
403 404
390 391
224 223
356 357
58 57
391 392
96 97
204 205
179 180
172 173
337 338
327 328
258 259
83 84
236 235
347 346
306 307
56 55
466 467
165 164
346 345
383 382
146 145
95 471
438 437
200 201
42 41
369 370
288 289
113 112
373 372
452 451
354 353
262 261
211 210
231 230
12 13
448 447
387 386
10 9
264 265
30 31
412 413
132 133
90 89
70 69
148 149
335 336
458 459
449 448
35 36
444 445
370 371
61 60
453 454
264 263
75 74
313 314
59 60
420 421
405 404
78 79
126 127
312 311
296 297
191 192
1 2
29 28
233 232
307 308
220 221
16 17
285 286
44 43
310 309
365 364
111 110
171 170
303 302
143 144
229 228
358 357
298 297
207 206
166 165
131 132
243 244
316 315
468 467
178 179
305 306
292 293
255 256
286 287
13 14
290 291
73 74
218 217
407 408
3 2
167 168
123 122
232 231
44 45
343 344
465 464
33 34
161 160
294 293
117 116
90 91
251 250
446 447
199 198
208 207
328 329
405 406
350 351
65 66
48 47
117 118
363 364
113 114
18 17
41 40
319 320
361 362
6 7
435 434
280 279
159 158
126 125
107 108
163 164
187 186
361 360
284 285
106 105
76 77
636 292 595
279 278
270 269
55 54
550 551
240 241
446 447
286 287
391 392
38 37
10 11
418 417
218 219
487 488
478 477
502 501
462 463
148 147
336 337
137 136
138 139
114 115
439 440
343 342
413 412
358 357
325 326
233 232
42 43
429 428
214 215
452 453
258 257
375 374
300 299
210 209
535 534
423 424
220 219
127 126
186 185
143 142
4 5
150 151
68 67
254 255
225 226
370 371
425 426
35 34
381 382
372 373
596 595
38 39
32 31
632 631
400 401
182 181
363 362
444 443
234 235
550 549
100 99
111 112
505 504
520 521
436 435
370 369
131 130
439 438
353 352
275 276
175 174
396 397
434 433
18 17
453 454
342 341
476 477
295 294
61 62
102 103
512 513
586 587
61 60
73 74
470 469
553 552
464 463
344 343
513 514
60 59
195 196
398 399
316 315
455 454
486 485
296 295
320 321
126 125
128 127
239 240
151 152
53 52
600 601
514 515
159 160
121 120
162 161
248 249
635 636
364 365
633 632
97 96
377 376
191 192
158 157
168 169
314 315
202 201
106 107
62 63
448 449
184 185
595 594
272 273
462 461
528 527
103 104
582 583
538 539
449 450
621 622
252 253
51 50
152 153
607 608
318 319
80 81
547 546
442 441
312 313
565 566
252 251
113 112
162 163
85 84
483 482
627 626
34 33
458 457
216 217
508 509
348 347
508 507
394 393
554 553
268 267
423 422
493 494
23 24
409 410
332 331
591 592
117 118
116 117
7 8
465 466
506 507
280 281
25 24
54 53
105 104
309 310
296 297
381 380
145 146
294 293
284 285
481 480
599 600
522 521
20 21
329 330
473 474
604 603
142 141
574 573
389 388
71 70
41 40
421 422
540 541
443 442
403 404
374 373
8 9
44 43
64 65
329 328
446 445
495 494
629 630
503 502
36 37
169 170
495 496
213 212
92 93
498 497
86 85
492 491
277 276
263 264
84 83
21 22
322 323
530 531
540 539
224 225
44 45
242 241
325 324
623 622
166 167
629 628
335 336
367 368
86 87
625 624
402 401
609 610
340 339
484 483
598 597
166 165
617 616
556 555
480 479
458 459
285 286
96 95
485 484
189 190
94 95
212 211
541 542
27 26
132 133
565 564
74 75
76 77
545 546
229 230
469 468
4 3
531 532
579 580
308 307
128 129
47 46
534 533
317 316
174 173
211 210
265 264
171 170
178 179
134 133
356 355
245 244
560 559
393 392
635 634
571 572
19 20
610 611
613 614
360 359
214 213
634 633
243 244
153 154
29 28
238 237
390 389
588 589
172 173
108 107
310 311
398 397
425 424
555 554
376 375
198 199
618 617
411 410
607 606
303 302
450 451
394 395
580 581
429 430
2 1
525 524
6 7
568 567
516 517
471 470
186 187
620 621
491 490
408 407
447 448
345 344
15 14
340 341
274 273
400 399
351 350
123 124
50 49
587 588
13 12
585 586
460 461
121 122
359 358
407 406
203 202
552 551
334 335
218 217
69 70
188 187
615 614
55 56
149 148
79 80
253 254
444 445
227 226
493 492
355 354
82 83
333 332
520 519
432 431
306 305
91 92
598 599
615 616
396 395
413 414
333 334
197 196
590 591
140 139
362 361
137 138
379 380
318 317
239 238
235 236
338 337
99 98
523 522
172 171
71 72
437 438
271 270
247 246
144 145
518 517
122 123
242 243
460 459
154 155
503 504
562 563
409 408
339 338
575 576
605 604
371 372
6 5
198 197
59 58
90 91
262 261
363 364
489 488
233 234
36 35
299 298
351 352
134 135
275 274
284 283
547 548
178 177
573 572
593 594
472 471
382 383
624 623
436 437
76 75
290 291
26 25
119 118
58 57
577 578
221 222
183 182
558 557
417 416
509 510
232 231
247 248
420 419
592 593
181 180
31 636
163 164
511 512
204 205
563 564
221 220
176 175
328 327
224 223
9 10
537 538
301 302
533 532
357 356
627 628
260 261
283 282
479 478
613 612
403 402
290 289
195 194
612 611
467 466
569 568
57 56
250 249
156 157
496 497
135 136
48 49
271 272
404 405
499 498
51 52
536 537
46 45
430 431
97 98
585 584
258 259
348 349
143 144
31 30
216 215
28 27
208 207
64 63
18 19
124 125
314 313
30 29
82 81
265 266
419 418
203 204
262 263
510 511
518 519
411 412
561 562
596 597
245 246
230 231
548 549
205 206
489 490
575 574
427 428
631 630
384 385
176 177
559 558
311 312
618 619
545 544
434 435
467 468
368 369
525 526
528 529
472 473
353 354
345 346
602 601
386 385
102 101
406 405
199 200
421 420
89 90
68 69
183 184
432 433
523 524
571 570
227 228
569 570
180 179
15 16
566 567
194 193
426 427
619 620
66 65
260 259
626 625
416 415
77 78
12 11
165 164
350 349
42 41
116 115
130 129
361 360
79 78
48 47
13 14
544 543
110 109
167 168
158 159
387 386
465 464
557 556
256 255
378 377
301 300
383 384
223 222
322 321
119 120
606 605
88 87
114 113
191 190
441 440
161 160
208 209
267 266
578 579
455 456
583 584
414 415
516 515
346 347
487 486
581 582
306 307
110 111
476 475
506 505
327 326
367 366
132 131
543 542
251 250
277 278
93 94
324 323
576 577
189 188
297 298
304 303
529 530
609 608
501 500
481 482
390 391
457 456
229 228
282 281
560 561
192 193
201 200
149 150
288 287
289 288
280 279
256 257
40 39
305 304
105 106
590 589
72 73
206 207
147 146
33 32
535 536
388 387
3 2
319 320
291 292
474 475
292 293
89 88
366 365
331 330
308 309
67 66
526 527
101 100
379 378
451 452
499 500
268 269
140 141
156 155
602 603
22 23
16 17
237 236
108 109
691 578 280
149 150
427 428
600 601
410 411
351 350
494 495
673 672
624 623
685 686
498 497
382 381
521 522
560 561
501 502
286 287
295 294
408 407
449 448
566 565
667 666
580 579
630 631
36 35
205 206
146 147
80 79
678 677
414 415
162 163
441 440
585 584
570 569
125 126
240 241
143 144
593 594
33 34
71 72
520 521
357 358
592 593
246 245
684 683
610 609
34 35
237 238
67 68
180 181
663 664
594 595
576 577
4 3
523 524
14 15
29 28
327 326
13 14
204 205
210 211
317 316
2 1
374 375
145 146
413 412
107 108
660 659
347 346
680 681
414 413
527 528
177 178
163 164
457 458
229 230
384 383
270 269
514 513
423 424
314 315
249 250
385 384
506 507
135 134
633 632
31 32
590 591
391 392
73 74
571 572
364 365
121 122
83 82
137 136
137 138
86 85
133 134
410 409
97 96
621 620
562 563
377 378
218 217
96 691
619 620
269 268
77 78
104 103
115 116
487 486
267 266
404 405
454 453
252 251
203 204
644 643
301 302
334 335
46 47
366 365
114 115
102 103
612 613
152 151
528 529
626 625
510 511
400 401
173 174
625 624
254 255
3 2
356 355
488 487
75 76
113 112
237 236
463 462
91 92
63 62
646 645
70 71
378 379
637 638
677 676
39 40
609 608
402 401
417 418
520 519
547 548
690 691
227 226
199 200
167 166
130 131
157 156
670 671
151 150
332 333
25 24
172 171
515 514
223 222
191 192
551 552
658 657
509 508
360 361
201 200
300 299
589 590
280 281
431 430
338 339
435 434
470 471
393 394
344 343
473 474
469 468
247 246
17 18
529 530
188 187
661 660
642 643
37 38
451 450
38 39
623 622
132 131
211 212
124 123
31 30
389 390
6 5
294 293
446 445
321 322
583 584
196 197
567 568
573 572
637 636
303 304
73 72
102 101
259 260
442 441
484 483
502 503
354 353
396 397
191 190
616 617
568 569
182 181
243 242
121 120
318 319
66 65
276 275
123 122
292 291
434 433
688 689
215 214
301 300
668 667
285 286
11 12
556 557
683 682
219 218
589 588
471 472
350 349
417 416
453 452
330 329
306 305
526 525
47 48
10 11
533 532
244 245
255 256
359 358
44 43
423 422
195 196
581 582
420 421
662 661
49 50
455 456
353 352
197 198
159 160
545 546
339 340
153 152
658 659
629 628
41 40
282 283
235 234
32 33
364 363
169 170
307 308
517 518
610 611
81 82
231 230
687 688
363 362
273 274
272 271
297 296
418 419
601 602
126 127
496 495
427 426
290 289
139 138
388 387
670 669
493 492
372 373
451 452
311 312
140 141
183 182
331 332
213 212
575 576
185 186
648 649
380 379
640 639
492 491
263 262
536 535
574 573
457 456
556 555
534 533
288 289
259 258
450 449
597 596
357 356
465 464
475 474
52 53
185 184
490 489
15 16
506 505
416 415
650 651
302 303
198 199
219 220
435 436
632 631
674 675
19 18
116 117
622 621
242 241
383 382
396 395
155 154
446 447
577 578
648 647
386 385
156 155
387 386
653 652
319 320
465 466
489 488
596 595
189 188
404 403
345 346
307 306
627 628
80 81
202 201
586 585
479 480
60 59
607 606
517 516
329 328
342 343
380 381
325 324
55 56
257 256
579 578
92 93
342 341
98 97
540 541
292 293
564 563
111 112
225 226
361 362
202 203
599 598
323 324
79 78
516 515
207 206
587 586
537 536
651 652
88 89
399 398
567 566
436 437
110 111
374 373
228 229
165 164
592 591
175 176
95 94
470 469
639 638
392 393
331 330
526 527
337 336
87 86
208 207
313 312
543 544
119 120
20 19
189 190
48 49
254 253
9 10
426 425
629 630
606 605
4 5
83 84
560 559
89 90
169 168
270 271
216 217
565 564
678 679
59 58
6 7
110 109
481 482
62 61
503 504
376 375
674 673
327 328
496 497
214 213
505 504
359 360
539 540
654 655
228 227
478 479
310 311
186 187
30 29
367 368
476 475
129 128
13 12
220 221
42 43
534 535
320 321
160 161
310 309
93 94
113 114
409 408
128 127
462 461
109 108
107 106
682 681
349 348
633 634
180 179
499 500
84 85
65 64
250 251
542 541
411 412
372 371
154 153
371 370
512 511
532 531
161 162
603 602
140 139
424 425
174 175
142 141
455 454
298 299
587 588
335 336
482 483
406 407
57 58
491 490
28 27
178 179
641 640
55 54
400 399
646 647
672 671
273 272
654 653
472 473
209 208
165 166
281 282
546 547
232 233
443 444
91 90
106 105
608 607
581 580
240 239
142 143
248 247
467 466
686 687
133 132
406 405
45 46
337 338
265 264
604 605
23 24
253 252
194 195
308 309
317 318
545 544
553 554
238 239
167 168
509 510
70 69
333 334
665 664
20 21
260 261
64 63
389 388
575 574
429 428
614 613
52 51
261 262
485 486
305 304
8 9
448 447
499 498
403 402
290 291
603 604
390 391
542 543
522 523
458 459
377 376
100 99
464 463
296 295
549 548
258 257
530 531
285 284
209 210
159 158
50 51
370 369
420 419
136 135
313 314
326 325
26 27
233 234
170 171
395 394
221 222
430 429
635 636
615 614
642 641
7 8
266 265
431 432
500 501
559 558
354 355
69 68
352 351
369 368
22 23
440 439
524 525
570 571
432 433
236 235
617 618
494 493
225 224
119 118
657 656
67 66
550 549
685 684
158 157
460 461
243 244
669 668
477 476
445 444
438 437
177 176
485 484
538 539
561 562
555 554
44 45
16 17
264 263
551 550
616 615
618 619
54 53
481 480
184 183
322 323
422 421
215 216
477 478
345 344
537 538
36 37
438 439
459 460
193 194
298 297
512 513
277 276
101 100
348 347
193 192
77 76
367 366
676 675
689 690
443 442
467 468
644 645
117 118
130 129
552 553
280 279
663 662
398 397
88 87
583 582
268 267
105 104
61 60
173 172
26 25
148 149
600 599
42 41
518 519
665 666
278 277
598 597
223 224
95 96
148 147
287 288
249 248
612 611
656 655
278 279
232 231
679 680
275 274
315 316
283 284
341 340
627 626
145 144
508 507
21 22
649 650
634 635
124 125
75 74
557 558
56 57
98 99
667 595 1
232 231
436 437
47 46
338 339
152 151
393 392
253 252
480 479
268 267
593 592
424 423
417 418
298 297
377 376
125 126
59 60
459 460
358 357
407 408
281 280
474 475
285 284
150 151
98 97
368 367
587 586
115 114
663 664
101 100
77 76
329 330
83 82
207 206
485 484
440 439
593 594
637 638
355 354
189 190
386 387
566 565
204 205
440 441
600 599
193 194
390 389
609 608
247 248
163 164
244 245
134 133
170 171
299 300
577 576
209 208
510 509
652 651
323 322
656 657
174 175
610 611
333 332
410 409
84 83
558 559
438 437
615 614
215 216
303 302
397 396
361 362
483 484
81 82
428 429
384 383
581 580
296 297
135 136
596 595
640 641
97 96
428 427
121 120
13 14
651 650
543 544
319 318
644 643
580 579
254 253
139 138
148 149
300 301
206 205
132 133
386 385
52 53
134 135
346 345
87 86
277 276
105 106
57 56
507 508
472 471
89 88
210 209
11 12
634 633
474 473
155 154
295 296
201 202
274 275
70 71
138 137
361 360
292 291
236 235
28 29
188 189
553 552
269 270
648 647
661 660
567 566
649 648
495 494
34 35
531 532
631 632
310 311
347 346
617 616
652 653
429 430
450 451
359 358
636 635
465 464
556 555
430 431
313 314
459 458
174 173
624 623
164 165
315 316
417 416
260 259
352 353
99 98
100 99
477 476
327 328
343 344
469 470
424 425
398 399
80 81
293 294
397 398
602 601
596 597
549 548
500 499
252 251
62 61
460 461
185 184
366 367
264 263
562 563
299 298
240 241
13 12
536 537
467 468
282 283
287 288
6 5
39 40
356 357
246 245
469 468
478 479
90 89
445 446
666 667
105 104
549 550
119 118
589 588
107 106
22 23
496 495
626 625
638 639
516 515
463 462
292 293
183 184
179 178
649 650
234 235
155 156
535 534
343 342
301 302
224 223
344 345
477 478
8 7
512 511
620 621
43 44
254 255
540 539
369 368
416 415
32 31
163 162
328 329
523 524
493 494
606 605
275 276
503 502
400 401
563 564
547 546
516 517
146 145
384 385
660 659
443 442
501 500
654 655
173 172
278 277
555 554
120 119
522 523
511 510
402 403
29 30
662 663
415 414
177 176
310 309
96 95
41 40
39 38
578 577
506 507
228 227
27 28
497 496
629 630
557 558
290 289
587 588
654 653
161 160
631 630
226 227
180 181
274 273
9 10
289 288
604 603
154 153
583 584
250 249
327 326
666 665
571 572
336 335
238 237
592 591
348 347
311 312
324 325
25 26
242 243
197 198
658 657
239 238
53 54
380 379
185 186
66 67
257 258
522 521
127 128
147 148
617 618
486 485
431 432
488 489
8 9
94 93
349 348
454 453
334 333
34 33
391 392
37 38
203 204
55 54
230 229
498 499
86 85
446 447
363 364
26 27
111 112
197 196
18 17
130 131
284 283
598 597
594 595
312 313
279 280
153 152
143 144
76 75
20 21
115 116
606 607
286 287
199 200
370 369
123 122
33 32
282 281
49 50
600 601
30 31
337 338
95 94
583 582
102 101
142 143
457 456
447 448
573 572
550 551
413 414
458 457
70 69
537 538
613 612
224 225
442 441
304 305
265 266
661 662
144 145
79 80
278 279
481 480
533 532
467 466
435 434
462 461
192 193
396 395
643 642
272 271
534 533
560 561
482 481
219 220
403 404
306 307
402 401
5 4
452 453
199 198
117 118
68 67
37 36
491 492
433 434
23 24
207 208
625 624
191 190
62 63
610 609
242 241
373 374
623 622
399 400
448 449
390 391
383 382
196 195
421 422
3 2
73 72
175 176
180 179
426 425
341 340
250 251
247 246
578 579
109 110
502 501
340 339
541 540
581 582
36 35
538 539
393 394
432 433
634 635
170 169
561 562
249 248
142 141
168 169
191 192
568 567
382 381
475 476
187 186
626 627
524 525
71 72
528 527
19 20
2 1
490 489
585 586
178 177
63 64
127 126
117 116
221 220
665 664
381 380
622 621
544 545
45 44
222 221
370 371
181 182
627 628
409 408
487 486
483 482
355 356
395 394
373 372
166 165
59 58
256 257
213 212
628 629
61 60
526 527
272 273
214 215
3 4
554 553
217 218
49 48
46 45
317 316
334 335
244 243
351 352
404 405
426 427
435 436
259 258
604 605
161 162
42 41
591 590
512 513
103 102
519 520
449 450
314 315
454 455
7 6
439 438
112 113
419 420
590 589
341 342
267 266
548 547
535 536
529 530
667 297
225 226
42 43
618 619
321 320
260 261
564 565
48 47
125 124
470 471
530 531
74 75
136 137
515 514
168 167
636 637
377 378
557 556
213 214
466 465
157 156
569 570
528 529
325 326
265 264
200 201
645 646
263 262
91 92
147 146
167 166
223 222
217 216
493 492
140 139
308 309
229 228
110 111
122 121
546 545
647 646
303 304
158 157
219 218
498 497
52 51
57 58
90 91
656 655
158 159
307 308
571 570
239 240
351 350
11 10
412 411
411 410
642 641
463 464
233 232
365 364
114 113
150 149
543 542
237 236
569 568
526 525
270 271
15 14
331 330
290 291
285 286
599 598
608 607
261 262
419 418
487 488
78 79
18 19
659 658
183 182
506 505
573 574
317 318
406 407
472 473
354 353
633 632
230 231
172 171
305 306
87 88
602 603
295 294
74 73
66 65
68 69
640 639
188 187
108 109
203 202
518 517
620 619
85 84
22 21
519 518
131 132
444 443
614 613
322 321
504 503
576 575
141 140
376 375
194 195
50 51
268 269
16 17
387 388
406 405
491 490
360 359
332 331
362 363
560 559
211 210
371 372
256 255
552 551
92 93
336 337
421 420
444 445
15 16
104 103
130 129
324 323
611 612
645 644
615 616
505 504
320 319
455 456
541 542
108 107
25 24
159 160
388 389
129 128
78 77
423 422
366 365
514 513
520 521
55 56
585 584
64 65
509 508
574 575
350 349
452 451
212 211
379 378
124 123
375 374
234 233
413 412
608 472 180
65 66
104 103
334 335
267 266
150 151
446 445
561 560
50 51
284 283
37 36
421 422
300 301
589 588
419 418
606 607
86 87
543 542
18 17
474 475
292 291
203 202
404 405
505 504
242 243
182 183
354 355
469 468
534 535
557 556
402 401
486 487
459 458
130 131
390 391
491 490
258 257
604 605
562 561
302 303
557 558
551 552
467 466
259 258
51 52
204 203
257 256
353 352
225 224
69 70
228 227
533 534
122 121
165 164
273 274
509 510
506 505
288 289
568 567
579 578
41 40
472 473
19 20
231 232
63 64
331 330
425 424
72 71
406 407
259 260
435 434
13 14
135 136
169 168
196 197
90 91
326 327
229 228
24 25
471 472
562 563
199 198
5 4
523 522
69 68
295 294
330 329
385 384
42 41
152 153
142 143
130 129
531 530
479 480
394 395
456 455
307 306
469 470
328 329
432 431
570 569
521 522
67 68
38 37
158 159
184 183
230 229
72 73
433 432
515 514
311 310
174 175
168 167
496 497
318 319
367 368
553 552
460 459
396 395
193 192
443 444
427 428
84 85
185 184
286 287
587 586
186 187
336 337
541 542
76 75
133 132
84 83
34 33
526 527
242 241
570 571
560 559
439 440
422 423
371 370
316 315
59 60
573 572
457 456
458 457
503 502
281 282
339 338
389 390
546 547
2 3
216 217
230 231
439 438
351 350
545 544
324 325
600 601
516 515
126 127
160 161
576 575
471 470
318 317
320 319
513 514
482 483
54 55
27 26
43 42
353 354
379 380
314 315
236 235
357 356
9 10
346 345
599 598
363 364
309 310
343 342
35 34
525 526
162 161
11 10
119 118
21 20
30 29
346 347
185 186
124 123
92 91
237 236
220 221
347 348
498 497
56 57
39 40
333 332
55 56
70 71
492 493
16 17
599 600
597 598
218 217
211 210
548 547
245 246
565 566
487 488
499 498
298 297
66 67
602 603
551 550
295 296
461 462
394 393
8 9
529 530
271 272
22 21
148 147
360 361
246 247
507 508
107 108
508 509
374 375
252 251
205 206
339 340
484 485
8 7
402 403
492 491
554 555
475 476
194 193
128 129
121 120
31 32
53 52
382 381
74 73
452 451
304 305
414 413
575 574
215 214
43 44
127 128
389 388
65 64
62 61
401 400
97 98
139 140
302 301
11 12
322 321
423 424
518 519
603 604
314 313
98 99
465 464
336 335
140 141
263 264
473 474
409 410
461 460
239 238
593 594
426 427
489 488
365 366
25 26
453 452
112 113
387 386
549 550
375 376
343 344
501 500
361 362
28 27
125 124
23 24
420 419
45 46
494 495
146 147
447 446
35 36
188 189
569 568
554 553
112 111
438 437
145 144
182 181
109 110
573 574
58 57
299 298
328 327
504 503
93 94
6 5
194 195
387 388
416 417
22 23
102 101
421 420
219 220
595 594
349 350
138 137
595 596
18 19
430 431
200 199
88 87
448 449
241 240
110 111
445 444
410 411
577 576
479 478
157 156
373 374
303 304
363 362
247 248
103 102
441 442
400 399
454 455
211 212
490 489
116 117
170 169
101 100
341 342
502 501
317 316
141 142
545 546
513 512
440 441
200 201
234 233
578 577
240 239
171 172
278 279
464 463
357 358
114 115
480 481
590 591
290 291
297 296
83 82
337 338
437 436
429 430
320 321
243 244
48 47
293 292
31 30
536 535
266 265
59 58
15 16
520 521
232 233
61 60
95 94
133 134
279 280
377 376
476 477
250 249
187 188
323 322
518 517
537 536
208 207
174 173
97 96
392 393
225 226
326 325
78 79
386 385
177 178
48 49
280 281
235 234
398 397
251 250
414 415
162 163
105 104
463 462
212 213
428 429
254 255
277 278
450 449
333 334
348 349
106 105
221 222
559 558
585 586
435 436
238 237
249 248
399 398
582 581
529 528
222 223
201 202
132 131
284 285
608 607
224 223
453 454
204 205
483 484
596 597
583 582
544 543
189 190
331 332
358 359
99 100
13 12
396 397
413 412
175 176
581 580
365 364
179 178
146 145
592 591
538 537
450 451
159 160
307 308
417 418
409 408
308 309
270 269
89 90
589 590
14 15
272 273
180 181
425 426
275 276
412 411
294 293
89 88
355 356
209 208
245 244
137 136
605 606
352 351
109 108
260 261
47 46
154 155
608 25
306 305
157 158
209 210
563 564
564 565
82 81
117 118
584 583
277 276
344 345
566 567
370 369
367 366
379 378
4 3
262 261
95 96
134 135
466 465
592 593
510 511
74 75
383 382
405 406
391 392
262 263
324 323
495 496
28 29
153 154
584 585
1 2
180 179
477 478
383 384
369 368
164 163
215 216
300 299
177 176
371 372
171 170
143 144
256 255
289 290
523 524
252 253
267 268
493 494
155 156
165 166
80 81
78 77
190 191
77 76
270 271
549 548
139 138
378 377
587 588
517 516
49 50
532 533
214 213
63 62
525 524
468 467
312 311
93 92
555 556
106 107
359 360
195 196
285 286
7 6
511 512
381 380
148 149
54 53
33 32
540 541
207 206
125 126
268 269
519 520
122 123
227 226
407 408
172 173
152 151
120 119
149 150
532 531
572 571
115 116
507 506
79 80
500 499
254 253
85 86
433 434
167 166
283 282
288 287
447 448
527 528
341 340
197 198
482 481
540 539
486 485
275 274
602 601
44 45
373 372
38 39
312 313
580 579
114 113
442 443
265 264
415 416
539 538
218 219
404 403
192 191
609 299 1
65 66
447 448
287 286
457 456
512 511
10 11
346 347
581 582
480 479
273 272
597 596
149 148
536 537
53 52
538 537
123 122
373 372
210 211
423 424
605 606
505 506
21 22
30 29
27 28
354 353
451 450
595 594
174 173
570 569
185 184
5 6
50 51
367 366
504 503
419 418
290 291
126 127
234 233
606 607
483 482
496 495
102 103
553 552
476 477
396 397
416 417
317 318
141 140
214 215
348 347
558 557
301 302
228 227
501 502
55 54
399 398
340 341
214 213
260 261
558 559
524 523
337 336
290 289
466 467
159 158
75 76
576 577
478 479
253 252
463 464
354 355
449 450
369 368
432 433
388 387
548 549
106 107
311 310
45 46
147 148
603 604
120 119
88 89
344 345
232 233
65 64
488 487
486 487
223 224
294 295
356 355
407 406
414 413
392 391
445 446
184 183
395 396
603 602
353 352
461 460
96 95
138 139
121 120
192 191
21 20
97 96
58 57
63 64
246 245
532 531
545 546
419 420
471 472
492 491
237 238
397 398
136 135
342 343
599 598
221 220
91 90
596 595
239 240
296 297
84 83
439 438
118 119
499 498
310 309
56 57
279 280
460 459
324 325
494 495
458 459
230 231
305 306
15 16
539 540
194 195
167 168
444 443
10 9
208 207
257 256
304 305
577 578
68 67
282 283
278 277
163 162
412 411
359 358
400 401
364 365
437 438
302 303
451 452
364 363
549 550
308 307
392 393
82 81
519 518
251 252
590 591
586 587
540 541
468 467
453 454
154 153
169 170
130 131
142 143
141 142
56 55
564 563
196 197
248 249
5 4
182 181
607 608
180 181
232 231
205 206
195 196
271 272
318 319
412 413
160 159
505 504
601 600
164 165
192 193
455 456
338 339
27 26
565 566
18 19
598 597
384 383
441 440
188 187
444 445
53 54
313 314
559 560
453 452
546 547
39 40
158 157
478 477
366 365
309 308
199 200
386 385
518 517
133 134
84 85
316 315
209 210
25 24
288 287
155 156
171 170
245 244
140 139
568 569
592 593
88 87
112 111
247 246
544 545
409 410
116 115
349 350
393 394
42 41
551 550
322 321
582 583
428 429
489 488
376 375
229 228
571 572
368 367
447 446
384 385
599 600
230 229
541 542
48 49
129 128
134 135
332 331
72 73
449 448
334 335
198 197
204 205
439 440
174 175
101 102
235 236
72 71
144 143
421 422
566 567
543 542
508 507
464 465
220 219
94 95
203 202
117 118
186 185
489 490
284 285
427 428
165 166
376 377
466 465
474 473
370 369
113 112
193 194
352 351
278 279
136 137
470 471
405 404
463 462
146 147
238 239
31 32
115 114
295 296
256 255
109 110
133 132
60 59
186 187
292 291
301 300
555 554
426 427
380 381
521 520
45 44
94 93
265 264
528 529
259 258
535 536
116 117
535 534
435 434
574 575
85 86
431 430
160 161
247 248
529 530
48 47
109 108
408 407
188 189
203 204
462 461
327 326
257 258
104 105
32 33
390 389
526 525
282 281
91 92
249 250
132 131
382 381
573 572
286 285
177 176
325 326
304 303
525 524
176 175
425 426
557 556
561 560
510 511
374 375
217 216
9 8
476 475
386 387
331 330
361 360
144 145
90 89
274 273
217 218
82 83
580 579
425 424
346 345
127 128
73 74
519 520
583 584
349 348
62 63
281 280
49 50
588 587
212 211
532 533
70 69
351 350
508 509
339 340
533 534
500 499
516 515
145 146
414 415
276 277
68 69
152 151
370 371
474 475
267 268
259 260
586 585
548 547
225 226
39 38
359 360
441 442
29 28
503 502
294 293
497 496
202 201
429 430
16 17
411 410
61 60
605 604
150 149
497 498
402 403
356 357
298 297
70 71
76 77
66 67
394 395
358 357
443 442
74 75
372 371
575 576
162 161
329 330
216 215
591 592
405 406
568 567
268 269
166 167
554 553
609 608
307 306
319 320
327 328
416 415
108 107
52 51
481 480
570 571
14 13
455 454
609 245
543 544
240 241
298 299
124 123
408 409
436 437
470 469
255 254
30 31
270 271
517 516
389 388
581 580
8 7
263 262
512 513
98 99
602 601
172 171
578 579
555 556
263 264
36 37
515 514
510 509
177 178
490 491
243 242
253 254
38 37
514 513
312 313
250 251
224 225
4 3
431 432
417 418
189 190
341 342
469 468
270 269
168 169
234 235
335 336
93 92
11 12
334 333
226 227
434 433
315 314
18 17
317 316
507 506
585 584
262 261
574 573
377 378
35 34
98 97
24 23
379 380
373 374
190 191
493 492
200 201
588 589
209 208
242 241
77 78
124 125
526 527
178 179
361 362
593 594
589 590
103 104
35 36
47 46
80 81
403 404
329 328
154 155
378 379
172 173
106 105
213 212
382 383
324 323
300 299
561 562
284 283
59 58
531 530
421 420
62 61
362 363
43 42
482 481
199 198
138 137
19 20
486 485
44 43
564 565
2 3
311 312
458 457
163 164
435 436
23 22
182 183
333 332
125 126
15 14
101 100
1 2
523 522
399 400
274 275
293 292
527 528
121 122
100 99
157 156
87 86
275 276
266 267
129 130
25 26
501 500
153 152
221 222
484 483
538 539
423 422
243 244
265 266
552 551
34 33
114 113
472 473
323 322
13 12
338 337
562 563
289 288
320 321
485 484
522 521
180 179
391 390
223 222
151 150
402 401
79 78
6 7
110 111
41 40
344 343
79 80
207 206
237 236
493 494
218 219
567 32 357
81 82
236 237
356 355
166 165
174 173
106 105
34 33
326 327
261 262
359 360
116 117
65 64
237 238
420 419
171 172
333 332
43 44
60 61
415 416
528 527
319 318
288 287
427 428
401 400
28 29
133 132
336 337
475 476
514 515
52 51
221 220
199 198
182 183
73 72
278 279
472 471
547 548
367 366
380 381
50 51
2 1
399 400
413 412
499 500
420 421
378 379
285 284
533 534
362 361
93 94
70 71
166 167
203 204
58 57
53 54
344 343
417 416
83 82
179 178
211 212
320 319
486 485
81 80
512 513
213 214
222 221
242 243
206 205
489 488
398 397
295 294
154 155
354 355
518 517
524 525
557 558
275 276
227 226
388 389
192 193
120 121
351 352
310 309
531 532
363 364
35 36
378 377
483 482
223 222
303 302
466 465
78 77
85 84
501 500
217 216
502 501
153 152
153 154
421 422
270 271
526 527
439 440
76 77
137 138
108 109
567 147
27 26
231 230
97 96
161 160
24 23
471 470
384 383
563 564
257 258
448 449
181 180
399 398
395 394
30 29
264 263
259 260
98 99
565 564
215 216
321 322
235 234
455 456
526 525
35 34
94 95
403 402
566 565
151 152
177 176
147 146
15 14
391 392
473 472
370 371
253 252
230 229
529 530
407 406
113 114
343 342
256 257
194 193
199 200
55 54
329 328
309 308
48 47
176 175
18 17
146 145
90 91
93 92
233 232
120 119
121 122
250 251
135 134
208 209
28 27
241 240
125 124
84 83
196 195
244 245
345 346
301 300
492 493
410 411
550 549
248 249
267 268
498 499
37 36
546 545
170 171
404 403
486 487
461 460
229 228
70 69
168 169
65 66
408 407
490 489
123 122
408 409
285 286
101 102
261 260
410 409
548 549
519 518
31 30
353 352
562 561
346 347
6 7
496 495
435 436
395 396
508 509
426 425
362 363
137 136
48 49
157 158
270 269
299 300
159 160
477 478
13 12
67 68
528 529
412 411
191 190
297 296
172 173
139 140
434 433
116 115
202 201
474 475
414 415
554 553
214 215
470 469
323 322
511 512
21 22
246 245
73 74
556 557
268 269
446 447
438 439
3 2
379 380
95 96
280 279
446 445
87 88
458 459
383 382
263 262
283 284
165 164
111 110
115 114
497 496
372 371
45 46
148 147
225 226
297 298
19 20
38 37
511 510
538 537
20 21
25 24
494 493
524 523
315 314
43 42
469 468
273 274
344 345
233 234
18 19
189 188
522 523
386 387
240 239
315 316
457 458
536 535
424 425
238 239
535 534
102 103
9 8
119 118
62 63
272 273
53 52
16 17
497 498
566 567
340 341
405 406
428 429
275 274
202 203
414 413
563 562
328 327
437 436
351 350
220 219
556 555
184 185
112 113
473 474
325 326
185 186
9 10
131 132
181 182
292 293
440 441
427 426
169 170
117 118
130 131
491 492
481 480
197 198
358 357
111 112
507 506
267 266
179 180
254 253
282 281
107 108
477 476
78 79
419 418
404 405
517 516
389 390
32 33
256 255
372 373
397 396
347 348
364 365
520 519
174 175
208 207
375 374
31 32
205 204
289 290
276 277
26 25
531 530
454 455
150 151
142 143
225 224
461 462
437 438
385 386
304 303
80 79
483 484
417 418
85 86
10 11
60 59
376 377
39 38
142 141
49 50
283 282
354 353
560 559
236 235
433 432
272 271
443 442
72 71
7 8
494 495
503 502
291 290
325 324
552 553
195 194
295 296
457 456
192 191
521 522
87 86
323 324
532 533
287 286
490 491
468 467
163 164
304 305
209 210
58 59
41 40
139 138
250 249
206 207
16 15
357 356
463 462
370 369
430 429
478 479
390 391
450 451
305 306
536 537
161 162
453 452
157 156
248 247
124 123
91 92
552 551
321 320
178 177
223 224
125 126
365 366
67 66
129 128
126 127
168 167
559 558
264 265
134 133
149 150
231 232
163 162
243 244
307 308
227 228
447 448
339 340
481 482
335 336
394 393
310 311
149 148
281 280
313 312
341 342
508 507
22 23
127 128
306 307
333 334
385 384
294 293
64 63
318 317
423 424
454 453
69 68
539 540
538 539
218 217
75 76
330 331
299 298
254 255
504 505
100 99
337 338
452 451
520 521
430 431
184 183
459 460
188 187
196 197
349 348
463 464
505 506
278 277
339 338
219 218
422 423
110 109
75 74
434 435
561 560
485 484
311 312
158 159
465 464
543 542
251 252
246 247
104 105
547 546
6 5
242 241
211 210
11 12
509 510
47 46
550 551
545 544
387 388
368 369
14 13
3 4
155 156
441 442
4 5
301 302
266 265
381 382
449 450
368 367
542 541
376 375
402 401
258 259
288 289
213 212
40 39
292 291
540 541
480 479
144 145
555 554
504 503
393 392
443 444
44 45
374 373
106 107
42 41
56 57
317 316
334 335
444 445
88 89
55 56
466 467
350 349
90 89
140 141
314 313
361 360
358 359
97 98
331 332
136 135
187 186
144 143
329 330
488 487
544 543
200 201
101 100
129 130
516 515
103 104
61 62
513 514
432 431
190 189
566 297 1
248 247
50 51
16 17
169 170
81 82
181 180
186 185
232 233
3 4
216 217
314 315
53 52
48 49
14 15
437 438
513 514
55 56
286 287
525 524
7 6
34 35
565 564
252 253
326 325
558 559
552 551
76 77
243 242
531 532
213 214
293 292
516 517
340 339
363 362
326 327
164 163
266 267
493 492
498 499
136 135
355 356
316 317
330 331
124 125
426 427
472 471
419 418
263 264
524 523
409 408
272 271
385 386
106 107
546 547
541 540
486 485
122 121
299 298
352 353
255 254
66 65
432 433
456 455
168 167
98 97
150 149
155 156
83 84
289 288
258 257
464 463
303 302
293 294
390 389
165 164
2 3
100 99
445 444
542 543
341 342
33 32
350 351
221 222
1 2
428 429
562 561
58 57
427 428
120 119
507 506
290 291
381 380
245 244
145 144
486 487
479 478
550 549
259 258
18 17
297 298
324 323
251 250
446 447
443 444
199 198
278 277
25 24
152 151
11 12
405 404
242 241
388 389
456 457
195 194
60 61
273 272
465 464
267 268
534 533
369 370
518 519
334 333
44 45
435 436
102 103
149 148
421 420
107 566
482 483
15 16
143 142
438 439
131 130
315 316
11 10
412 411
42 43
471 470
474 473
422 423
398 399
305 306
551 550
40 39
114 115
390 391
41 40
442 441
514 515
283 284
537 538
116 117
88 89
467 466
185 184
497 496
230 229
556 557
454 453
458 457
440 441
502 501
115 116
283 282
439 440
148 147
432 431
449 448
413 414
276 275
183 182
548 547
132 133
5 6
140 141
523 522
96 95
361 360
232 231
320 321
219 220
459 460
505 506
216 215
500 499
334 335
356 357
139 138
252 251
318 319
31 30
548 549
276 277
12 13
373 372
127 128
510 511
112 111
401 402
138 137
184 183
28 29
89 90
64 63
22 21
161 160
466 465
425 424
126 127
68 67
521 522
155 154
104 103
359 358
429 430
309 308
215 214
173 172
262 263
241 240
110 111
336 337
205 206
518 517
415 414
200 201
265 264
165 166
224 223
557 558
422 421
142 141
193 194
536 535
265 266
560 561
41 42
566 565
270 271
167 166
329 330
61 62
485 484
460 461
126 125
303 304
146 145
9 10
212 213
191 190
371 372
409 410
43 44
365 366
520 519
434 435
121 120
178 179
366 367
196 195
495 494
104 105
109 110
76 75
346 347
496 495
468 467
375 376
78 79
369 368
319 320
318 317
153 152
402 403
14 13
225 226
392 391
477 476
381 382
394 395
509 508
527 528
399 400
87 88
68 69
144 143
129 128
497 498
350 349
255 256
484 483
384 385
236 237
102 101
226 227
181 182
94 93
220 221
79 80
96 97
400 401
65 64
74 73
280 279
468 469
398 397
284 285
186 187
329 328
179 180
504 505
123 124
282 281
47 48
235 236
270 269
87 86
199 200
425 426
208 209
300 301
55 54
197 196
197 198
7 8
9 8
455 454
286 285
228 227
93 92
108 107
118 119
278 279
516 515
374 373
81 80
224 225
256 257
201 202
19 18
36 37
187 188
339 338
131 132
189 190
71 72
349 348
430 431
222 223
487 488
78 77
69 70
209 210
545 544
36 35
203 202
229 228
408 407
528 529
45 46
313 312
459 458
92 91
82 83
192 193
417 418
108 109
151 150
174 173
158 159
230 231
388 387
481 480
191 192
58 59
162 163
249 248
24 23
243 244
177 176
59 60
375 374
355 354
530 531
503 504
288 287
136 137
260 261
469 470
234 235
405 406
260 259
453 452
386 387
253 254
545 546
86 85
377 376
310 309
450 449
556 555
307 306
172 171
563 564
535 534
50 49
139 140
411 410
344 345
157 156
367 368
416 417
380 379
247 246
331 332
98 99
304 305
246 245
345 346
188 189
84 85
118 117
416 415
538 539
563 562
207 208
532 533
489 490
324 325
365 364
541 542
130 129
147 146
175 176
302 301
178 177
274 275
383 384
233 234
296 295
54 53
343 344
73 72
433 434
28 27
512 511
204 203
361 362
75 74
501 500
25 26
297 296
472 473
218 217
393 394
162 161
359 360
291 292
407 406
502 503
540 539
395 396
30 29
352 351
289 290
23 22
354 353
553 552
474 475
419 420
536 537
134 133
446 445
39 38
404 403
239 238
392 393
27 26
507 508
525 526
66 67
448 447
396 397
95 94
554 553
340 341
510 509
529 530
134 135
47 46
205 204
342 343
31 32
38 37
273 274
520 521
157 158
478 477
312 311
168 169
451 450
261 262
57 56
336 335
113 114
554 555
489 488
249 250
364 363
307 308
105 106
491 492
20 21
494 493
382 383
358 357
423 424
175 174
475 476
295 294
52 51
154 153
322 321
112 113
462 463
513 512
211 212
219 218
62 63
347 348
269 268
462 461
160 159
333 332
328 327
337 338
281 280
299 300
314 313
101 100
544 543
559 560
311 310
527 526
452 451
490 491
379 378
437 436
371 370
413 412
5 4
210 211
240 239
443 442
34 33
481 482
238 237
20 19
323 322
206 207
70 71
377 378
479 480
171 170
123 122
91 90
501 433 214
24 25
31 30
365 364
14 13
342 341
304 305
307 308
277 276
308 309
93 92
51 50
298 297
480 481
454 453
279 280
460 461
188 187
71 70
285 284
368 367
116 115
436 435
248 247
13 12
495 496
76 77
364 363
163 162
313 314
11 12
339 338
204 205
137 136
300 299
217 216
437 436
428 427
47 46
8 7
67 66
476 475
152 151
322 323
90 89
40 41
449 450
472 471
312 311
464 465
494 495
52 53
337 338
452 451
153 152
459 458
267 268
78 79
205 206
476 477
142 141
449 448
232 231
57 58
434 435
297 296
321 322
15 14
320 319
26 27
465 466
310 309
68 67
215 214
392 391
377 378
486 487
198 197
461 462
175 176
218 217
110 109
32 33
192 193
250 251
139 140
108 107
17 16
417 416
95 96
301 302
396 395
485 486
358 357
160 161
63 62
241 242
298 299
174 175
490 489
489 488
1 2
284 283
458 457
230 229
35 36
201 200
407 408
189 188
69 68
143 144
113 112
419 418
141 140
156 155
8 9
303 302
366 365
316 315
492 493
260 261
65 64
149 148
210 209
369 370
42 43
340 339
178 179
220 219
91 92
48 47
445 444
482 481
94 95
273 274
272 273
343 344
287 286
234 235
157 158
139 138
257 256
353 354
168 169
132 131
50 49
137 138
328 329
198 199
147 146
86 87
331 332
266 267
253 252
119 118
385 384
286 285
114 113
18 19
448 447
360 361
183 182
406 405
180 179
414 415
319 318
109 108
484 483
28 29
77 78
420 419
359 358
241 240
121 122
202 203
455 456
318 317
62 61
186 187
386 387
29 30
16 15
244 245
185 184
248 249
479 478
6 5
383 382
208 207
96 97
490 491
55 54
123 124
169 170
467 466
211 212
120 121
324 325
401 402
311 310
380 381
4 5
36 37
348 347
433 432
135 136
105 104
177 178
115 114
118 117
399 398
231 230
176 177
171 172
195 194
99 100
442 441
254 255
258 257
408 409
106 105
424 423
88 87
399 400
20 19
155 154
170 171
464 463
270 271
375 376
335 334
355 356
88 89
287 288
405 404
235 236
133 134
111 110
497 496
274 275
127 128
265 264
474 475
79 80
456 457
430 429
97 98
151 150
350 349
165 166
120 119
203 204
407 406
2 3
387 388
345 344
386 385
276 275
260 259
167 166
366 367
232 233
438 437
345 346
269 268
360 359
172 173
333 334
341 340
64 63
180 181
394 393
227 226
431 430
228 227
222 223
389 390
23 24
44 45
57 56
229 228
324 323
442 443
216 215
73 74
389 388
224 223
335 336
38 39
83 82
443 444
328 327
116 117
291 292
415 416
266 265
18 17
233 234
450 451
440 441
72 71
292 293
240 239
325 326
146 145
125 126
362 363
83 84
69 70
343 342
160 159
500 499
501 500
190 189
237 236
373 372
401 400
90 91
82 81
431 432
202 201
173 174
413 414
246 245
21 22
225 224
129 130
428 429
41 42
289 290
269 270
463 462
355 354
410 411
439 438
256 255
99 98
259 258
403 404
218 219
320 321
253 254
469 470
129 128
439 440
353 352
271 272
31 32
424 425
94 93
214 213
125 124
501 65
239 238
264 263
184 183
433 434
34 33
300 301
220 221
9 10
498 497
445 446
409 410
403 402
468 469
491 492
135 134
277 278
288 289
45 46
446 447
84 85
426 427
165 164
186 185
474 473
262 263
306 305
294 293
142 143
154 153
330 331
181 182
213 212
468 467
351 352
58 59
420 421
316 317
250 249
357 356
391 390
126 127
52 51
237 238
396 397
53 54
75 76
23 22
452 453
413 412
101 100
4 3
336 337
382 381
7 6
200 199
398 397
393 392
190 191
208 209
487 488
349 348
168 167
330 329
72 73
303 304
20 21
417 418
243 244
48 49
460 459
206 207
485 484
280 281
306 307
107 106
483 482
262 261
379 378
75 74
471 470
34 35
222 221
102 103
192 191
362 361
380 379
196 197
290 291
327 326
315 314
333 332
211 210
27 28
111 112
37 38
242 243
422 421
493 494
144 145
296 295
195 196
477 478
56 55
81 80
279 278
39 40
371 372
369 368
65 66
374 373
426 425
313 312
159 158
147 148
347 346
132 133
26 25
283 282
351 350
377 376
251 252
85 86
163 164
423 422
247 246
294 295
101 102
412 411
226 225
150 149
472 473
10 11
156 157
131 130
374 375
371 370
103 104
193 194
480 479
455 454
43 44
384 383
60 61
59 60
282 281
122 123
161 162
394 395
498 499
648 257 1
5 6
103 102
615 614
242 243
107 106
540 541
412 411
364 363
50 51
142 141
163 164
222 223
405 404
44 43
599 600
52 53
109 108
529 528
545 546
616 615
613 612
380 379
172 171
591 590
152 151
460 461
83 82
619 620
270 269
526 527
53 54
603 602
118 117
246 245
327 328
132 131
459 458
413 412
8 7
617 616
62 61
594 595
147 148
220 221
385 386
285 286
555 556
415 414
564 563
31 32
177 176
325 324
323 324
439 438
385 384
486 485
610 609
259 260
587 586
168 167
300 301
587 588
440 439
543 544
112 111
453 452
340 341
560 561
514 513
583 584
503 502
487 486
22 21
204 205
483 482
280 279
628 629
548 547
403 402
203 204
436 435
490 489
607 606
2 3
337 338
42 41
477 476
334 335
120 119
356 355
313 314
311 312
298 299
104 105
124 123
457 458
280 281
440 441
30 31
509 508
643 642
222 221
445 446
189 190
637 636
577 576
582 583
614 613
401 400
502 501
197 196
311 310
33 32
252 251
202 203
38 37
313 312
195 196
586 585
593 594
567 566
529 530
264 265
103 104
357 358
126 127
328 329
118 119
137 138
140 139
96 97
255 256
640 641
154 155
63 62
390 391
618 617
148 149
257 256
418 419
513 512
39 38
459 460
69 70
67 68
501 500
569 568
436 437
628 627
93 94
644 643
23 22
498 499
404 403
251 250
380 381
120 121
173 174
371 372
409 408
79 78
125 124
345 344
214 215
128 127
279 278
492 493
99 100
541 542
201 202
142 143
295 296
99 98
147 146
363 362
111 110
519 518
42 43
454 455
281 282
365 364
257 258
569 570
414 413
293 292
243 244
470 471
511 512
580 579
601 602
15 14
396 397
97 98
346 347
407 406
77 78
454 453
644 645
375 376
217 218
236 235
581 582
372 373
360 359
411 410
515 514
605 606
291 290
407 408
507 506
539 538
128 129
474 473
350 349
34 35
185 186
95 96
237 238
593 592
304 303
366 367
544 545
592 591
242 241
361 362
192 191
383 382
326 325
480 479
163 162
621 622
600 601
479 478
346 345
497 496
8 9
532 531
621 620
219 220
450 449
417 418
572 571
630 629
429 428
360 361
401 402
420 421
598 597
558 559
647 646
298 297
283 282
493 494
108 107
323 322
336 337
438 437
560 559
261 262
388 389
370 369
263 262
477 478
152 153
326 327
599 598
640 639
498 497
510 511
314 315
193 192
299 300
76 75
369 368
102 101
379 378
134 133
355 354
531 530
384 383
306 305
50 49
342 341
447 446
23 24
13 12
172 173
72 71
25 26
206 207
206 205
623 622
518 517
267 266
352 351
116 117
182 183
447 448
546 547
169 170
149 150
306 307
155 156
630 631
158 159
253 252
632 631
131 130
5 4
484 485
610 611
626 627
495 494
471 472
392 391
555 554
596 597
25 24
333 332
289 288
507 508
309 308
568 567
77 76
60 61
41 40
387 388
304 305
635 636
595 596
505 506
427 428
588 589
129 130
316 315
227 226
126 125
357 356
339 340
113 114
584 585
374 375
287 286
74 73
110 109
86 85
6 7
474 475
93 92
465 466
399 400
505 504
619 618
565 564
158 157
473 472
296 297
648 647
558 557
322 321
491 490
333 334
635 634
253 254
539 540
425 426
463 462
422 421
91 92
374 373
534 533
134 135
208 209
33 34
443 442
554 553
200 201
11 10
387 386
59 58
166 165
503 504
30 29
116 115
135 136
336 335
528 527
55 56
82 81
208 207
317 318
178 177
90 91
249 250
275 274
240 241
638 639
605 604
516 517
465 464
233 232
87 86
239 238
308 307
36 37
246 247
482 481
63 64
266 265
164 165
456 457
283 284
448 449
537 538
239 240
420 419
444 443
288 287
272 271
16 17
525 524
381 382
579 578
603 604
151 150
249 248
69 68
144 143
302 303
347 348
290 289
72 73
274 273
468 467
267 268
427 426
153 154
27 26
366 365
611 612
230 229
212 213
17 18
259 258
160 161
551 552
230 231
393 394
432 433
64 65
358 359
211 212
499 500
310 309
224 223
225 226
397 398
551 550
534 535
188 189
293 294
645 646
277 278
562 561
608 609
370 371
273 272
237 236
169 168
285 284
393 392
429 430
445 444
641 642
15 16
71 70
45 44
40 39
319 318
88 87
132 133
141 140
452 451
66 67
264 263
625 624
537 536
638 637
476 475
626 625
234 233
565 566
434 435
577 578
342 343
144 145
466 467
176 175
195 194
441 442
231 232
210 211
317 316
181 180
101 100
350 351
302 301
321 320
159 160
234 235
178 179
431 430
552 553
573 572
112 113
190 191
13 14
332 331
570 571
496 495
161 162
27 28
199 200
520 521
533 532
563 562
416 417
244 245
576 575
481 480
35 36
550 549
210 209
199 198
294 295
79 80
85 84
66 65
535 536
57 58
48 47
193 194
549 548
217 216
409 410
55 54
28 29
431 432
157 156
520 519
277 276
46 45
354 353
590 589
260 261
470 469
229 228
21 20
422 423
121 122
434 433
405 406
378 377
492 491
19 18
575 574
348 349
462 461
83 84
425 424
214 213
573 574
197 198
136 137
19 20
367 368
227 228
329 330
450 451
123 122
188 187
170 171
516 515
216 215
320 319
255 254
343 344
399 398
276 648
292 291
75 74
423 424
395 394
488 487
218 219
331 330
183 184
60 59
51 52
543 542
175 174
105 106
624 623
184 185
115 114
608 607
9 10
524 523
269 268
484 483
182 181
632 633
145 146
48 49
80 81
179 180
390 389
46 47
580 581
353 352
416 415
521 522
166 167
634 633
90 89
463 464
4 3
468 469
338 339
489 488
395 396
525 526
456 455
510 509
94 95
138 139
57 56
247 248
270 271
89 88
224 225
1 2
523 522
376 377
187 186
11 12
557 556
276 275
614 137 461
530 529
163 162
527 526
523 522
441 440
450 451
91 92
28 27
438 439
571 570
381 380
519 518
296 297
242 241
568 569
388 389
472 471
345 346
55 56
539 538
229 230
225 224
606 605
338 339
83 84
588 587
35 36
139 138
117 118
345 344
187 188
434 433
489 488
137 136
175 174
582 581
588 589
539 540
153 152
267 268
82 83
408 407
493 494
438 437
236 235
178 179
330 331
98 97
236 237
594 593
171 170
16 17
460 459
141 140
376 377
326 327
604 605
167 166
524 523
266 265
557 556
201 200
548 547
244 245
390 391
551 550
211 212
110 111
208 209
462 461
406 407
31 32
478 479
75 74
536 537
388 387
187 186
130 131
8 9
37 36
475 476
150 151
613 612
489 490
282 283
379 378
456 455
42 43
400 401
321 322
50 51
226 225
144 145
488 487
321 320
477 476
326 325
470 469
218 217
475 474
168 167
195 196
357 356
134 133
171 172
114 115
319 318
585 586
445 444
22 21
46 47
175 176
10 9
329 330
107 106
78 79
565 566
220 221
183 182
11 10
395 394
430 429
514 515
138 137
213 214
463 462
248 247
106 105
295 296
464 463
481 480
415 414
55 54
143 144
577 578
449 450
45 44
257 256
299 300
363 362
550 549
253 252
493 492
506 507
68 67
194 193
104 103
254 255
495 494
404 403
436 435
306 305
497 498
292 291
400 399
256 255
609 608
52 53
593 592
52 51
467 468
349 348
416 415
284 283
422 421
368 369
546 545
560 561
160 159
497 496
307 308
329 328
2 3
186 185
60 61
306 307
600 599
603 604
191 192
238 239
179 180
567 568
365 364
95 94
126 127
79 80
558 559
242 243
13 14
314 315
495 496
465 466
77 78
26 25
521 520
574 573
431 430
408 409
591 590
547 546
203 202
520 519
121 122
534 533
560 559
259 260
448 449
223 224
536 535
509 510
116 117
470 471
199 198
351 350
221 222
554 553
361 362
541 540
75 76
234 233
309 310
485 484
288 287
452 453
156 157
34 35
290 291
262 261
528 527
591 592
62 63
504 503
192 193
173 172
611 612
183 184
232 231
240 241
146 147
143 142
614 613
102 101
206 207
584 585
431 432
392 393
287 286
595 596
516 517
535 534
552 551
385 386
272 273
392 391
312 311
383 384
303 304
446 447
202 201
120 119
157 158
425 424
196 197
562 563
402 403
204 205
513 514
300 301
343 344
2 1
210 211
3 4
564 563
174 173
219 220
271 272
370 369
405 404
195 194
303 302
454 455
401 402
598 599
164 163
292 293
29 28
155 156
413 414
481 482
473 474
264 263
105 104
502 503
343 342
68 69
466 467
441 442
258 259
529 528
399 398
602 601
251 250
227 228
85 84
223 222
554 555
45 46
53 54
562 561
295 294
6 5
31 30
226 227
114 113
23 24
429 428
23 22
576 575
385 384
336 337
532 533
452 451
396 397
472 473
29 30
135 136
263 262
13 12
428 427
609 610
448 447
335 334
376 375
574 575
367 366
590 589
490 491
125 124
396 395
49 48
130 129
426 425
602 603
500 499
478 477
335 336
280 281
367 368
380 379
543 542
18 19
278 277
20 21
458 459
93 94
285 286
584 583
340 339
15 14
216 217
375 374
65 64
86 87
128 129
249 248
332 333
324 323
538 537
44 43
346 347
280 279
33 32
200 199
65 66
145 146
358 357
572 573
57 58
58 59
361 360
147 148
531 530
123 122
544 543
317 316
610 611
298 297
498 499
96 95
107 108
269 270
121 120
549 548
576 577
237 238
386 387
365 366
140 139
289 290
18 17
332 331
420 421
39 40
274 275
440 439
76 77
352 353
322 323
203 204
12 11
358 359
337 338
378 377
190 189
510 511
266 267
350 349
427 426
264 265
525 526
232 233
570 569
601 600
435 434
353 354
112 113
460 461
544 545
504 505
62 61
288 289
531 532
417 418
305 304
89 88
579 580
394 393
501 502
90 89
210 209
372 371
154 155
70 69
80 81
293 294
411 410
116 115
583 582
512 511
398 397
508 509
207 208
88 87
556 555
308 309
486 485
273 274
333 334
250 249
299 298
92 93
100 99
180 181
310 311
320 319
188 189
169 170
464 465
352 351
411 412
409 410
72 71
507 508
524 525
373 372
154 153
354 355
315 316
501 500
437 436
96 97
246 245
327 328
176 177
109 110
491 492
132 133
148 149
596 597
606 607
594 595
614 307
212 213
166 165
26 27
418 419
277 276
356 355
433 432
270 271
253 254
59 60
457 458
169 168
423 424
370 371
161 160
281 282
49 50
33 34
229 228
389 390
135 134
521 522
16 15
578 579
341 340
181 182
216 215
443 442
313 314
85 86
73 74
483 482
302 301
244 243
512 513
363 364
131 132
91 90
284 285
66 67
218 219
103 102
162 161
41 40
234 235
581 580
125 126
417 416
586 587
258 257
483 484
24 25
558 557
108 109
412 413
118 119
446 445
124 123
312 313
73 72
7 8
487 486
517 518
572 571
360 359
99 98
420 419
197 198
444 443
159 158
382 383
165 164
275 276
453 454
5 4
41 42
566 567
251 252
101 100
64 63
81 82
149 150
456 457
112 111
348 347
71 70
260 261
205 206
7 6
231 230
39 38
178 177
185 184
19 20
191 190
468 469
553 552
382 381
341 342
269 268
239 240
565 564
405 406
608 607
374 373
506 505
597 598
38 37
317 318
246 247
215 214
325 324
515 516
57 56
152 151
278 279
423 422
128 127
480 479
142 141
541 542
47 48
404 297 1
151 150
4 3
299 298
246 247
240 239
71 70
106 107
373 372
364 363
367 368
278 279
346 345
371 372
275 274
358 359
8 9
309 308
264 265
12 13
139 140
104 105
180 179
220 221
5 4
121 120
68 69
159 158
382 381
217 216
193 194
332 331
248 249
386 387
188 189
381 380
137 138
383 384
302 303
349 350
392 393
23 24
123 122
129 128
272 271
265 266
226 227
53 54
21 22
200 201
314 313
276 275
310 309
178 179
199 200
245 246
142 143
174 173
225 224
87 88
340 341
262 261
357 358
36 35
56 57
204 203
26 27
353 354
196 195
130 129
301 302
365 366
376 377
119 118
249 250
234 233
181 182
211 212
178 177
232 233
291 290
156 157
379 380
113 114
398 397
240 241
354 355
96 97
153 152
18 17
34 33
61 62
84 85
286 285
374 375
38 37
363 362
207 208
335 336
59 60
172 171
342 341
260 261
258 257
148 147
234 235
350 351
254 253
40 39
184 183
102 103
100 101
222 223
185 184
370 369
292 291
80 79
250 251
39 38
360 359
312 311
106 105
258 259
343 344
187 186
300 299
82 83
115 114
173 172
85 86
148 149
67 68
110 109
127 128
167 166
294 293
182 183
161 162
117 116
31 30
40 41
86 87
20 21
287 286
207 206
342 343
226 225
243 244
169 168
230 231
45 46
328 327
317 318
99 100
356 357
132 133
330 329
345 344
14 13
232 231
213 214
216 215
244 245
119 120
187 188
155 154
255 256
360 361
142 141
278 277
289 290
57 58
58 59
399 400
167 168
111 112
51 52
296 295
326 327
16 17
124 125
391 392
31 32
170 169
10 11
63 62
317 316
227 228
201 202
218 217
44 45
78 77
115 116
112 113
159 160
127 126
164 163
163 162
78 79
152 151
180 181
135 136
15 16
254 255
369 368
316 315
270 271
283 282
383 382
247 248
81 82
328 329
294 295
191 192
267 266
280 281
174 175
6 7
305 306
18 19
81 80
138 139
91 92
2 3
195 194
96 95
241 242
311 310
190 191
37 36
186 185
338 337
356 355
125 126
364 365
75 74
371 370
160 161
206 205
403 402
268 267
110 111
150 149
196 197
137 136
270 269
322 323
396 397
251 252
49 50
42 41
394 393
11 12
63 64
346 347
158 157
222 221
95 94
318 319
121 122
10 9
272 273
76 77
19 20
25 24
314 315
280 279
208 209
353 352
362 361
366 367
176 177
193 192
198 199
377 378
242 243
323 324
6 5
335 334
166 165
274 273
32 33
238 239
287 288
34 35
65 64
402 401
134 135
320 321
263 262
42 43
47 46
165 164
52 53
103 104
60 61
338 339
308 307
277 276
304 305
268 269
1 2
325 324
264 263
92 93
283 284
47 48
214 215
65 66
379 378
190 189
219 218
108 107
348 349
347 348
237 238
131 132
296 297
396 395
394 395
205 204
49 48
89 88
384 385
91 90
197 198
124 123
298 297
145 146
285 284
386 385
210 211
281 282
304 303
14 15
98 99
301 300
72 71
398 399
229 230
134 133
109 108
50 51
336 337
98 97
22 23
55 54
388 389
146 147
73 74
93 94
289 288
131 130
219 220
339 340
84 83
8 7
351 352
76 75
374 373
391 390
144 145
313 312
55 56
236 235
333 334
229 228
331 330
154 153
156 155
333 332
25 26
400 401
223 224
143 144
70 69
257 256
390 389
252 253
212 213
259 260
73 72
30 29
292 293
28 27
176 175
376 375
210 209
307 306
321 322
387 388
202 203
404 403
28 29
171 170
141 140
404 92
44 43
90 89
117 118
236 237
67 66
325 326
102 101
320 319
