18
65 19 7
23 3
50 22
9 1
6 41
11 17
35 63
8 64
56 36
13 15
7 10
22 40
39 36
7 8
61 19
8 2
4 12
60 58
65 47
44 13
33 7
51 53
14 16
30 7
18 32
19 16
51 41
22 24
55 3
9 20
33 38
42 40
3 17
48 36
12 5
10 14
59 8
4 28
32 35
58 20
36 46
6 11
34 4
3 21
33 49
15 5
27 6
18 9
6 26
36 28
16 62
2 18
47 33
45 15
57 22
34 37
4 3
25 18
29 11
19 6
52 39
1 13
25 43
1 22
7 31
28 54
120 2 6
98 93
28 11
41 34
33 14
39 93
18 73
60 32
23 48
6 4
104 13
35 49
21 22
7 1
74 57
27 19
15 25
48 96
77 4
118 46
78 11
83 77
120 85
71 14
107 91
13 19
13 7
12 2
75 51
110 105
70 39
108 53
21 17
21 38
13 45
35 66
80 60
91 11
85 56
9 10
81 62
27 64
102 65
62 4
4 11
58 12
58 109
9 14
87 111
9 36
40 11
5 11
107 116
46 82
72 71
28 119
8 32
25 44
23 106
61 2
63 101
15 26
7 39
113 67
24 79
57 17
87 3
12 8
105 75
3 8
103 53
95 23
94 80
10 1
69 90
1 16
15 14
51 54
69 42
17 23
10 65
68 36
42 33
81 97
33 47
39 55
34 16
56 1
10 35
25 63
81 99
6 7
50 89
115 83
37 5
2 5
46 36
76 34
9 3
84 39
6 29
17 4
52 22
23 51
67 23
15 18
16 24
43 20
56 114
19 92
17 50
112 70
20 5
30 17
86 74
53 17
51 100
56 117
23 31
15 88
36 59
81 8 10
2 10
21 27
21 35
16 9
18 7
8 5
9 33
5 71
3 6
23 19
12 55
70 54
79 12
74 27
2 24
28 5
18 39
46 14
14 7
41 14
73 13
69 32
24 81
34 8
40 15
17 52
18 19
13 37
58 18
61 44
64 11
20 14
2 38
43 30
29 15
37 44
19 25
9 5
19 76
39 72
65 31
33 57
47 32
9 6
1 36
53 14
75 3
18 32
17 5
31 11
7 77
15 13
45 48
45 21
17 50
17 51
49 41
42 2
6 11
55 63
50 80
68 20
3 10
1 8
66 7
19 26
19 56
30 21
62 10
54 4
31 59
18 78
12 5
42 67
13 12
22 16
2 21
1 4
60 58
2 7
4 7
61 18 14
26 14
17 19
44 1
60 32
25 41
13 7
23 1
59 26
39 13
15 19
20 3
26 40
18 6
56 20
8 52
17 12
36 48
45 8
12 2
14 11
1 32
36 17
30 18
21 18
42 34
53 32
5 3
1 14
9 25
9 57
38 23
49 20
50 19
34 22
24 29
25 27
46 37
47 28
31 24
10 43
55 50
4 16
22 12
6 15
36 58
54 31
10 1
33 3
24 16
18 7
35 14
9 13
60 61
2 28
9 10
37 4
8 3
2 4
11 8
17 51
5 16
81 15 3
62 46
48 36
2 9
7 21
55 42
29 15
6 38
19 18
15 3
27 18
8 42
12 15
5 40
10 5
52 49
51 53
13 23
32 58
11 8
71 21
24 4
5 36
27 73
40 80
23 32
79 22
51 70
14 4
51 60
57 28
30 17
22 19
24 81
3 20
3 76
16 39
6 3
1 14
50 34
11 72
17 16
51 56
7 4
5 45
67 37
74 65
21 37
35 2
13 16
21 28
34 11
2 33
7 13
5 12
61 45
49 23
6 78
8 18
26 63
43 39
19 31
32 44
2 6
59 42
54 43
12 66
9 11
26 65
51 7
63 69
8 1
16 10
25 47
41 29
77 29
10 68
75 44
53 64
26 13
46 5
25 23
61 13 7
17 52
4 61
29 34
25 54
41 20
42 51
38 55
44 43
50 28
14 2
14 19
25 57
21 10
24 29
48 53
30 27
23 20
31 39
1 3
19 49
7 13
5 8
12 15
8 12
7 25
6 10
35 29
40 27
27 14
51 56
10 47
33 19
24 28
38 45
48 21
13 4
6 16
48 58
2 32
6 42
31 30
16 17
12 22
13 26
37 29
6 15
37 38
1 9
4 11
15 36
40 59
39 60
2 5
14 11
42 43
9 7
15 20
46 11
3 18
10 3
24 21
84 10 16
3 31
67 61
35 4
13 10
1 25
14 17
15 2
24 30
8 38
24 50
12 5
26 57
73 68
5 45
15 39
61 56
22 27
24 10
2 22
12 71
25 48
35 81
16 65
59 54
78 43
3 6
8 5
37 17
68 39
77 22
47 20
12 83
46 42
54 17
17 4
19 8
43 58
42 7
17 26
6 1
34 49
30 32
30 76
51 29
11 7
17 20
11 16
7 66
8 15
74 28
54 82
14 3
72 2
10 12
28 19
43 2
13 16
6 79
16 18
75 72
70 29
2 23
29 36
80 29
29 44
15 41
33 23
55 39
2 9
7 4
52 28
84 28
53 42
62 25
1 9
27 60
34 9
63 23
64 7
21 10
56 40
37 40
29 24
21 69
89 13 12
17 65
18 80
84 67
51 38
77 53
28 20
34 26
74 89
67 68
1 6
56 1
36 85
67 82
24 1
56 79
17 16
9 16
28 40
13 83
6 30
29 2
7 23
55 76
46 1
14 10
33 17
59 22
44 64
7 14
15 9
61 54
71 69
17 55
6 53
4 2
27 37
19 43
27 44
35 49
39 15
62 59
81 38
13 5
8 15
48 29
11 6
12 58
24 26
70 23
3 4
7 5
25 14
21 10
36 54
45 8
3 47
50 11
87 77
12 11
8 86
75 63
62 74
3 12
19 11
27 2
13 8
21 88
38 57
60 3
2 17
38 25
41 37
5 31
36 15
14 73
18 5
60 63
10 1
67 49
20 1
16 22
24 52
34 78
6 35
72 65
42 14
17 66
62 69
13 32
116 9 16
32 46
111 98
71 61
3 12
4 21
40 18
14 2
47 11
16 19
73 61
115 74
18 9
16 24
92 22
72 104
18 54
80 56
16 91
14 20
78 95
75 61
103 106
107 47
14 3
34 45
12 17
69 54
88 13
90 35
14 26
58 66
16 60
61 42
3 36
1 11
98 78
10 55
4 78
20 23
70 6
66 86
6 65
116 89
48 43
13 4
16 27
76 35
6 19
83 102
15 8
8 7
4 6
93 8
51 79
14 44
49 42
114 36
41 9
77 15
24 51
37 22
103 33
45 105
110 66
52 49
87 74
62 58
85 76
68 64
2 5
10 1
27 59
32 6
52 96
81 53
94 7
7 31
51 83
7 17
49 50
43 24
43 72
13 5
17 22
34 9
42 5
100 23
113 48
42 84
11 29
16 74
44 58
10 9
8 33
56 20
30 1
28 22
39 34
37 67
6 25
108 24
16 18
69 97
64 4
15 11
45 53
34 99
85 89
39 57
101 64
112 38
35 4
38 16
109 65
25 63
82 25
120 9 8
50 68
55 8
3 110
115 23
29 47
9 5
30 10
38 52
85 53
59 43
73 27
67 61
24 22
4 15
70 2
114 80
14 31
71 3
112 9
6 54
39 4
3 18
84 19
77 65
95 63
95 98
68 113
75 11
44 78
105 28
37 4
45 33
2 7
41 107
7 103
14 35
6 10
7 44
102 27
92 57
2 12
87 94
31 64
120 17
29 6
20 36
13 42
12 56
4 33
65 76
12 14
22 34
81 4
100 26
16 48
11 3
74 21
101 51
28 27
58 89
8 58
118 7
93 108
26 15
62 4
57 39
50 18
1 20
40 10
80 11
72 97
42 53
90 45
43 14
31 83
25 82
7 61
66 109
23 10
49 79
106 30
13 14
38 23
56 63
117 8
10 5
22 21
100 119
65 17
13 15
66 60
7 8
48 86
104 61
8 93
6 27
21 16
1 9
116 62
88 99
11 4
5 19
1 8
5 17
88 24
86 87
69 66
111 45
2 16
31 51
60 23
96 80
3 6
41 17
68 72
23 32
24 91
47 49
44 46
25 13
97 12 8
12 41
18 3
71 63
13 53
51 78
17 14
54 50
1 30
44 61
14 56
19 79
34 72
76 84
8 6
31 38
20 1
10 5
46 23
53 75
49 45
3 11
76 21
24 47
24 22
66 89
87 49
28 26
5 14
43 52
16 25
7 40
8 15
19 10
74 35
54 65
21 10
8 90
64 5
85 11
2 11
34 7
7 3
33 8
12 91
86 53
7 12
81 33
20 29
82 12
59 94
5 44
37 9
2 9
17 63
93 76
5 1
17 26
28 31
70 77
66 30
30 58
88 36
59 35
43 13
35 6
95 58
68 4
25 39
48 27
6 96
41 80
36 19
42 26
6 22
16 15
14 27
83 50
13 51
32 7
60 28
8 12
13 6
67 69
70 21
4 9
10 4
45 55
80 97
62 53
57 9
15 67
3 45
79 92
6 23
13 1
50 43
16 73
66 10 3
16 65
2 7
20 43
4 11
1 7
16 46
20 54
24 34
17 53
3 22
52 40
27 61
3 29
18 6
27 37
41 51
13 16
25 1
30 19
9 66
56 54
33 31
4 44
11 14
21 28
3 6
57 34
32 7
23 9
32 64
21 13
15 4
8 10
50 37
14 24
40 17
3 15
5 59
45 34
10 12
16 9
35 22
12 5
62 15
6 9
60 24
40 41
2 20
16 19
27 12
20 42
14 1
36 27
40 58
10 31
26 22
48 46
11 17
55 6
39 23
5 2
8 13
63 51
20 49
27 47
27 38
113 13 17
34 105
74 47
9 12
13 33
75 106
18 1
9 28
59 18
79 74
11 32
4 83
73 11
36 37
18 5
46 72
46 71
66 8
61 8
63 59
45 67
19 112
55 37
90 10
27 24
14 1
2 76
17 41
11 6
94 2
65 42
50 51
28 44
40 35
73 81
9 5
53 27
5 57
36 31
42 52
25 107
26 22
48 64
46 101
19 4
18 85
9 35
34 78
33 86
13 48
26 89
2 17
82 104
24 17
5 100
8 11
91 57
4 7
10 17
54 5
70 30
8 16
62 69
13 12
50 25
69 97
42 9
61 111
7 62
38 27
29 43
7 13
22 7
20 25
48 82
97 99
6 2
79 102
19 23
81 103
84 55
58 13
45 40
83 110
109 92
88 22
7 30
87 42
16 15
7 96
20 56
19 10
15 3
27 29
11 20
6 21
50 75
113 92
68 44
77 2
45 47
49 29
14 3
40 80
93 13
31 14
39 8
46 26
92 69
14 34
19 60
74 95
33 108
71 98
75 1 9
57 56
10 16
26 7
21 28
20 18
23 14
13 29
7 2
31 10
24 49
51 32
41 3
46 71
9 68
17 5
64 52
20 33
30 37
25 5
69 1
54 61
24 16
22 1
8 15
18 16
44 30
65 54
47 12
18 12
12 2
9 73
13 21
34 70
8 3
67 11
2 40
17 1
43 2
16 32
7 6
14 19
39 22
4 13
46 31
10 27
2 35
36 23
38 52
14 15
31 60
47 59
48 24
10 9
58 54
2 75
55 46
19 11
69 74
10 42
53 13
56 9
2 38
3 4
9 11
17 66
48 50
72 63
62 24
25 54
63 32
24 34
12 45
30 9
6 1
5 13
119 14 7
48 51
61 44
27 38
50 87
17 11
92 9
80 74
67 81
27 85
110 54
20 86
23 73
20 10
10 42
72 41
53 90
2 7
93 111
88 64
99 47
30 6
113 46
102 17
51 89
83 29
23 11
119 103
6 14
65 6
16 15
80 115
1 25
2 3
42 108
28 46
4 8
100 67
15 8
74 60
70 49
4 117
1 29
94 118
49 33
5 44
7 4
96 42
12 84
50 76
85 101
97 20
37 4
44 60
32 12
6 10
104 13
13 58
6 55
9 12
57 68
19 57
2 50
77 53
95 67
75 82
5 9
35 11
1 106
16 34
21 1
45 34
43 20
64 78
12 105
98 61
20 24
11 8
17 59
79 50
26 24
55 71
46 47
75 93
30 63
14 5
66 12
107 82
14 54
48 46
14 94
1 13
27 15
22 31
17 67
103 56
19 3
21 40
109 14
116 113
1 41
28 20
36 32
18 16
62 58
1 10
22 18
55 64
25 53
57 69
75 42
13 3
52 4
25 39
28 56
24 91
66 114
12 11
112 2
10 33
111 17 10
27 34
5 42
58 60
24 19
49 11
48 37
89 63
29 1
101 78
99 52
26 5
35 92
22 19
30 32
60 69
31 84
17 30
80 67
15 27
12 4
45 5
14 1
18 65
52 79
106 26
2 73
66 50
53 44
7 15
31 5
48 100
67 26
86 65
17 10
78 36
68 50
18 88
59 25
25 28
47 20
52 64
6 17
41 13
2 16
10 8
51 110
111 8
16 50
43 109
22 70
9 57
2 43
15 1
14 5
55 35
62 18
81 66
108 88
25 11
103 55
13 18
51 17
58 77
28 38
11 20
61 29
11 19
76 98
82 65
11 52
76 49
72 64
71 90
15 83
102 2
63 49
2 74
71 9
91 85
85 81
39 7
105 32
27 46
94 85
107 68
37 26
13 3
23 93
19 4
104 67
9 7
45 96
87 44
14 35
33 9
12 18
56 17
9 23
9 8
44 26
34 40
16 54
58 11
60 75
3 2
14 36
11 6
95 60
8 21
16 5
50 97
111 7 5
8 7
31 65
43 38
81 59
20 53
16 20
16 73
99 28
52 69
76 35
94 107
6 54
37 61
9 6
83 14
34 12
71 25
21 17
90 100
87 90
61 94
38 39
14 22
19 12
41 1
12 35
52 47
48 82
104 81
2 14
47 8
38 78
30 31
55 97
93 109
102 90
50 55
32 15
50 28
75 46
59 88
101 20
37 68
11 7
66 14
33 110
87 80
12 2
98 43
38 44
17 3
103 13
84 40
5 15
9 79
85 10
37 80
77 70
4 1
96 26
56 29
46 58
46 45
92 31
70 68
3 26
37 42
24 105
23 57
16 23
29 5
28 15
44 51
48 111
24 6
28 86
74 108
26 93
19 33
13 12
1 45
59 11
40 32
106 79
91 10
9 8
27 9
2 6
24 63
49 22
10 3
60 13
15 25
3 11
67 20
95 56
1 89
24 64
30 28
7 16
74 66
2 48
52 62
2 4
72 23
37 1
18 12
1 5
31 36
10 5
27 38
97 14 7
2 10
34 13
50 87
22 16
6 12
50 8
5 1
15 12
65 90
42 6
53 86
7 12
31 17
93 63
53 13
23 12
85 47
23 56
57 1
71 32
49 64
18 84
4 17
4 16
38 19
3 18
8 3
15 68
9 52
4 66
81 88
91 14
49 37
81 44
19 54
61 43
12 70
40 28
94 50
5 7
33 59
58 35
21 27
30 60
10 24
46 30
43 27
25 29
2 48
37 69
11 79
30 19
32 19
74 24
78 61
72 38
8 10
9 96
21 7
34 62
6 25
58 76
58 82
4 9
4 37
35 34
36 6
16 28
44 30
1 9
13 4
13 11
25 51
83 89
47 40
41 29
3 14
15 19
3 97
63 31
12 45
33 9
6 2
14 11
79 95
92 56
67 33
20 18
73 22
65 39
71 77
48 55
56 75
77 83
23 26
39 5
19 80
