533
0 1 0 1 0 1 0 1 0 1 0 1 0 1 0 1 0 1 0 1 0 1 0 1 0 1 0 1 0 1 0 1 0 1 0 1 0 1 0 1 0 1 0 1 0 1 0 1 0 1 0 1 0 1 0 1 0 1 0 1 0 1 0 1 0 1 0 1 0 1 0 1 0 1 0 1 0 1 0 1 0 1 0 1 0 1 0 1 0 1 0 1 0 1 0 1 0 1 0 1 0 1 0 1 0 1 0 1 0 1 0 1 0 1 0 1 0 1 0 1 0 1 0 1 0 1 0 1 0 1 0 1 0 1 0 1 0 1 0 1 0 1 0 1 0 1 0 1 0 1 0 1 0 1 0 1 0 1 0 1 0 1 0 1 0 1 0 1 0 1 0 1 0 1 0 1 0 1 0 1 0 1 0 1 0 1 0 1 0 1 0 1 0 1 0 1 0 1 0 1 0 1 0 1 0 1 0 1 0 1 0 1 0 1 0 1 0 1 0 1 0 1 0 1 0 1 0 1 0 1 0 1 0 1 0 1 0 1 0 1 0 1 0 1 0 1 0 1 0 1 0 1 0 1 0 1 0 1 0 1 0 1 0 1 0 1 0 1 0 1 0 1 0 1 0 1 0 1 0 1 0 1 0 1 0 1 0 1 0 1 0 1 0 1 0 1 0 1 0 1 0 1 0 1 0 1 0 1 0 1 0 1 0 1 0 1 0 1 0 1 0 1 0 1 0 1 0 1 0 1 0 1 0 1 0 1 0 1 0 1 0 1 0 1 0 1 0 1 0 1 0 1 0 1 0 1 0 1 0 1 0 1 0 1 0 1 0 1 0 1 0 1 0 1 0 1 0 1 0 1 0 1 0 1 0 1 0 1 0 1 0 1 0 1 0 1 0 1 0 1 0 1 0 1 0 1 0 1 0 1 0 1 0 1 0 1 0 1 0 1 0 1 0 1 0 1 0 1 0 1 0 1 0 1 0 1 0 1 0 1 0 1 0 1 0 1 0 1 0 1 0 1 0 1 0 1 0 1 0 1 0 1 0 1 0 1 0 1 0 1 0 1 0 1 0 1 0 1 0 1 0 1 0 1 0 1 0 1 0 1 0 1 0 1 0 1 0 1 0 1 0 1 0 1 0 1 0 1 0 1 0 1 0 1 0 1 0 1 0 1 0 1 0 1 0 1 0 1 0 1 0 1 0
349 348
445 446
441 440
341 340
472 473
298 299
248 247
319 320
79 78
519 518
200 201
446 447
296 297
311 312
228 227
232 233
61 60
342 343
126 125
115 114
107 106
160 159
244 245
298 297
358 359
302 303
217 216
256 257
210 209
468 469
232 231
425 426
223 222
484 483
62 63
351 352
421 422
286 287
482 483
71 72
524 523
529 530
359 360
174 175
31 30
112 111
517 516
442 441
443 442
275 276
461 460
31 32
42 43
514 513
365 366
182 181
318 317
24 25
452 453
357 356
276 277
128 129
407 406
198 197
394 395
253 254
136 135
366 367
309 308
511 512
178 177
131 132
32 33
289 288
521 520
472 471
41 40
10 11
488 487
210 211
44 43
414 413
476 477
326 325
26 25
68 67
127 128
247 246
13 12
492 491
172 173
377 376
337 338
518 517
39 38
144 145
507 508
386 387
95 94
92 93
426 427
398 397
268 269
14 15
151 150
81 82
322 321
526 525
270 269
369 368
454 455
120 119
381 380
475 474
435 436
181 180
499 500
310 309
498 499
69 70
330 329
391 392
503 502
504 503
249 250
396 395
313 314
279 278
229 228
248 249
270 271
421 420
372 371
235 234
120 121
58 57
453 454
304 303
496 497
307 306
313 312
402 401
458 457
260 259
96 97
496 495
161 160
117 116
252 253
468 467
238 237
130 131
243 242
27 28
424 425
266 265
300 301
495 494
170 169
35 34
310 311
206 207
438 437
176 177
166 165
168 167
524 525
86 85
206 205
83 82
478 477
190 189
439 438
407 408
101 102
318 319
336 337
304 305
397 396
246 245
152 153
324 323
52 53
154 153
456 457
63 64
405 404
342 341
487 486
330 331
47 46
291 290
33 34
54 53
416 417
295 296
357 358
390 391
256 255
527 528
512 513
301 302
240 239
482 481
225 224
332 333
526 527
87 88
194 195
464 463
251 250
148 147
281 280
88 89
435 434
104 105
462 463
129 130
84 85
140 139
263 264
531 532
367 368
424 423
448 449
71 70
118 117
137 136
68 69
157 156
55 56
100 99
273 272
484 485
448 447
142 141
83 84
478 479
100 101
4 5
279 280
274 275
201 202
415 414
422 423
510 511
374 375
75 76
370 371
258 257
347 346
180 179
18 19
334 333
48 49
386 385
369 370
9 8
305 306
418 419
7 6
6 5
37 36
364 365
379 380
167 166
244 243
215 214
22 21
431 432
295 294
119 118
164 165
52 51
139 138
412 413
316 315
278 277
112 113
323 322
155 154
204 203
67 66
531 530
443 444
77 78
515 516
90 91
480 481
135 134
387 388
372 373
501 502
404 403
347 348
35 36
148 149
76 77
91 92
13 14
223 224
187 186
384 385
470 471
346 345
186 185
156 155
221 222
389 388
127 126
23 24
192 191
132 133
375 376
227 226
390 389
399 400
291 292
266 267
116 115
326 327
199 198
17 18
125 124
282 283
465 464
141 140
400 401
411 410
412 411
267 268
75 74
317 316
360 361
240 241
339 340
138 137
392 393
429 428
476 475
459 460
195 196
192 193
515 514
216 215
479 480
384 383
10 9
419 420
2 1
158 159
353 352
428 427
233 234
394 393
143 144
508 509
122 123
285 284
98 99
179 178
41 42
436 437
252 251
188 187
231 230
338 339
473 474
80 79
489 488
239 238
498 497
121 122
221 220
381 382
49 50
533 532
142 143
229 230
225 226
182 183
2 3
4 3
332 331
235 236
20 21
199 200
416 415
350 349
519 520
152 151
213 214
55 54
491 490
170 171
105 106
146 145
19 20
162 163
292 293
81 80
378 377
110 111
334 335
150 149
434 433
522 523
379 378
38 37
237 236
61 62
260 261
321 320
507 506
57 56
219 220
299 300
399 398
73 72
461 462
293 294
255 254
110 109
430 429
204 205
114 113
241 242
406 405
373 374
325 324
189 188
418 417
455 456
203 202
290 289
307 308
103 104
191 190
15 16
45 44
74 73
51 50
452 451
39 40
262 261
168 169
467 466
174 173
354 355
336 335
355 356
506 505
327 328
176 175
470 469
362 363
65 66
45 46
48 47
492 493
522 521
98 97
12 11
65 64
431 430
217 218
283 284
212 213
207 208
86 87
505 504
364 363
212 211
218 219
183 184
96 95
157 158
89 90
161 162
493 494
274 273
353 354
286 285
402 403
432 433
134 133
29 28
451 450
466 465
258 259
17 16
510 509
147 146
193 194
185 184
262 263
171 172
351 350
490 489
486 485
444 445
208 209
124 123
59 60
23 22
281 282
197 196
328 329
164 163
94 93
410 409
29 30
107 108
362 361
440 439
500 501
26 27
449 450
528 529
408 409
345 344
109 108
288 287
8 7
58 59
272 271
344 343
265 264
458 459
315 314
382 383
103 102
