879
0 0 0 0 0 0 0 0 0 0 0 0 0 0 0 0 0 0 0 0 0 0 0 0 0 0 0 0 0 0 0 0 0 0 0 0 0 0 0 0 0 0 0 0 0 0 0 0 0 0 0 0 0 0 0 0 0 0 0 0 0 0 0 0 0 0 0 0 0 0 0 0 0 0 0 0 0 0 0 0 0 0 0 0 0 0 0 0 0 0 0 0 0 0 0 0 0 0 0 0 0 0 0 0 0 0 0 0 0 0 0 0 0 0 0 0 0 0 0 0 0 0 0 0 0 0 0 0 0 0 0 0 0 0 0 0 0 0 0 0 0 0 0 0 0 0 0 0 0 0 0 0 0 0 0 0 0 0 0 0 0 0 0 0 0 0 0 0 0 0 0 0 0 0 0 1 1 1 1 1 1 1 1 1 1 1 1 1 1 1 1 1 1 1 1 1 1 1 1 1 1 1 1 1 1 1 1 1 1 1 1 1 1 1 1 1 1 1 1 1 1 1 1 1 1 1 1 1 1 1 1 1 1 1 1 1 1 1 1 1 1 1 1 1 1 1 1 1 1 1 1 1 1 1 1 1 1 1 1 1 1 1 1 1 1 1 1 1 1 1 1 1 1 1 1 1 1 1 1 1 1 1 1 1 1 1 1 1 1 1 1 1 1 1 1 1 1 1 1 1 1 1 1 1 1 1 1 1 1 1 1 1 1 1 1 1 1 1 1 1 1 1 1 1 1 1 1 1 1 1 1 1 1 1 1 1 1 1 1 1 1 1 1 1 1 1 1 1 1 1 0 0 0 0 0 0 0 0 0 0 0 0 0 0 0 0 0 0 0 0 0 0 0 0 0 0 0 0 0 0 0 0 0 0 0 0 0 0 0 0 0 0 0 0 0 0 0 0 0 0 0 0 0 0 0 0 0 0 0 0 0 0 0 0 0 0 0 0 0 0 0 0 0 0 0 0 0 0 0 0 0 0 0 0 0 0 0 0 0 0 0 0 0 0 0 0 0 0 0 0 0 0 0 0 0 0 0 0 0 0 0 0 0 0 0 0 0 0 0 0 0 0 0 0 0 0 0 0 0 0 0 0 0 0 0 0 0 0 0 0 0 0 0 0 0 0 0 0 0 0 0 0 0 0 0 0 0 0 0 0 0 0 0 0 0 0 0 0 0 0 0 0 0 0 0 1 1 1 1 1 1 1 1 1 1 1 1 1 1 1 1 1 1 1 1 1 1 1 1 1 1 1 1 1 1 1 1 1 1 1 1 1 1 1 1 1 1 1 1 1 1 1 1 1 1 1 1 1 1 1 1 1 1 1 1 1 1 1 1 1 1 1 1 1 1 1 1 1 1 1 1 1 1 1 1 1 1 1 1 1 1 1 1 1 1 1 1 1 1 1 1 1 1 1 1 1 1 1 1 1 1 1 1 1 1 1 1 1 1 1 1 1 1 1 1 1 1 1 1 1 1 1 1 1 1 1 1 1 1 1 1 1 1 1 1 1 1 1 1 1 1 1 1 1 1 1 1 1 1 1 1 1 1 1 1 1 1 1 1 1 1 1 1 1 1 1 1 1 1 1 0 0 0 0 0 0 0 0 0 0 0 0 0 0 0 0 0 0 0 0 0 0 0 0 0 0 0 0 0 0 0 0 0 0 0 0 0 0 0 0 0 0 0 0 0 0 0 0 0 0 0 0 0 0 0 0 0 0 0 0 0 0 0 0 0 0 0 0 0 0 0 0 0 0 0 0 0 0 0 0 0 0 0 0 0 0 0 0 0 0 0 0 0 0 0 0 0 0 0 0 0 0 0 0 0 0 0 0 0 0 0 0 0 0 0 0 0 0 0 0 0 0 0 0 0 0 0 0 0 0 0 0 0 0 0 0 0 0 0 0 0 0 0 0 0 0 0 0 0 0 0 0 0 0 0 0 0 0 0 0 0 0 0 0 0 0 0 0 0 0 0 0 0 0 0 1 1 1 1
133 575
596 152
708 267
831 393
118 117
18 458
655 212
359 360
211 210
518 72
85 86
106 105
313 314
643 195
237 681
427 426
471 30
417 861
273 715
402 843
254 253
171 615
147 146
528 84
476 37
597 152
646 198
64 65
49 495
149 592
418 862
109 551
163 162
717 275
160 159
13 14
374 375
746 302
430 431
394 395
160 161
96 541
642 194
49 50
702 261
138 581
349 789
497 50
650 207
336 335
266 265
336 777
76 75
783 342
8 7
259 700
114 113
266 267
341 342
866 420
677 232
691 250
163 164
422 423
474 34
329 330
55 54
97 543
183 182
5 6
103 102
95 94
210 209
373 374
20 460
568 127
38 37
142 586
93 540
25 26
8 444
294 295
74 73
155 154
484 43
801 360
310 311
105 104
483 42
323 322
3 4
356 355
192 193
165 164
136 137
193 639
800 359
510 65
153 154
241 242
674 230
169 168
317 762
178 179
102 545
532 87
329 774
237 236
527 83
348 349
170 614
773 327
295 296
227 228
178 177
432 431
63 62
384 385
533 87
216 217
344 343
185 631
350 349
7 6
381 380
396 395
628 181
132 131
239 240
292 293
12 13
180 179
65 66
387 388
16 17
84 85
78 521
45 44
23 24
660 217
286 731
322 321
180 626
191 192
764 318
25 467
344 345
69 70
372 371
310 309
254 695
116 559
77 76
404 848
637 190
772 327
280 281
436 875
58 507
141 140
57 504
273 714
689 247
816 370
278 721
6 442
735 292
256 257
131 571
832 393
598 153
383 384
420 419
872 433
83 82
99 100
368 369
258 259
522 78
873 435
432 433
202 201
516 71
414 413
46 45
420 421
464 23
37 36
298 299
365 809
232 678
48 49
279 278
27 469
493 48
523 79
413 857
699 258
788 347
359 358
375 376
58 59
793 352
72 73
324 325
63 64
254 255
378 824
90 89
419 865
39 480
334 333
207 651
323 770
223 222
133 134
94 93
382 381
7 443
760 316
25 24
111 555
134 135
753 309
217 218
309 308
629 182
127 128
825 383
261 703
79 78
153 599
68 67
147 590
404 403
796 355
93 539
312 756
23 463
849 406
57 58
307 750
371 817
197 645
705 262
47 46
95 96
841 400
46 490
822 377
399 840
67 512
754 310
322 769
229 230
378 377
341 782
379 378
554 111
496 49
61 60
357 358
475 34
99 98
17 455
759 315
362 806
335 776
364 365
394 833
233 234
291 290
174 175
662 219
395 835
235 236
338 339
357 798
433 434
423 424
133 132
739 295
328 329
229 672
353 795
625 180
138 139
149 591
396 397
309 752
668 225
421 422
56 503
177 176
314 315
713 272
313 312
280 279
391 392
43 485
482 42
235 679
71 515
426 425
232 233
147 148
437 438
412 413
270 269
786 345
200 199
320 765
301 743
11 10
481 41
199 198
748 306
351 350
664 221
38 39
606 161
12 449
368 367
170 171
405 406
566 124
868 423
587 143
124 123
136 135
126 125
778 337
155 156
248 249
111 112
321 320
214 215
209 208
439 438
243 244
228 671
126 567
829 389
390 830
514 70
768 322
125 124
326 325
414 858
838 398
308 307
96 542
72 71
260 701
172 171
219 220
280 725
190 636
248 690
176 175
181 180
236 680
366 811
758 314
301 300
466 24
188 187
416 417
272 271
573 132
365 810
35 34
223 665
38 477
403 845
430 870
296 297
301 744
333 332
157 158
250 251
101 100
531 86
289 288
279 723
376 377
101 102
428 427
110 111
371 818
579 136
673 229
194 195
308 751
212 211
277 278
438 878
638 191
79 80
92 537
867 420
10 447
435 434
320 319
286 285
569 128
190 189
408 409
380 379
86 530
435 436
607 164
334 775
608 164
224 666
86 87
44 486
706 263
432 871
355 354
472 31
265 707
13 451
341 340
802 360
249 250
519 74
97 98
576 134
318 763
269 711
580 138
126 127
334 335
350 792
847 404
204 203
47 492
80 524
401 400
757 312
237 238
877 438
18 19
240 241
212 654
21 22
268 269
416 860
149 150
20 19
226 225
23 22
722 279
416 859
767 321
89 534
282 729
116 115
3 2
361 362
305 306
221 663
429 430
408 851
273 272
68 69
354 353
129 130
142 141
47 491
72 517
213 657
815 368
252 251
498 50
34 33
412 411
56 57
263 264
506 58
578 136
239 238
194 641
160 605
316 761
156 601
353 352
150 593
170 169
185 184
627 181
41 42
144 143
12 11
212 213
267 268
319 318
582 139
253 694
501 54
511 65
328 327
143 142
547 104
104 103
402 403
373 372
14 452
132 572
138 137
122 564
338 780
565 123
669 227
331 330
327 326
226 227
157 156
75 74
45 488
245 246
362 805
874 435
286 287
709 268
151 150
32 33
688 247
173 174
479 39
60 508
712 270
203 648
367 813
115 114
297 741
787 345
291 292
232 231
202 203
346 347
415 416
280 724
193 640
230 231
394 834
191 190
814 368
487 44
692 252
187 634
386 385
410 854
174 618
595 151
35 36
155 600
331 332
398 397
17 456
252 253
436 437
304 305
602 157
513 69
196 197
161 162
243 686
366 812
410 411
583 140
20 21
53 500
32 31
733 287
21 461
283 282
130 570
47 48
836 396
684 240
719 277
403 846
80 525
619 175
139 140
343 342
350 791
419 418
123 122
185 630
16 15
57 505
1 440
107 108
281 726
357 797
262 704
401 402
417 418
261 262
373 819
146 145
10 9
453 16
282 728
227 670
727 281
169 612
402 844
552 110
294 738
16 454
409 853
376 821
337 779
649 206
624 178
200 201
221 220
274 275
63 509
219 218
276 275
104 546
450 13
216 215
151 594
175 620
128 129
102 544
50 51
231 675
109 110
270 271
106 548
29 30
222 221
632 186
351 352
406 407
391 390
118 119
529 85
302 303
361 803
301 302
244 245
864 419
361 804
297 298
389 390
4 441
77 78
294 737
119 120
55 56
160 604
91 92
117 116
408 852
112 113
38 478
362 363
389 388
255 256
131 130
71 70
24 465
135 577
197 198
206 207
557 113
261 260
255 697
338 781
400 842
621 176
165 166
316 317
159 158
14 15
195 196
428 429
399 839
364 363
459 20
439 879
110 553
213 656
173 616
820 376
304 303
195 644
166 167
436 876
563 120
1 2
710 269
203 647
315 316
370 371
31 473
535 90
687 246
225 224
106 107
828 386
293 294
184 183
658 215
827 384
603 159
611 168
27 28
863 418
377 823
287 288
121 122
406 850
208 652
609 165
734 288
52 53
141 585
396 837
18 457
168 167
400 399
177 623
88 89
398 399
273 274
284 285
338 337
306 307
869 425
293 736
54 502
361 360
538 92
108 109
526 82
18 17
51 52
364 807
392 393
520 77
81 82
732 286
740 295
59 60
45 489
5 4
405 404
262 263
771 326
290 289
393 394
278 720
145 588
254 696
747 305
187 633
256 698
152 153
424 425
241 685
274 716
253 693
258 257
826 384
96 97
300 299
88 87
44 43
119 562
31 30
26 27
366 365
229 228
9 8
185 186
470 28
340 339
242 243
216 659
207 208
214 213
145 589
67 66
112 556
574 133
683 240
370 369
353 794
264 265
317 318
414 415
549 108
170 613
346 345
29 28
25 468
409 410
108 550
42 43
188 189
745 302
622 177
386 387
357 356
90 91
189 635
661 217
53 499
342 784
785 344
617 173
39 40
448 12
173 172
225 667
284 730
321 766
260 259
799 358
61 62
151 152
536 91
407 408
311 312
558 113
92 93
116 560
367 366
182 181
446 9
561 118
166 610
80 81
310 755
297 742
336 337
144 145
347 348
208 653
53 54
193 194
187 186
462 21
676 231
205 206
718 277
48 494
121 120
383 382
349 790
83 84
324 323
855 412
40 41
248 247
412 856
364 808
205 204
284 283
224 223
282 281
307 749
235 234
149 148
445 9
682 238
584 141
246 247
277 276
