19706
0 0 1 1 0 1 1 0 0 1 1 1 1 1 0 1 0 1 0 1 0 1 1 1 1 1 0 0 1 1 1 1 0 0 0 1 0 0 1 0 1 0 0 0 1 1 1 1 0 0 1 1 1 0 0 1 1 0 0 0 0 1 0 0 0 0 0 0 0 0 1 0 0 1 1 1 0 1 1 0 0 0 1 1 0 0 0 1 1 0 1 1 0 1 1 1 1 0 0 1 1 1 0 0 0 0 1 1 0 1 1 0 1 0 0 0 1 0 0 0 0 1 0 1 1 0 1 0 0 1 1 1 1 0 0 1 0 0 0 0 1 1 0 0 1 1 1 0 0 1 0 0 0 0 0 0 1 1 0 0 0 1 0 0 0 0 0 1 1 0 1 0 0 1 0 1 1 1 1 1 1 1 0 1 1 0 0 1 1 0 1 0 0 1 0 0 1 0 1 0 0 0 1 0 0 0 1 0 0 0 1 0 1 0 0 0 0 1 0 0 0 1 0 1 0 0 1 0 1 0 1 0 0 1 1 0 1 0 0 0 1 1 0 1 1 1 1 0 0 0 1 0 1 1 0 0 0 0 0 0 1 0 1 0 1 1 1 0 0 1 1 0 1 0 0 1 1 1 0 0 1 1 1 0 1 0 1 0 0 1 1 1 0 1 0 1 0 1 0 0 1 0 0 1 0 1 1 1 0 1 1 1 1 1 0 0 0 0 0 1 1 1 1 1 1 1 1 1 0 0 1 1 0 1 1 0 1 1 1 0 1 0 1 0 0 1 1 1 0 1 0 0 0 1 1 1 0 0 1 0 1 0 0 0 0 0 0 1 1 0 0 0 1 0 1 1 0 1 0 0 1 0 0 1 0 1 1 0 1 1 0 1 1 1 0 1 0 1 1 0 0 0 1 1 1 1 1 0 1 0 1 0 1 1 0 1 1 1 0 0 1 1 1 0 0 0 0 0 0 1 1 0 0 1 1 1 1 0 0 0 0 0 1 0 0 0 1 0 0 1 1 1 0 1 1 0 0 1 0 1 0 0 1 0 1 0 1 0 0 0 1 1 1 0 0 1 1 0 0 1 0 0 1 1 0 0 1 0 0 0 1 0 1 0 0 1 0 0 1 1 1 1 0 1 0 0 1 1 1 0 0 1 1 0 1 0 0 0 1 0 1 1 0 0 0 1 1 1 0 1 0 1 1 0 0 1 0 1 0 1 0 1 0 0 1 1 0 0 0 0 0 0 0 0 0 1 0 0 1 0 1 1 1 1 0 0 0 1 1 0 0 1 1 0 0 1 0 1 0 1 0 0 0 0 0 1 1 0 0 0 1 1 0 1 1 1 1 0 0 0 1 0 0 1 1 1 0 0 1 0 1 0 0 0 0 1 0 0 1 1 1 0 1 0 0 0 0 1 0 0 0 1 0 1 1 1 0 0 0 0 1 1 1 0 1 0 1 0 1 1 1 1 1 1 0 1 0 0 0 0 0 0 0 0 1 1 1 1 1 1 0 1 0 1 1 1 0 0 0 1 1 1 1 1 1 1 1 0 0 0 1 1 0 0 1 0 1 0 0 1 0 1 1 1 1 1 0 0 1 0 0 0 1 0 0 0 1 1 1 1 1 0 0 1 1 0 0 0 0 1 0 0 1 0 0 1 1 0 0 1 1 1 1 0 1 1 1 1 0 1 1 1 1 0 1 1 1 0 0 0 1 0 1 0 1 1 1 0 0 1 0 0 1 1 0 1 1 1 1 0 1 1 1 0 0 0 1 0 1 0 0 1 0 1 1 1 1 0 0 1 1 0 0 0 0 1 1 0 1 0 0 0 0 1 1 1 1 0 0 0 1 0 0 1 0 1 1 1 1 1 0 1 0 1 1 1 0 0 0 1 0 1 1 0 1 1 0 1 1 0 0 1 1 0 1 1 1 0 0 1 0 0 0 0 0 0 1 0 0 1 1 0 1 0 1 1 1 0 0 0 1 1 1 1 0 0 0 1 1 1 0 0 1 1 1 0 0 1 0 1 0 1 0 1 0 0 1 1 1 1 0 1 1 1 0 1 0 0 0 0 0 1 1 0 1 0 1 0 1 1 1 1 1 0 0 1 1 0 1 0 0 1 1 1 0 0 1 0 1 0 0 0 1 0 1 0 0 1 0 0 1 0 1 1 1 1 1 0 1 1 1 1 1 0 1 1 0 0 1 0 1 1 1 0 0 0 1 1 0 1 1 0 0 1 1 1 0 1 0 1 0 0 0 1 1 0 0 1 1 1 1 1 0 0 0 0 0 1 0 1 1 0 0 0 0 1 0 0 0 1 0 1 1 0 0 0 1 0 1 1 0 1 0 0 1 0 0 1 1 0 0 0 0 0 0 0 0 0 0 1 0 0 1 0 1 0 1 0 1 0 0 1 1 1 1 1 1 1 1 0 0 0 0 0 1 1 1 0 1 0 0 1 1 0 0 0 1 0 0 1 1 0 1 0 1 1 0 1 1 0 0 0 0 1 0 0 0 1 0 0 0 0 0 1 1 0 1 0 0 1 1 1 0 0 1 1 1 0 1 1 0 0 0 0 0 0 1 1 1 0 0 1 0 1 1 0 1 0 1 0 0 1 0 1 1 0 1 1 1 0 0 1 1 0 1 0 0 0 1 1 1 0 1 0 1 0 0 0 0 1 0 1 1 0 0 0 0 1 0 0 0 1 0 1 1 0 0 1 0 0 0 1 1 0 1 0 1 1 0 0 1 0 1 0 0 0 1 1 0 1 0 1 0 0 1 1 0 0 0 0 0 1 0 1 0 0 1 1 1 0 0 0 0 0 1 1 1 1 1 1 1 0 1 1 1 1 1 1 0 1 1 0 0 0 0 0 1 0 0 1 0 1 0 0 1 0 0 1 0 1 0 0 0 0 0 1 0 0 0 0 1 0 0 0 1 1 0 1 0 0 1 0 1 1 0 0 0 1 1 1 1 0 1 1 0 1 0 0 1 0 1 0 1 1 0 0 1 1 0 1 0 1 0 1 0 0 0 1 0 1 0 0 1 1 0 1 0 0 1 0 1 0 0 1 1 0 0 1 1 0 1 0 1 1 0 0 1 1 0 0 1 0 0 0 1 0 1 0 1 0 0 1 0 0 0 1 1 0 1 1 1 1 0 0 1 0 0 0 1 0 1 0 1 1 0 1 0 0 0 0 1 0 0 0 1 0 1 0 0 0 1 0 0 0 1 0 1 0 0 1 0 0 0 0 0 1 0 1 0 0 1 0 1 1 1 1 1 0 0 1 1 1 0 1 1 0 1 0 0 1 0 1 0 0 0 0 0 0 0 1 1 1 0 0 0 1 1 1 0 1 0 0 0 0 0 0 0 1 0 1 1 0 1 0 0 0 1 1 0 1 0 1 1 0 0 1 1 1 0 0 1 0 0 1 0 0 0 1 0 1 1 1 1 0 0 0 0 0 0 1 1 1 0 1 0 0 1 1 1 0 0 0 0 1 1 0 0 0 1 0 1 1 0 0 0 1 0 0 0 0 1 0 1 1 1 0 1 0 0 1 1 0 0 0 1 0 1 0 0 1 0 0 1 1 1 0 0 1 1 1 1 0 1 1 0 1 0 0 0 0 1 1 0 0 1 1 0 0 1 0 1 0 1 1 0 1 0 1 1 1 1 0 0 0 1 0 0 0 0 0 1 1 1 1 0 1 1 0 1 0 0 0 1 1 1 0 0 0 1 1 1 1 1 1 0 1 0 0 1 1 1 1 1 1 1 1 1 0 0 0 1 0 1 1 1 0 1 1 1 1 0 1 1 1 0 1 0 1 1 1 0 1 0 0 1 1 1 1 1 1 1 0 0 0 1 0 0 0 0 0 1 0 0 1 0 0 0 0 1 0 0 1 1 1 0 0 0 0 1 0 0 1 0 0 0 0 1 0 1 0 1 0 0 1 1 0 0 1 0 1 0 0 1 0 0 1 0 0 1 1 1 1 0 0 1 0 0 0 1 0 0 1 0 0 1 1 0 1 0 1 1 1 0 1 0 0 0 0 1 0 1 1 0 0 1 1 1 0 0 1 1 0 0 0 1 1 0 0 1 0 0 0 0 1 1 1 0 1 1 0 0 1 0 1 0 0 1 1 0 1 0 0 0 0 0 1 0 0 1 1 1 1 1 1 0 0 1 1 0 1 0 1 1 1 1 0 0 0 0 0 1 0 1 0 0 1 1 1 0 1 0 0 0 1 1 0 1 0 0 0 1 1 0 1 0 0 1 1 0 0 0 1 0 1 1 0 0 1 0 0 0 1 0 1 1 0 0 1 1 0 0 0 1 1 1 1 0 0 0 1 1 0 0 0 1 1 1 0 0 1 0 1 1 0 1 0 0 1 0 1 1 1 0 1 1 0 1 1 1 0 1 0 1 1 0 1 0 1 0 0 1 0 0 0 0 1 1 1 0 0 1 0 0 1 1 1 1 1 0 0 0 1 1 1 1 0 1 1 0 1 1 1 1 1 1 1 0 0 0 1 1 0 1 0 0 1 1 1 0 0 1 1 0 0 0 1 0 0 0 1 0 1 1 1 0 1 1 0 0 1 1 0 0 1 0 0 0 0 0 0 1 1 0 0 0 0 1 1 1 0 0 0 0 1 0 1 1 0 1 1 1 1 0 1 1 0 1 1 0 0 0 0 1 1 1 0 0 0 0 1 1 1 0 1 0 0 1 1 1 0 1 0 1 1 1 0 1 0 0 1 1 1 0 1 0 1 1 0 1 0 0 1 0 1 1 0 1 1 0 1 1 1 1 0 0 1 1 1 0 0 1 1 1 1 1 0 0 0 1 1 0 1 0 1 1 0 0 1 0 0 1 0 0 1 0 0 1 1 0 1 0 0 0 1 1 0 0 1 0 1 0 0 0 1 1 0 0 1 1 0 0 1 1 0 0 0 1 1 1 0 0 1 1 0 1 1 0 1 1 1 0 0 0 0 1 0 0 0 0 1 1 0 1 1 0 1 0 1 1 0 0 1 1 1 0 0 1 1 1 0 1 0 0 1 0 1 1 0 0 0 0 1 1 0 0 0 0 0 0 1 0 0 0 0 1 0 0 0 0 1 1 0 0 1 0 1 0 0 1 0 1 0 0 1 0 1 1 0 1 1 1 1 1 1 1 1 0 0 0 1 0 0 0 0 0 0 0 1 0 0 1 0 1 0 1 0 1 0 0 1 0 1 0 1 0 1 0 1 0 1 1 0 1 0 0 1 1 1 1 0 1 1 1 0 1 0 1 0 0 0 1 0 1 0 0 0 1 1 1 0 0 0 0 1 0 0 0 1 1 1 0 0 0 0 1 0 0 1 0 1 0 0 0 0 1 1 1 1 0 1 1 0 0 1 1 1 1 1 1 1 0 0 1 1 1 1 1 0 1 1 0 1 1 1 0 0 1 1 1 1 1 0 0 0 0 1 1 0 1 1 0 1 0 0 0 0 0 1 1 0 1 1 1 0 1 0 1 1 1 0 0 0 1 0 0 0 0 1 0 0 0 1 0 1 0 0 1 0 1 0 1 1 1 0 0 0 0 1 1 0 1 0 1 0 0 1 0 1 0 1 0 0 0 0 0 0 0 1 0 0 1 1 1 0 0 0 0 1 0 0 1 1 0 1 1 0 0 0 1 0 1 1 1 1 1 0 1 1 1 1 1 0 0 0 1 0 0 1 0 1 1 1 1 0 1 0 1 1 0 1 1 0 1 1 1 0 1 1 1 1 1 0 1 0 1 0 0 0 0 1 1 0 0 0 1 0 0 0 1 0 0 1 1 1 0 0 1 0 1 1 1 0 0 0 1 1 1 0 0 1 0 0 1 0 0 0 1 1 0 0 1 1 1 0 1 1 0 1 1 0 1 0 1 1 0 1 1 0 1 1 1 1 1 1 1 0 0 0 1 1 1 0 0 0 0 1 0 1 1 0 1 0 1 1 1 0 0 1 0 0 0 1 0 0 1 1 1 0 0 1 1 1 0 0 0 1 1 1 0 1 0 1 1 1 1 0 0 0 1 1 1 1 1 0 1 1 0 1 0 1 0 0 1 1 0 0 0 0 0 1 0 1 1 1 0 0 1 1 0 1 1 0 1 0 1 1 0 1 0 1 1 1 0 1 1 0 0 1 1 1 0 0 1 0 1 0 0 1 0 0 1 0 1 1 0 0 1 1 0 1 0 0 1 1 1 0 1 0 0 0 0 1 1 0 0 1 0 0 0 1 1 0 1 1 0 1 0 1 0 0 1 0 0 0 0 0 1 0 1 0 0 1 1 1 1 1 0 1 0 1 1 0 1 0 1 0 0 0 1 1 0 1 1 1 1 0 0 0 1 0 1 0 0 0 0 1 0 1 0 1 0 1 0 1 1 1 0 1 1 0 1 0 1 0 0 1 1 1 0 1 1 0 1 1 1 1 0 1 1 1 1 1 0 1 1 0 0 1 0 1 1 1 0 1 0 1 1 0 1 1 1 1 0 1 1 0 0 0 1 0 0 0 1 1 0 0 0 1 1 1 1 1 0 1 0 0 1 0 1 0 0 0 1 1 0 0 1 0 1 0 1 1 1 0 1 0 1 1 1 1 0 1 1 1 0 0 1 0 1 1 0 0 0 0 1 0 1 0 0 0 0 0 1 0 1 0 1 0 0 1 0 1 1 0 1 1 1 0 1 1 0 0 1 1 0 1 0 1 1 1 0 1 1 1 0 0 1 1 0 1 0 1 1 0 1 0 1 1 0 1 1 1 1 0 1 0 0 1 0 0 0 0 0 1 0 1 1 0 0 0 0 0 1 1 0 1 0 0 1 1 1 1 0 1 1 1 0 1 1 0 0 0 1 0 0 1 0 0 1 0 0 0 1 1 1 1 0 1 0 0 0 0 1 0 0 0 1 1 1 1 1 1 0 1 1 0 1 1 0 1 0 0 1 0 1 1 1 0 0 1 0 0 0 1 0 0 0 0 0 0 1 0 1 0 1 1 1 0 0 0 1 1 1 0 0 0 0 1 1 1 0 0 1 0 1 0 0 1 1 1 0 0 0 0 1 0 1 0 0 0 0 0 1 1 0 1 1 0 0 1 0 0 1 1 0 1 1 0 1 0 0 0 0 1 0 0 0 0 0 1 1 1 0 0 0 1 1 0 1 1 1 0 1 0 1 0 0 1 0 0 0 0 1 0 0 0 0 1 0 1 1 1 1 1 1 1 0 1 1 0 1 0 0 0 1 1 0 0 0 0 0 0 1 0 0 1 1 0 1 1 1 0 0 1 1 1 1 1 0 0 0 0 1 0 1 1 0 0 1 1 1 1 0 0 1 1 0 1 1 0 0 0 1 1 0 0 0 1 0 0 1 1 1 1 0 0 1 1 0 1 0 1 0 0 0 1 0 1 1 0 0 1 1 0 0 0 0 1 1 0 0 1 1 1 1 0 0 1 1 1 0 1 1 1 0 0 0 1 1 0 1 1 0 1 1 0 0 1 1 1 0 1 0 0 1 0 0 0 0 1 1 0 0 1 1 0 0 0 1 1 0 0 1 0 0 1 0 0 0 0 1 0 0 0 0 1 0 1 1 0 1 0 1 0 0 0 0 0 1 1 1 0 0 0 1 1 0 0 0 1 0 0 0 1 0 1 0 0 0 0 0 1 0 0 1 1 0 0 1 1 1 1 0 1 0 1 1 0 0 0 1 0 0 0 0 1 1 0 0 1 0 0 0 0 1 0 1 0 0 1 1 1 0 0 1 1 1 0 1 0 1 1 0 1 0 1 0 0 1 0 1 0 1 0 0 0 0 0 0 1 1 1 1 0 1 1 1 1 1 1 0 1 0 0 1 1 1 0 1 1 0 0 1 1 1 1 1 0 0 0 1 1 1 0 1 0 1 1 1 0 1 0 1 1 0 1 1 0 0 1 0 0 1 1 1 0 0 1 1 0 0 1 1 0 0 0 0 1 0 1 0 1 1 0 0 0 1 1 0 0 1 0 0 1 0 1 0 1 0 0 0 1 0 1 1 0 1 1 1 1 0 0 1 1 0 0 1 1 1 0 0 1 1 1 0 1 0 0 0 0 0 1 0 0 0 0 1 0 1 0 1 1 1 0 0 1 1 1 0 0 0 0 0 1 0 1 1 1 1 0 0 0 0 1 0 1 1 1 0 1 1 1 1 1 1 1 0 0 1 1 1 1 1 1 0 1 1 1 1 0 1 1 0 0 1 1 0 0 1 1 0 1 1 0 0 1 0 0 0 0 1 0 0 0 1 1 0 0 1 0 0 0 1 0 0 1 0 0 0 1 1 0 0 1 1 1 0 1 0 1 0 1 0 1 0 1 1 0 1 1 1 0 1 1 1 0 0 1 1 0 1 0 0 0 0 1 0 1 0 0 1 0 0 1 1 1 1 1 0 1 0 0 0 1 0 1 0 1 1 1 1 0 1 1 1 0 0 0 1 1 1 0 0 1 0 1 1 1 1 0 0 1 1 1 0 1 1 1 0 0 1 0 1 0 0 1 1 1 0 0 1 0 0 1 0 1 0 0 0 1 0 1 0 1 1 1 0 1 1 0 0 0 0 1 1 0 1 0 1 1 0 0 1 0 0 0 1 1 1 1 0 0 1 1 1 0 0 0 1 0 0 1 1 0 1 1 1 0 1 1 0 0 0 0 1 1 0 0 0 0 1 1 0 0 1 0 1 0 1 1 0 0 0 1 0 1 1 1 0 1 1 0 1 0 0 1 1 1 0 1 1 1 1 0 0 0 1 0 0 1 1 0 1 0 1 1 0 1 1 0 1 0 0 0 1 0 0 0 1 0 0 1 0 0 0 0 0 1 0 0 0 0 1 0 1 1 1 0 0 1 1 1 0 1 1 1 1 1 0 0 1 1 0 1 1 1 1 1 0 1 0 1 0 0 1 1 1 0 1 0 1 1 0 0 0 1 0 0 0 1 0 0 1 1 1 0 1 1 1 1 1 1 0 0 1 1 0 0 1 1 0 0 0 1 1 0 0 1 1 0 0 1 0 1 0 1 0 1 1 0 1 1 1 0 0 1 0 0 0 1 1 0 0 1 0 0 1 0 1 1 1 0 0 1 1 0 1 0 0 0 1 1 0 0 1 0 1 0 0 0 1 0 0 1 1 1 1 1 1 0 1 0 1 0 0 1 0 1 0 0 1 1 0 1 0 1 1 1 0 1 0 1 0 1 0 0 0 0 1 0 1 1 0 0 1 0 1 0 1 1 1 0 0 1 0 0 0 0 0 1 0 1 0 1 0 0 0 1 1 0 0 0 0 0 0 0 1 0 1 1 0 0 1 1 0 1 1 1 1 0 1 0 0 1 0 0 0 0 1 1 1 1 1 1 0 0 1 1 1 0 1 0 0 0 1 0 0 1 1 0 1 1 1 1 0 0 1 0 1 0 1 1 1 1 1 1 0 1 0 0 1 0 1 0 1 0 0 1 1 1 0 1 0 0 0 0 1 0 1 0 0 1 1 0 0 1 1 0 1 1 0 1 1 0 1 1 0 0 1 1 0 1 0 1 1 1 0 1 1 1 0 0 0 0 0 1 1 0 0 0 0 0 1 1 0 1 1 1 1 0 0 1 1 1 0 1 1 1 1 1 0 0 1 0 0 0 1 0 0 0 0 1 0 0 1 0 1 1 1 0 0 0 1 0 1 0 0 1 1 1 1 0 1 1 0 0 0 1 1 0 0 0 0 0 0 1 1 0 0 0 0 0 1 0 1 0 1 1 0 0 0 0 1 0 0 1 0 1 0 0 1 1 1 1 0 1 0 0 0 0 1 1 0 0 1 0 1 1 1 1 0 1 0 1 1 0 0 1 1 1 1 0 0 1 1 1 0 0 0 0 0 1 1 1 1 0 1 1 1 1 1 0 1 1 1 0 0 1 0 0 0 1 0 1 1 1 1 1 0 0 1 0 1 0 1 0 0 1 1 1 0 1 0 1 0 1 0 1 1 1 1 1 1 1 0 1 0 0 1 1 0 1 0 1 1 1 1 1 1 1 1 1 0 1 1 1 1 1 1 0 1 1 1 0 1 0 0 0 1 0 0 0 1 0 0 1 1 1 0 1 1 0 0 1 1 1 1 1 0 0 0 1 0 0 0 1 0 1 0 1 1 1 1 1 0 1 0 1 1 1 0 1 0 1 1 0 1 1 0 0 0 0 0 0 1 1 0 0 1 1 0 0 0 1 1 0 0 0 1 1 0 0 1 0 1 0 0 1 1 1 1 1 0 0 0 1 1 0 0 0 0 1 0 1 1 1 1 0 1 1 0 0 0 1 1 1 0 0 1 1 0 1 1 0 0 0 0 1 1 0 1 0 0 1 0 1 1 1 0 1 1 0 1 0 0 1 1 1 1 0 0 0 0 0 1 1 1 1 0 1 0 1 1 1 0 1 0 0 1 0 1 0 1 1 1 1 0 0 1 1 1 1 0 1 0 1 1 0 0 1 0 0 1 1 1 1 1 1 0 0 0 0 1 0 1 1 0 1 1 1 0 0 1 1 0 1 1 1 0 0 1 0 0 1 0 0 0 0 1 1 0 1 0 0 0 0 1 1 1 1 0 0 0 1 0 0 1 0 0 1 1 1 1 0 0 0 1 1 0 1 0 1 1 1 0 0 1 0 0 1 0 1 1 1 1 1 0 1 0 0 0 0 0 1 1 1 0 1 0 1 0 0 0 0 0 1 1 1 0 1 0 0 1 0 0 1 0 1 1 1 0 0 0 1 0 1 1 1 0 0 1 1 1 0 1 1 1 1 1 0 0 1 1 0 1 0 1 1 0 1 0 0 1 0 1 1 1 0 0 1 0 1 1 0 0 0 1 0 0 0 1 1 1 0 0 1 0 1 1 1 1 1 1 1 1 1 0 0 0 0 0 1 1 1 1 1 1 1 0 0 0 1 0 1 1 1 1 1 1 0 1 0 1 1 0 1 1 1 1 0 0 1 0 0 1 0 1 1 1 0 0 0 1 0 1 0 1 0 1 0 0 1 1 0 0 0 1 0 1 1 0 1 0 0 0 0 1 1 1 1 0 1 1 0 0 1 1 0 0 1 1 1 1 1 0 1 1 1 0 0 1 0 0 1 1 0 1 0 0 0 0 0 0 0 0 0 1 1 0 1 0 0 0 1 0 0 1 1 0 1 0 1 0 0 1 0 0 1 1 0 1 0 0 1 1 1 0 1 0 0 0 1 1 1 1 0 1 0 1 0 0 1 1 0 1 1 0 0 0 1 1 0 1 0 0 0 1 1 1 0 1 0 0 1 1 1 0 1 1 0 0 0 1 0 0 0 1 1 1 0 0 0 0 0 0 0 1 1 0 0 1 0 1 1 1 1 1 1 0 0 1 0 0 1 1 0 0 0 0 1 0 1 0 1 0 0 1 1 0 1 1 0 1 0 1 0 0 1 1 0 0 0 1 0 1 0 1 0 1 0 0 0 0 0 0 0 0 1 1 0 1 0 0 1 1 0 1 0 1 1 1 0 0 1 0 0 0 0 1 0 1 0 0 1 0 1 0 0 0 1 0 0 0 0 0 1 0 1 0 0 0 0 0 1 1 1 0 1 1 0 0 1 1 0 1 0 1 1 0 0 1 1 1 0 1 0 1 0 1 1 0 1 0 0 0 0 1 1 0 0 1 1 1 1 1 1 0 0 0 0 0 0 0 1 0 0 1 1 0 1 1 0 0 0 1 0 1 1 0 1 0 1 1 0 0 1 1 0 0 0 1 0 0 0 1 1 0 1 1 1 0 0 0 0 1 0 0 0 0 1 0 0 0 0 0 0 0 0 1 0 0 1 1 0 1 1 0 1 1 0 1 1 0 0 0 1 0 1 0 0 1 0 1 1 1 0 1 1 1 0 1 0 0 0 0 1 1 0 1 0 1 0 1 0 1 0 0 0 0 1 0 0 1 1 1 1 1 1 1 1 1 1 1 0 1 1 0 1 0 1 1 1 1 1 1 0 0 1 1 0 0 1 1 0 0 1 1 1 0 0 0 0 1 1 1 1 1 0 0 1 0 0 0 1 1 1 0 1 1 1 1 0 0 0 1 1 0 1 0 1 0 1 1 1 1 0 0 1 1 1 1 1 0 1 0 0 0 0 1 0 0 1 1 1 1 0 0 1 0 0 1 1 0 0 0 1 1 1 1 1 0 1 0 0 1 1 1 0 0 1 1 0 1 1 1 1 1 0 1 1 0 0 1 1 0 0 1 0 0 1 0 1 1 1 0 1 1 1 1 0 0 0 0 1 0 0 0 1 0 1 0 0 1 0 1 1 0 1 0 1 0 1 1 1 1 0 1 1 1 1 1 0 0 1 0 1 1 1 0 1 0 1 0 1 0 1 0 1 1 1 0 1 1 0 0 0 0 1 1 1 1 1 0 0 1 0 1 1 0 1 0 0 0 0 0 1 1 1 1 1 1 0 0 0 1 0 1 0 0 0 1 0 1 0 1 1 0 1 1 1 0 0 0 0 1 1 0 1 0 1 0 0 0 0 1 1 1 1 0 0 1 0 0 1 0 1 1 1 0 1 1 0 1 1 0 0 0 1 0 1 1 1 1 1 0 0 0 0 1 0 0 1 0 1 1 0 0 1 1 1 0 0 1 0 1 1 1 1 0 1 0 1 0 0 0 0 1 0 1 1 0 1 1 1 0 0 1 0 1 0 1 1 0 0 0 0 0 1 0 1 1 0 1 0 1 1 1 0 0 0 1 1 0 0 0 0 0 0 0 0 1 1 0 0 0 1 0 1 0 1 1 1 1 0 0 1 0 0 0 0 0 0 0 0 0 0 0 0 1 1 1 0 0 1 0 0 1 1 1 0 0 0 1 1 1 0 1 1 0 1 1 0 0 0 1 0 1 1 0 0 1 0 1 0 1 1 0 0 0 1 1 0 1 0 1 1 1 0 1 1 1 0 1 0 1 0 0 0 1 1 1 0 0 0 0 0 0 1 1 1 0 1 1 0 0 1 0 1 0 0 0 0 1 0 1 1 0 0 0 0 1 0 0 1 0 1 1 0 1 1 0 1 0 1 1 0 0 0 0 1 1 0 0 1 1 0 0 1 1 1 1 0 1 0 0 0 1 0 1 0 0 1 1 1 1 1 0 0 0 0 0 0 1 0 0 1 1 0 1 1 1 0 1 1 0 1 1 1 0 1 1 0 0 0 0 1 1 0 1 0 0 1 1 0 0 0 1 1 1 1 0 0 1 1 0 1 1 1 1 1 0 0 1 0 0 1 0 0 0 1 1 1 1 1 0 1 0 1 0 0 0 0 1 0 0 0 0 1 0 1 0 0 0 0 1 0 0 1 0 0 1 0 0 1 0 1 1 0 1 0 0 1 1 1 1 1 1 0 1 0 0 1 1 1 1 1 0 1 0 0 1 0 0 0 0 1 1 0 0 1 1 0 1 0 0 0 0 0 1 0 1 0 1 1 0 1 1 0 0 0 1 0 0 0 0 1 0 1 0 1 0 0 1 1 1 1 0 1 0 1 0 0 0 0 1 1 1 0 0 1 0 0 1 0 0 0 0 1 0 1 0 1 1 0 0 0 1 1 0 1 0 0 1 0 1 0 0 0 0 0 0 0 0 1 0 1 1 1 0 1 1 1 1 1 0 1 1 0 1 0 1 0 1 1 0 0 0 0 1 0 0 1 0 1 0 0 1 0 0 1 0 1 1 0 0 1 1 0 1 1 1 1 1 1 0 1 0 0 0 1 0 0 0 1 0 1 0 0 1 1 0 1 0 0 0 1 1 0 0 1 1 1 0 1 0 0 0 1 1 0 0 1 0 1 0 0 1 1 0 0 0 0 0 0 0 0 0 0 1 1 0 1 1 0 1 0 1 1 1 1 0 1 1 0 1 0 0 0 1 0 1 0 1 1 1 0 1 0 1 0 1 0 1 1 0 1 1 0 0 1 1 1 1 0 1 0 0 0 0 0 1 0 0 1 0 0 1 0 1 1 1 0 1 1 1 1 0 0 1 0 0 1 0 0 0 1 1 0 0 1 0 1 1 0 1 0 1 0 0 1 0 1 0 1 0 0 0 1 1 0 1 0 0 1 1 0 1 1 1 1 1 0 1 1 1 1 0 1 1 0 0 1 1 1 1 0 1 0 1 1 0 1 0 1 0 0 1 0 0 0 0 1 0 0 1 0 1 1 0 1 1 0 1 0 1 1 0 1 1 0 0 1 1 1 0 1 0 1 1 1 1 1 0 0 1 1 0 0 0 0 1 1 0 0 1 1 1 0 0 0 1 1 1 1 1 0 1 0 0 0 0 0 0 0 0 1 1 0 0 1 0 0 1 1 0 0 0 0 0 0 1 1 0 0 1 1 1 1 1 0 1 0 0 0 0 1 0 0 1 1 0 1 1 0 1 0 0 0 1 1 1 0 0 0 1 1 1 1 0 1 0 0 1 0 0 0 1 1 1 0 0 0 1 1 1 1 0 0 0 1 0 1 0 0 0 1 1 0 1 0 0 0 1 1 1 1 1 0 1 1 1 0 0 0 1 0 1 1 0 0 1 1 0 0 0 0 1 0 1 0 0 1 1 1 0 1 0 0 0 0 1 1 1 0 0 0 1 0 1 0 1 0 0 0 0 1 0 0 1 1 0 1 1 0 0 0 1 1 0 1 0 1 0 0 0 1 1 1 1 0 1 1 1 1 0 1 0 1 0 0 1 1 0 1 1 0 0 1 0 0 0 1 1 0 1 0 1 1 1 1 1 1 1 0 1 1 1 0 1 0 1 0 0 1 1 1 0 0 0 0 1 0 1 0 1 1 1 1 1 1 1 1 1 0 1 0 1 0 1 0 1 0 0 0 0 0 0 1 1 0 0 1 0 0 0 1 1 0 0 1 0 0 0 1 1 0 0 0 0 1 1 0 1 1 0 1 1 1 0 0 1 0 1 1 1 1 0 0 0 0 1 1 1 0 1 1 0 1 0 1 1 1 1 1 1 0 0 0 0 1 1 1 1 1 1 1 1 0 0 0 1 1 1 0 1 0 1 0 1 0 1 0 1 1 0 0 0 1 0 0 1 1 1 0 0 1 1 0 1 0 0 0 1 0 1 0 0 0 1 0 1 1 0 1 1 0 0 0 0 1 0 0 0 0 1 1 1 0 1 1 0 0 1 1 1 1 1 1 1 1 0 0 0 0 1 1 1 0 0 0 1 1 0 0 1 1 0 1 0 0 1 1 1 1 1 0 1 0 0 1 1 0 1 0 1 1 0 1 0 1 1 0 0 0 0 1 1 1 0 1 1 1 1 0 0 1 1 1 1 0 1 1 0 1 1 0 1 1 0 0 0 0 1 1 1 1 1 0 0 0 0 0 1 1 1 1 1 1 0 1 1 1 0 1 0 0 0 1 0 1 0 0 0 0 1 1 0 0 1 0 0 1 1 1 1 0 0 0 1 0 0 0 1 0 0 1 1 1 0 1 1 0 0 0 1 1 1 0 0 1 0 1 0 1 1 1 0 1 1 0 0 0 1 0 0 0 1 0 0 0 0 1 0 0 1 0 0 0 0 0 1 0 0 0 1 1 1 0 0 1 1 0 0 0 0 0 1 1 1 0 1 1 1 1 0 0 0 1 0 1 0 1 0 0 1 0 0 1 1 1 0 0 0 0 0 0 0 1 0 0 1 0 0 1 1 1 0 1 1 0 1 1 0 1 1 0 1 0 0 1 1 0 1 0 0 0 1 1 1 1 1 0 0 1 1 0 0 1 1 1 0 1 0 1 1 0 1 1 0 1 1 1 1 0 1 0 0 1 0 1 0 1 0 0 1 0 1 0 0 1 1 0 0 0 1 1 1 0 0 0 0 0 0 1 1 0 0 1 0 1 1 0 1 0 0 0 1 1 1 1 1 1 0 0 0 1 1 0 0 1 0 0 0 1 1 0 1 0 0 0 0 0 1 0 1 1 0 0 0 1 0 0 1 0 1 0 1 1 1 0 1 1 0 0 1 0 1 1 0 1 1 1 0 0 1 1 1 0 1 0 1 1 0 1 1 1 0 1 1 1 0 1 0 0 0 0 0 0 0 1 0 0 1 0 0 0 0 1 0 1 0 0 0 0 1 1 0 0 0 0 1 1 0 1 0 1 1 1 0 1 1 1 1 0 1 0 0 0 0 0 0 0 0 1 0 1 1 0 0 1 1 1 1 0 0 0 0 1 1 1 1 0 1 1 0 1 1 0 1 0 0 0 1 1 1 1 0 1 1 1 1 1 1 1 1 1 0 0 1 0 1 1 1 0 0 0 0 1 0 0 0 1 0 1 0 0 0 1 1 1 0 0 1 1 0 0 1 0 0 0 0 1 0 0 1 0 1 1 0 0 0 0 0 1 1 1 0 1 0 0 1 1 0 1 1 0 1 0 0 0 1 1 0 0 0 1 1 1 1 0 0 1 0 1 0 0 1 1 0 0 0 0 1 0 1 0 1 0 0 0 1 1 1 0 0 1 1 0 0 0 1 1 1 1 1 0 1 0 0 0 1 0 0 1 1 1 0 0 1 1 0 1 1 0 0 1 0 1 0 0 0 1 0 0 1 0 1 1 1 1 0 1 0 0 0 1 1 1 0 1 1 1 0 0 1 0 0 0 1 0 0 0 1 1 1 1 1 0 1 0 0 1 0 0 1 0 0 0 1 1 0 0 1 1 1 1 1 0 1 1 1 1 1 0 0 0 1 0 0 0 0 1 1 1 0 1 1 1 1 0 1 1 1 0 0 0 1 1 0 1 1 1 0 0 0 1 0 1 1 1 1 1 0 0 0 0 1 1 1 0 0 1 1 1 1 0 0 0 0 0 0 1 1 1 0 0 0 0 0 0 1 0 1 1 1 1 1 1 1 0 1 1 1 1 0 1 0 1 1 1 1 1 1 1 0 0 1 1 1 1 0 0 0 1 0 1 1 0 1 0 0 0 0 0 1 1 1 0 0 0 0 1 0 0 1 0 0 0 1 1 0 0 1 0 1 0 0 0 1 1 0 0 1 1 1 0 0 1 0 0 0 0 1 0 0 0 1 1 1 1 0 0 1 0 1 1 0 0 1 0 0 1 0 1 0 0 0 1 1 0 0 1 1 1 1 1 1 0 1 0 0 1 0 1 0 1 0 0 1 0 0 1 1 0 0 0 1 1 0 0 0 0 1 1 1 1 0 1 1 1 0 1 0 0 1 1 1 0 0 0 1 0 0 1 1 1 0 1 0 1 1 0 0 1 1 0 0 1 0 1 0 1 0 1 0 0 0 0 0 1 0 0 0 1 1 1 0 0 0 1 0 1 0 1 0 0 1 1 1 1 1 1 0 0 0 0 0 0 0 1 0 1 0 1 1 0 1 0 0 0 1 1 1 0 0 1 0 0 1 1 0 1 1 0 1 1 1 1 1 0 0 1 1 0 0 1 1 0 0 1 1 1 0 0 0 0 1 0 1 1 1 1 1 0 1 0 0 0 1 1 0 1 1 0 1 1 1 1 0 0 1 0 0 0 1 0 0 0 0 0 0 1 0 1 1 0 0 1 1 0 1 1 0 1 1 0 0 1 1 0 0 0 1 0 1 1 0 1 1 1 1 1 0 1 1 0 0 1 1 0 0 1 0 0 1 1 0 1 0 0 1 1 0 1 0 0 0 1 0 1 0 0 1 1 1 0 0 1 1 1 1 1 0 1 1 0 1 0 0 0 0 1 1 0 0 1 1 1 0 1 0 1 1 1 0 1 1 1 0 1 0 1 1 1 1 1 1 1 0 1 1 0 0 1 0 0 1 1 1 0 1 0 0 0 1 1 0 0 0 0 1 1 1 1 1 0 0 0 0 0 0 0 0 0 1 1 0 1 0 0 0 0 0 1 1 0 0 1 0 1 1 0 1 0 1 0 1 0 0 0 1 0 0 1 0 1 0 1 0 1 1 0 1 1 1 0 1 0 0 1 0 0 1 0 0 1 0 0 1 1 0 1 0 0 1 0 1 1 1 1 0 0 1 0 1 0 1 0 1 0 1 1 0 0 1 0 0 0 0 1 0 1 0 1 0 1 0 1 0 0 0 0 0 0 1 0 0 0 0 0 1 1 0 0 0 0 0 1 0 0 1 0 1 1 0 1 0 1 1 1 1 1 1 0 1 0 1 1 0 1 1 1 1 1 0 0 1 1 1 0 0 0 1 1 1 0 0 1 1 1 0 1 0 1 0 1 0 0 0 1 1 0 0 0 1 1 0 0 0 1 1 1 0 1 1 0 1 0 1 1 0 0 1 0 1 0 1 1 1 1 0 1 0 0 1 1 1 0 0 0 1 0 1 0 0 1 1 0 0 0 0 1 0 1 0 0 0 1 0 0 0 1 0 0 1 1 1 0 1 0 0 0 0 1 1 0 0 1 1 0 1 1 0 1 1 1 0 0 1 0 1 1 0 0 1 0 1 1 0 1 1 1 0 1 0 1 0 0 1 0 0 1 1 0 1 1 0 1 1 1 0 0 0 0 1 0 1 1 1 1 0 0 1 0 1 0 0 1 0 1 1 0 1 1 1 1 0 1 0 0 1 1 1 0 0 1 0 1 1 1 0 1 1 1 1 0 0 1 1 1 1 1 0 1 1 1 0 0 0 0 1 1 1 0 0 0 1 0 0 0 1 0 0 1 0 0 0 0 1 1 0 0 0 1 0 0 0 0 1 0 1 1 0 0 1 0 0 0 1 0 1 1 0 1 1 1 1 1 0 1 0 0 0 0 1 0 1 1 0 0 1 1 0 1 1 1 0 1 0 0 0 0 1 1 0 1 0 0 1 1 0 1 0 1 0 1 1 0 1 0 1 1 0 0 0 1 1 1 1 0 0 0 1 0 1 1 0 0 0 0 0 1 0 0 1 0 1 1 0 1 0 1 0 1 0 0 1 0 1 0 0 1 0 0 0 0 0 0 0 0 1 1 0 0 1 0 0 0 0 1 1 0 1 0 0 1 1 0 0 1 1 0 0 1 0 1 0 0 0 0 0 0 1 1 0 0 0 1 0 0 0 0 0 0 1 0 0 0 0 0 1 1 1 0 0 0 0 1 0 0 0 1 0 1 1 0 0 1 1 0 1 0 0 1 0 1 1 0 1 1 0 0 1 1 0 0 1 1 1 0 0 1 1 1 0 1 1 1 1 0 1 0 1 0 1 1 0 0 0 1 1 1 1 0 1 0 0 1 0 1 1 1 0 1 0 1 1 1 1 1 1 0 0 0 1 0 0 0 1 0 0 1 1 1 0 0 1 1 0 1 0 0 1 0 1 1 1 0 0 1 0 1 0 0 0 1 0 1 1 1 1 0 0 0 1 1 0 0 0 0 0 0 0 1 1 1 0 0 1 0 0 0 0 0 1 0 1 0 1 0 1 1 0 1 1 1 0 0 0 1 0 1 1 1 0 0 1 1 1 0 0 1 0 1 0 0 1 0 1 1 0 1 1 1 0 0 0 1 1 1 0 0 1 0 0 1 1 1 1 1 0 0 0 1 0 1 1 1 1 1 1 1 1 1 0 0 0 0 1 1 1 1 0 1 0 0 1 1 0 0 1 1 0 0 1 0 0 0 1 0 1 0 0 0 0 0 0 0 0 0 1 0 1 0 0 1 0 1 1 0 0 1 0 0 1 0 0 1 0 0 1 1 0 1 0 1 0 0 1 1 1 1 1 0 1 0 0 0 0 0 1 1 1 0 0 1 1 1 1 0 0 1 0 1 0 1 1 0 0 1 0 0 1 0 0 0 1 0 1 1 1 1 1 0 1 1 1 1 0 1 0 0 0 0 0 1 0 0 1 1 1 1 0 1 1 1 0 1 0 0 1 0 1 0 0 0 0 1 0 0 0 1 0 0 0 1 0 0 0 0 0 1 0 0 0 0 0 0 0 0 1 1 0 1 1 0 1 0 0 1 1 0 1 1 0 1 1 1 0 0 1 0 0 1 0 1 0 1 0 1 1 0 0 1 0 0 0 1 1 0 1 0 0 1 1 1 0 1 0 0 0 1 1 1 1 1 0 1 1 1 0 0 1 1 0 1 1 0 0 0 1 1 1 1 1 0 1 1 1 1 0 0 0 1 0 0 1 0 1 1 0 1 1 1 1 1 1 0 1 1 0 0 0 0 1 0 0 1 0 0 0 1 0 1 0 1 1 1 1 1 1 0 0 1 0 0 1 0 1 1 1 0 0 0 1 1 0 1 0 0 1 0 1 0 0 1 0 1 1 0 1 0 0 0 1 1 0 0 0 0 0 1 1 1 1 1 1 1 1 1 1 1 0 0 1 0 0 1 1 1 0 1 0 1 1 0 1 1 0 0 0 0 0 0 0 1 0 0 1 1 1 0 0 0 0 0 0 0 0 0 1 1 1 0 0 0 1 0 0 1 0 1 0 1 0 0 0 1 1 1 0 1 0 1 1 0 1 0 1 1 0 0 0 1 0 1 1 1 0 0 0 0 1 1 1 0 0 1 1 0 1 0 1 0 0 1 0 1 0 1 1 0 1 0 1 1 0 0 0 0 0 0 1 1 0 0 1 0 0 1 0 1 0 1 1 0 0 1 1 1 0 1 0 0 1 1 1 1 1 1 1 0 0 1 0 0 1 1 0 1 0 0 0 0 0 1 1 0 1 1 1 0 0 0 0 1 0 1 0 1 0 1 0 0 1 0 0 1 1 0 0 1 1 1 1 0 0 1 0 0 0 1 0 1 0 1 0 1 1 0 0 1 1 1 1 0 0 0 0 0 1 0 0 0 1 1 0 1 0 0 0 0 0 1 1 0 0 1 0 0 0 0 1 0 1 1 0 1 0 1 1 0 1 1 1 1 1 0 0 1 1 0 0 0 0 0 1 0 0 1 1 0 1 0 1 0 1 1 1 0 1 1 1 0 0 0 0 0 1 0 0 1 1 1 1 1 1 1 1 1 0 0 0 1 1 0 0 0 1 0 0 0 0 0 0 1 0 0 0 0 1 0 0 1 0 1 0 1 1 1 1 0 0 0 1 1 1 0 0 1 1 0 1 1 1 0 0 0 0 0 1 1 1 0 1 0 0 0 0 0 1 1 0 0 1 1 1 1 0 1 1 1 0 0 0 0 1 1 0 0 1 1 0 1 0 0 0 0 0 0 0 0 0 0 1 0 0 0 0 0 0 1 1 0 0 1 1 0 1 0 1 0 0 0 1 0 1 0 0 1 1 1 1 0 0 0 0 0 0 0 1 0 1 1 0 1 0 1 1 1 1 0 1 1 1 0 0 0 0 0 0 0 0 1 0 1 0 1 0 1 0 0 1 1 0 1 0 1 1 0 1 0 1 1 0 0 1 1 1 1 1 1 1 1 0 1 1 0 1 0 1 1 1 0 0 0 1 1 0 1 0 1 1 1 0 1 1 0 1 1 1 1 1 1 0 1 0 0 1 0 0 1 0 1 0 1 0 0 1 0 1 1 1 0 0 1 0 1 1 0 1 0 0 0 1 0 1 0 1 1 1 1 1 0 1 1 1 0 1 0 0 1 1 0 0 0 1 1 0 0 1 1 1 1 0 1 1 0 0 0 1 0 0 0 0 0 1 0 1 0 1 0 0 1 0 1 1 0 0 1 0 1 0 1 1 0 1 1 1 0 0 1 1 0 1 0 1 0 1 0 0 1 0 0 0 1 1 0 1 1 0 0 0 1 0 0 0 0 0 1 0 1 0 1 0 0 1 0 1 0 1 0 0 1 1 0 1 1 1 0 0 1 0 0 0 1 1 0 1 0 0 0 0 0 0 0 1 1 0 1 0 0 1 1 1 1 0 0 0 0 0 1 1 1 0 0 1 1 0 0 1 0 0 1 1 1 0 1 1 0 1 1 1 0 0 0 1 0 0 0 0 1 0 0 1 1 0 0 0 0 1 0 1 0 1 0 0 0 1 1 0 0 1 1 1 1 0 1 1 0 1 0 1 1 1 0 1 0 1 1 0 1 1 0 1 0 0 1 1 1 0 0 0 0 1 0 0 0 0 1 1 1 0 1 1 1 1 0 1 0 1 1 0 0 0 1 0 1 1 1 1 1 1 1 0 1 1 0 1 1 0 0 1 0 1 1 0 0 0 0 0 1 0 1 1 1 1 0 1 0 0 0 1 1 1 0 0 1 0 0 0 1 1 1 0 1 1 1 1 0 0 0 0 0 1 0 0 0 1 0 1 1 0 1 1 1 1 1 1 1 0 1 1 0 1 0 0 1 0 1 0 1 1 0 1 0 0 0 1 0 0 1 0 1 1 1 0 1 0 0 0 0 0 0 1 1 0 0 0 1 1 1 0 0 1 1 1 1 1 0 0 1 0 1 1 1 0 0 0 0 1 0 1 1 0 0 1 1 1 1 1 0 0 1 1 1 1 1 1 0 1 1 1 0 1 1 1 1 1 0 1 0 0 1 0 1 0 0 0 0 1 1 0 0 0 1 1 0 1 1 0 1 1 1 0 0 0 0 1 1 1 0 1 1 1 0 0 1 1 1 0 0 0 1 0 1 0 0 0 0 0 1 1 1 0 1 1 0 1 0 0 0 1 1 1 1 1 1 1 1 1 1 0 0 0 1 0 0 0 0 0 1 1 0 0 0 0 1 0 0 1 0 0 0 1 1 1 0 0 0 0 0 0 1 1 1 0 1 0 1 0 1 0 0 0 1 0 0 1 1 1 0 1 0 0 0 0 1 1 0 0 1 1 1 0 0 0 0 1 1 0 0 1 1 1 1 0 1 1 0 0 1 1 1 0 1 0 0 0 1 0 1 0 0 1 1 0 0 0 1 0 0 0 0 0 0 1 0 0 1 0 1 1 0 0 1 1 0 1 0 1 0 0 0 1 0 1 0 1 0 1 0 1 0 1 1 0 0 1 0 0 0 0 1 0 1 0 1 0 1 0 0 1 0 1 0 0 1 0 0 1 1 1 1 0 1 1 1 1 1 1 0 0 0 0 1 1 1 0 0 1 0 0 1 0 1 1 0 0 1 1 0 0 1 1 0 0 1 0 0 0 0 0 0 1 0 0 1 0 1 1 0 0 1 0 1 0 0 0 0 1 0 1 0 1 1 1 1 0 1 1 0 0 1 0 0 0 0 0 1 0 0 0 0 0 0 0 0 1 0 0 0 1 1 1 1 0 1 0 0 1 0 0 1 1 0 0 1 0 1 0 1 0 0 1 0 1 1 1 1 0 0 1 1 1 0 1 1 1 1 1 1 1 1 0 1 1 0 1 1 0 0 0 0 0 1 0 0 1 1 1 0 1 0 1 0 0 1 0 0 0 0 1 1 0 1 0 0 0 1 0 1 0 1 0 1 1 1 1 1 0 0 0 0 1 0 1 1 0 1 0 1 1 1 1 1 1 1 0 1 1 0 1 1 0 0 0 1 0 1 1 0 0 0 1 0 0 0 0 0 1 1 1 1 0 0 0 0 1 1 0 1 0 1 0 0 0 1 0 1 0 1 1 1 1 0 1 0 0 0 1 1 1 1 0 1 0 0 1 1 1 1 0 0 1 1 0 0 1 0 0 1 0 1 1 1 0 0 0 1 0 0 0 1 1 1 1 1 1 1 1 1 1 1 0 1 0 0 0 0 1 1 1 0 0 0 1 1 1 0 0 1 0 1 0 1 0 0 0 1 1 0 0 0 1 0 1 1 0 0 1 1 1 1 1 1 1 1 1 1 0 1 1 1 1 1 0 0 1 0 0 0 0 0 0 0 1 1 0 1 0 0 0 1 0 0 0 1 1 0 0 0 0 0 0 1 0 0 1 1 0 1 0 0 1 1 1 1 1 1 0 0 0 1 1 1 0 0 1 1 1 1 1 0 0 1 1 0 1 0 1 0 0 1 0 0 0 1 0 1 0 1 1 1 0 0 1 1 1 0 1 1 0 1 1 0 1 1 0 1 0 0 1 1 0 1 0 1 0 1 0 0 1 1 0 1 1 0 1 1 0 1 1 1 0 0 0 0 0 1 1 1 1 1 0 0 0 0 0 0 1 0 1 0 0 1 0 1 1 1 0 1 1 0 0 0 1 0 1 0 0 1 1 1 0 0 1 0 1 1 0 1 1 0 0 1 1 0 0 0 1 1 1 1 1 1 1 0 0 1 1 1 0 1 1 0 1 1 0 1 0 1 0 1 1 1 1 0 0 1 0 1 1 0 1 1 0 1 1 0 0 1 1 1 1 0 0 0 1 1 0 0 1 1 1 1 1 0 0 0 0 1 0 1 1 1 0 0 0 1 0 1 0 0 0 0 0 0 1 0 1 0 0 0 0 0 1 1 1 0 1 0 0 1 1 0 0 1 0 0 1 0 1 0 1 1 1 1 0 0 1 1 1 1 0 0 1 0 1 1 1 1 0 0 1 1 0 1 1 0 1 0 1 0 1 1 1 1 1 1 1 0 1 1 0 1 0 1 1 0 1 0 1 0 1 0 0 1 1 0 0 0 0 1 0 0 0 0 0 0 0 1 0 0 1 1 0 1 1 0 0 1 0 1 1 0 1 0 1 1 0 0 1 1 0 1 0 1 1 1 0 0 1 1 1 0 1 0 1 0 1 0 0 0 0 1 1 1 0 1 1 1 0 0 1 1 1 0 0 1 1 1 0 0 0 1 1 0 1 0 1 1 1 0 0 1 0 1 1 1 0 0 0 1 0 0 1 0 0 0 1 0 1 0 0 0 1 0 1 1 0 1 1 0 0 0 0 0 0 0 1 1 1 1 1 0 0 0 1 0 0 1 1 1 1 1 0 1 0 1 0 1 0 1 0 1 0 1 1 0 0 1 1 0 0 0 1 0 0 1 0 1 1 1 0 1 1 1 0 1 0 0 0 0 1 1 1 1 0 0 0 1 0 1 0 1 0 0 0 0 1 1 1 0 1 0 1 1 1 0 1 1 0 1 1 0 0 1 1 0 0 1 0 0 0 0 1 1 1 0 0 1 1 1 1 1 1 0 0 0 0 1 1 0 0 1 1 0 1 1 1 1 1 0 0 0 1 1 0 1 1 1 0 1 1 0 1 0 0 1 0 0 1 1 1 1 1 0 0 1 1 0 0 1 0 0 1 0 0 0 1 1 1 1 1 1 1 1 0 1 1 0 0 0 1 1 0 1 1 1 1 0 1 0 0 0 0 1 1 0 0 1 1 0 1 0 1 1 1 0 1 1 1 1 1 0 0 1 0 1 1 0 1 1 0 0 0 0 0 1 0 1 1 1 1 0 0 0 1 0 0 0 1 1 1 1 1 0 1 0 1 1 0 0 0 0 1 0 0 1 1 0 0 1 0 0 0 1 1 1 0 0 0 0 1 1 1 1 0 1 0 0 0 0 1 1 0 1 1 1 0 1 0 0 0 1 1 1 0 0 0 1 0 0 0 1 0 0 0 1 1 0 0 1 1 1 1 0 1 0 0 1 0 1 1 1 1 0 1 0 1 0 0 0 0 0 0 0 0 1 1 1 0 1 1 0 1 1 1 0 1 1 0 1 1 1 0 1 0 0 1 1 1 1 1 0 1 1 1 0 0 1 0 0 0 0 1 0 0 1 1 0 1 0 1 1 1 0 1 1 1 1 0 0 0 0 1 0 1 0 1 0 0 1 0 1 1 0 0 1 1 0 1 0 0 1 1 0 0 0 0 0 0 1 1 0 0 1 1 1 0 0 0 1 0 1 0 1 1 1 1 0 0 0 1 0 1 1 0 0 1 0 0 0 0 0 0 0 0 1 1 0 1 0 1 1 1 1 0 1 1 0 1 0 1 1 0 0 1 0 0 1 0 1 0 0 1 1 0 1 1 0 1 1 0 1 1 1 0 0 0 1 0 1 1 0 1 0 1 0 1 1 0 1 0 1 1 1 1 0 1 1 1 0 0 0 0 1 1 0 0 0 0 0 0 1 0 0 0 0 0 1 0 0 1 1 1 0 0 1 1 0 0 1 0 1 1 0 0 0 0 1 1 1 0 1 0 1 0 1 1 0 1 0 1 1 1 1 1 1 1 0 1 1 0 1 1 0 0 0 1 0 0 0 0 0 1 0 1 1 0 0 1 1 0 0 1 0 0 0 0 1 1 0 1 0 1 1 1 1 1 0 1 1 0 0 1 1 1 0 1 1 0 1 0 0 1 0 0 0 1 1 0 1 1 1 0 0 1 1 0 0 0 1 1 1 0 1 1 1 1 1 0 0 0 1 0 0 0 1 1 0 0 0 0 1 0 0 0 1 1 1 0 1 1 0 0 0 1 1 1 1 0 1 0 0 1 0 1 0 1 0 0 1 1 0 1 0 0 0 1 0 0 0 1 1 1 0 0 1 0 1 0 0 0 1 1 1 1 0 0 1 0 0 1 0 1 0 1 1 1 1 1 1 1 1 0 1 1 0 0 1 1 1 1 1 0 1 0 1 1 1 1 0 0 0 1 0 1 1 1 0 0 0 0 1 0 1 1 1 1 1 0 0 0 1 0 0 1 1 1 0 1 0 0 1 1 0 1 0 1 1 0 1 1 0 0 0 0 0 1 1 0 0 0 1 0 0 0 1 1 1 0 1 1 1 1 0 1 0 1 1 0 0 0 1 1 1 1 0 1 1 1 0 0 0 0 1 1 0 1 1 0 0 1 1 1 0 1 1 0 0 1 0 0 0 0 0 0 0 1 0 1 0 1 1 1 0 1 0 1 1 1 1 0 0 1 0 1 1 0 1 1 0 1 1 1 0 0 1 0 0 1 0 0 0 1 0 1 0 0 0 1 0 1 1 1 0 1 1 0 1 0 1 1 1 0 0 1 0 1 1 1 0 1 1 1 0 1 1 0 0 0 0 1 1 0 0 0 0 0 1 0 0 1 1 1 0 1 0 0 0 0 0 1 0 0 0 0 0 0 0 0 0 1 1 1 0 1 0 0 0 1 1 1 1 0 1 1 1 0 1 0 0 0 1 0 1 0 0 0 1 0 1 0 1 1 0 1 0 1 1 1 1 0 0 0 1 0 0 0 0 0 0 1 0 1 0 1 0 0 0 1 1 1 0 1 0 0 0 0 1 0 1 0 1 1 1 0 1 1 0 1 0 0 1 0 0 1 1 0 0 1 1 1 0 1 0 0 1 1 0 1 0 1 1 0 0 1 1 1 1 1 0 0 1 1 0 0 1 1 0 1 0 1 0 1 1 0 1 0 0 1 0 1 1 1 0 1 0 0 0 0 1 0 1 1 0 0 1 0 0 0 1 0 1 0 1 1 1 1 0 0 0 1 1 1 0 1 1 1 1 1 0 0 0 0 0 0 0 0 1 1 0 1 1 0 0 0 0 1 0 0 0 0 0 0 0 1 0 1 1 0 0 1 0 1 0 1 0 0 0 0 1 1 0 1 0 0 1 1 1 0 1 0 1 1 1 1 0 0 1 1 1 0 0 1 0 0 1 1 1 0 0 0 1 1 0 0 0 1 0 0 1 1 1 0 1 0 1 1 1 1 1 1 0 0 0 0 1 1 0 0 0 1 0 1 1 1 0 1 1 0 0 0 1 1 0 0 1 0 1 0 1 1 1 0 1 0 0 0 0 1 0 1 1 1 1 1 1 1 1 1 0 0 1 1 0 1 1 0 1 1 1 0 1 1 1 1 1 1 1 1 1 1 1 1 0 1 1 1 1 0 1 0 1 1 1 0 1 1 0 0 0 0 0 0 0 1 1 1 0 0 1 1 0 1 1 0 1 0 0 0 0 1 1 0 1 0 0 0 0 0 1 0 0 0 0 1 0 0 0 0 1 0 1 1 0 1 0 1 1 0 1 1 1 1 0 0 0 0 1 0 1 0 1 1 1 1 1 0 0 0 1 1 1 1 1 0 0 0 0 0 0 0 0 0 1 1 1 1 1 0 0 1 1 1 1 1 1 1 0 1 1 0 0 1 0 1 1 1 1 1 0 1 0 1 0 1 1 0 0 0 1 0 1 1 0 0 0 0 0 1 0 1 0 1 1 1 0 1 0 1 1 1 0 0 1 0 1 0 0 1 1 0 0 0 0 0 1 1 1 1 0 0 1 0 1 1 1 0 0 0 0 1 1 0 1 1 0 1 1 0 0 0 1 0 1 1 1 0 0 1 0 1 1 1 0 0 1 1 0 1 0 1 0 0 1 1 0 0 1 0 1 0 0 1 0 0 0 1 0 1 1 1 1 0 1 0 0 0 0 1 0 0 0 1 0 0 1 0 0 0 0 0 0 0 1 0 0 0 1 0 1 1 0 0 0 0 0 1 1 1 0 1 1 0 1 1 1 0 0 1 0 0 1 1 0 1 1 1 0 1 1 1 1 0 0 0 0 1 1 0 0 1 0 1 1 0 0 1 1 0 1 1 0 1 0 1 0 1 1 0 1 1 1 0 1 1 0 1 0 0 0 1 1 0 1 0 0 0 1 1 0 0 1 1 1 1 1 0 0 0 0 0 1 1 0 0 0 0 0 1 1 0 0 0 0 0 0 0 1 1 1 0 0 1 0 0 1 0 1 1 1 0 1 1 1 0 1 0 0 0 1 0 0 1 1 0 1 1 1 0 0 1 0 1 0 1 0 0 0 1 0 0 1 1 0 0 0 0 1 0 0 1 1 1 0 1 1 1 0 1 1 0 1 1 0 0 0 0 1 0 1 0 1 1 1 1 1 0 0 1 1 0 1 1 1 0 0 1 1 1 1 0 0 0 1 0 1 1 0 1 0 1 1 0 1 0 1 1 1 0 0 0 1 1 0 0 1 0 1 0 1 1 0 0 1 0 0 1 0 1 1 0 1 1 0 0 0 0 1 1 0 1 0 1 0 1 0 0 1 1 0 0 1 0 0 1 0 1 0 0 0 0 0 1 1 1 0 0 0 1 1 0 1 0 1 0 1 1 0 1 0 1 0 0 1 0 1 0 0 1 0 0 0 0 0 1 1 1 0 0 1 1 1 1 1 1 1 1 0 1 0 1 1 0 0 1 1 0 1 1 0 1 0 0 0 0 0 0 1 0 0 1 0 1 0 0 1 1 0 0 0 0 1 1 0 1 1 1 0 0 0 0 0 0 0 0 0 1 1 1 0 1 0 1 1 0 1 0 0 1 1 1 0 1 0 0 0 1 0 0 0 0 0 1 1 0 1 0 0 1 0 0 0 1 0 0 1 1 1 1 1 0 0 1 0 0 1 0 1 1 1 1 0 1 1 1 1 0 0 1 1 0 0 1 1 1 0 0 0 0 1 0 1 0 0 1 1 1 1 0 0 1 0 1 0 0 0 1 1 1 0 1 1 1 1 1 0 0 1 0 1 1 0 0 1 1 1 0 0 0 0 1 0 1 1 1 1 1 1 0 0 1 1 0 1 1 0 0 1 0 0 0 0 0 1 0 1 1 0 1 0 0 1 0 0 0 0 0 0 0 0 0 1 1 0 1 1 1 1 1 1 0 1 1 0 0 1 0 0 0 0 1 1 0 1 0 0 0 1 0 1 1 1 1 1 0 1 1 0 0 1 0 1 0 1 0 0 0 0 0 0 1 0 1 1 1 1 0 1 0 1 1 0 1 0 0 0 0 1 0 1 1 0 1 1 1 0 0 1 1 0 0 1 0 1 0 0 0 0 1 1 0 1 0 0 0 1 0 1 1 0 1 0 0 1 1 0 1 1 0 1 0 0 0 1 1 1 1 0 0 1 1 1 1 0 0 0 1 0 1 0 0 1 0 1 1 1 1 0 1 0 0 0 0 1 0 0 0 1 0 0 1 0 0 1 0 1 0 0 0 0 0 1 0 1 0 0 0 1 0 1 1 1 0 0 0 0 1 0 0 0 1 1 1 0 0 0 0 1 1 0 1 0 1 1 1 0 1 0 0 0 0 1 0 0 1 0 1 1 0 0 1 0 1 1 0 0 0 1 0 0 0 1 0 0 1 1 0 1 1 1 0 1 0 1 0 0 0 0 1 1 0 1 1 1 1 1 1 1 1 0 0 1 0 0 0 0 1 1 0 1 1 0 1 1 0 0 1 0 0 1 0 0 1 1 0 1 0 1 0 0 1 0 0 0 1 0 1 0 1 1 1 1 0 1 0 0 1 1 0 0 0 0 1 0 0 0 1 1 1 0 1 1 0 1 0 1 0 1 0 0 0 1 0 0 0 0 0 1 0 0 0 1 1 0 0 0 1 0 0 0 1 0 0 0 1 0 1 1 1 1 1 0 0 1 1 1 0 1 1 1 0 0 1 1 1 1 1 0 1 0 0 0 1 0 1 0 0 0 0 1 1 1 0 0 0 0 1 0 0 1 1 1 1 1 1 1 1 1 0 0 0 1 1 0 1 1 1 0 1 1 0 0 1 1 0 0 1 0 0 0 1 0 1 1 1 0 1 1 0 1 1 0 1 1 0 0 0 1 1 0 1 0 1 1 0 1 1 0 1 0 1 1 0 0 0 0 1 0 0 0 0 1 1 1 0 1 1 1 1 0 0 0 0 1 1 1 0 1 1 1 0 0 0 0 0 1 0 0 0 1 1 1 1 0 1 1 1 0 1 0 0 1 0 0 1 1 0 0 0 0 1 0 0 1 1 1 0 1 0 1 0 0 0 0 0 0 1 0 1 0 1 0 0 1 1 1 1 0 0 0 0 0 0 0 1 1 0 1 1 0 0 0 0 1 0 0 1 1 0 1 0 0 1 1 0 1 1 0 1 1 0 0 1 0 1 0 0 0 0 0 1 0 1 0 1 1 1 1 1 0 0 0 0 1 1 0 0 0 1 1 1 1 1 1 1 1 0 0 1 0 1 1 0 1 0 0 1 0 1 0 0 1 0 0 0 1 1 0 0 1 1 0 1 0 1 1 0 0 1 0 0 1 1 0 0 1 0 0 0 1 1 1 0 0 0 1 1 1 0 1 1 1 1 0 0 1 1 1 0 1 0 0 1 1 0 1 1 1 0 1 1 1 0 0 1 0 1 1 1 0 0 1 0 1 1 0 1 1 0 0 0 0 0 1 1 1 0 1 0 0 1 1 1 0 0 0 1 0 1 1 0 1 1 0 1 1 0 1 0 0 1 0 0 0 1 1 0 1 0 0 0 1 0 1 0 0 1 1 0 0 0 1 1 1 0 1 0 1 1 1 1 1 1 0 0 0 0 0 0 1 0 1 1 1 1 1 0 0 1 1 1 1 1 1 0 1 1 1 0 1 0 0 1 0 1 1 1 0 1 1 0 1 1 0 1 1 0 1 0 1 1 1 1 0 1 1 0 0 0 1 1 1 1 0 0 1 1 1 0 1 0 1 1 0 1 1 0 1 1 0 1 0 1 1 0 0 1 0 0 0 1 1 0 1 1 0 1 0 0 0 1 0 0 0 1 1 1 0 1 1 1 0 0 1 1 1 0 0 0 0 0 0 1 1 1 0 1 0 1 1 0 0 1 1 0 1 1 0 0 1 1 1 0 0 1 0 0 1 1 0 0 1 1 0 1 1 0 0 0 1 1 1 0 0 1 0 1 1 0 0 1 0 1 0 1 0 1 0 0 0 1 0 0 0 1 1 1 1 1 1 0 1 1 0 1 0 0 0 0 0 1 1 0 0 0 0 1 0 1 0 0 0 0 0 1 1 0 0 1 1 1 1 0 0 1 0 1 0 0 1 1 1 0 0 1 1 1 0 1 1 0 0 1 0 1 0 1 0 1 1 0 1 0 1 1 0 1 0 0 1 1 0 0 0 1 0 1 1 0 0 1 0 0 1 0 0 0 1 0 0 0 1 1 0 1 1 1 1 0 1 0 1 0 1 0 1 0 0 0 1 0 0 0 1 1 0 1 0 0 1 0 1 0 0 0 1 1 0 1 0 1 0 0 1 0 0 0 0 1 0 1 0 1 1 1 0 0 0 0 1 0 0 0 1 0 1 1 1 1 1 1 0 1 1 0 0 1 1 0 1 0 0 1 1 0 1 1 1 0 1 0 1 1 0 0 1 0 0 0 0 0 0 1 0 0 1 1 0 1 1 0 0 0 1 0 0 1 1 0 0 0 1 1 1 1 1 1 1 1 0 0 1 1 1 1 0 1 1 1 1 1 1 1 1 0 1 0 1 0 0 0 1 0 0 0 1 1 1 0 0 0 1 1 0 0 0 0 1 0 1 1 0 1 0 1 0 0 0 0 1 1 0 1 1 0 1 0 0 1 0 1 0 0 0 0 0 1 1 1 0 0 1 1 0 1 1 0 0 0 0 0 1 0 1 0 1 0 1 1 1 1 0 1 0 0 1 0 0 1 1 0 1 1 0 0 0 1 0 0 1 0 1 1 0 1 1 0 0 1 1 0 0 0 1 0 1 1 1 1 1 1 1 1 0 1 0 1 1 1 0 1 1 1 1 0 0 0 0 1 0 1 0 0 0 1 1 0 1 0 1 0 0 0 0 0 1 0 1 0 1 0 0 1 1 1 1 1 1 0 0 0 0 0 1 0 1 1 1 0 1 1 0 1 0 1 1 1 0 0 0 0 0 0 0 0 1 0 0 0 1 1 0 1 0 1 1 0 1 0 0 0 0 1 0 0 1 0 1 1 1 0 0 0 1 0 0 0 1 0 1 0 0 0 1 0 0 1 1 0 1 1 0 1 1 1 1 0 1 1 1 0 0 0 1 1 1 1 0 0 1 1 0 0 0 0 0 0 0 1 1 0 1 0 0 0 0 0 0 1 0 0 0 1 0 0 1 1 1 1 1 1 0 1 0 0 1 1 0 1 0 1 0 0 1 1 0 1 1 1 0 0 0 0 0 0 1 1 0 0 1 1 0 1 0 1 0 0 0 0 1 0 1 1 1 0 0 1 0 1 0 1 1 1 0 0 0 1 0 0 1 1 1 1 0 0 0 1 1 1 1 0 0 1 0 0 0 0 0 0 1 1 0 0 1 1 0 0 1 0 0 0 1 0 0 1 1 0 0 0 1 0 0 1 0 1 1 0 1 1 0 0 1 1 0 1 0 0 1 1 1 0 1 1 1 1 0 0 1 1 1 1 1 0 0 1 0 0 1 1 0 1 0 0 0 0 1 1 1 0 1 0 0 1 1 1 0 0 0 0 1 0 1 0 0 0 1 0 0 1 0 0 1 0 1 0 0 1 1 1 0 1 1 0 1 0 1 1 0 0 1 1 1 0 1 0 0 0 1 0 0 1 0 1 1 1 1 1 0 0 1 1 0 0 1 0 1 0 1 1 0 0 0 0 0 0 0 0 0 0 0 0 0 1 1 0 1 1 1 0 1 0 0 1 1 1 1 0 1 0 1 1 1 1 1 1 1 0 0 0 0 1 1 1 0 1 0 0 1 1 1 1 0 0 1 0 1 1 0 0 0 0 1 0 1 1 1 0 1 0 1 0 1 1 1 0 0 1 0 1 0 0 0 1 1 1 0 0 1 0 1 1 0 0 0 0 0 0 1 0 0 1 0 0 0 1 1 1 0 1 0 0 1 1 1 0 1 1 1 1 1 0 1 0 1 1 0 0 1 1 0 1 0 1 1 0 1 0 0 1 0 1 0 0 1 0 1 1 1 1 0 0 0 1 1 0 0 0 1 1 1 1 1 0 0 0 1 0 1 0 0 1 1 0 0 1 0 0 1 0 0 0 0 1 0 0 1 1 0 1 0 1 1 1 0 1 1 1 0 0 0 0 1 1 0 0 0 0 1 0 0 0 1 1 1 1 1 0 1 1 0 0 1 1 0 0 1 1 1 1 1 0 0 1 1 0 1 0 1 1 0 1 0 1 1 1 1 0 0 1 1 1 1 1 1 1 1 0 0 0 0 0 0 0 0 0 1 0 1 1 1 1 1 1 0 0 0 0 0 1 0 0 1 1 0 1 0 1 0 0 1 1 1 0 0 0 1 1 1 0 1 0 1 1 1 1 1 0 0 0 1 1 1 0 0 1 1 0 1 1 1 0 0 0 1 0 1 1 1 1 0 0 1 1 0 0 0 1 0 1 0 1 0 1 1 0 0 1 1 1 0 0 0 1 1 1 1 1 0 1 1 0 0 0 1 0 1 0 0 1 0 0 0 1 0 0 1 1 1 1 1 1 0 1 0 1 0 0 0 0 0 1 0 0 0 0 1 0 1 0 1 1 0 1 1 0 1 1 1 0 1 1 1 0 1 0 1 1 1 0 1 0 1 1 0 0 0 0 0 1 0 1 0 1 1 0 0 0 0 0 1 0 0 1 0 0 1 1 1 0 1 0 1 0 0 0 0 1 0 1 0 1 1 1 1 0 0 0 1 0 1 0 0 1 0 1 0 0 1 0 1 1 1 1 0 0 0 1 0 0 1 0 0 0 1 1 1 1 1 0 0 1 1 1 1 0 0 0 0 1 1 1 0 1 1 1 1 1 0 1 1 1 1 1 1 1 0 0 0 0 1 1 1 1 0 0 0 0 0 0 0 1 1 1 1 1 1 1 1 1 0 0 0 1 0 0 0 1 1 1 1 1 1 0 1 0 0 0 1 0 1 0 0 0 0 0 0 0 0 1 0 0 1 1 1 0 0 1 1 1 1 1 0 0 0 1 1 1 1 0 0 1 0 1 1 1 0 0 0 1 1 0 1 0 0 1 0 1 1 0 1 0 1 1 1 0 1 0 0 0 1 0 1 0 0 0 0 1 0 1 1 1 1 0 1 0 1 1 1 0 0 1 0 1 0 0 1 1 0 1 0 0 0 1 0 1 0 1 1 0 0 0 1 1 1 1 0 1 1 1 1 0 1 0 1 0 0 0 1 1 1 1 0 0 1 0 1 0 1 0 0 1 0 1 0 0 1 1 1 0 0 1 0 1 0 0 0 1 0 1 1 1 1 0 1 1 0 1 1 1 1 0 0 1 0 1 0 0 0 1 0 1 0 0 0 0 0 0 1 0 1 1 0 0 0 0 1 1 1 0 1 1 1 0 0 1 0 1 0 1 1 1 1 0 1 0 0 0 0 0 0 1 1 1 1 1 1 0 0 1 1 0 1 1 1 1 1 0 1 0 0 1 1 0 1 0 1 1 0 0 0 1 0 0 1 1 1 1 0 0 1 0 1 1 0 0 1 1 1 1 0 1 1 0 1 0 1 1 1 1 1 1 0 0 1 0 0 0 0 0 1 1 1 1 0 0 0 1 0 0 0 0 0 1 1 1 1 0 0 1 0 0 1 0 0 0 0 1 0 1 0 1 0 0 0 0 1 0 0 1 0 0 0 1 1 1 1 0 0 0 0 0 0 0 1 1 1 0 0 1 1 1 1 1 0 1 1 0 1 1 1 1 1 1 0 0 1 0 0 0 1 0 1 0 0 1 0 1 1 0 1 0 0 1 0 0 1 1 1 1 0 1 0 0 0 1 0 1 1 1 0 0 1 1 0 0 0 0 0 0 1 0 1 1 1 1 1 1 1 0 1 0 1 0 1 0 1 1 1 1 1 1 0 1 0 1 1 0 1 0 1 1 1 0 1 1 0 0 1 1 0 0 0 0 1 0 1 1 1 1 1 1 0 1 0 0 1 1 1 0 0 1 0 0 1 1 1 0 0 0 1 1 1 1 1 1 1 0 1 1 1 0 0 1 0 0 0 1 1 1 0 0 1 0 1 0 0 1 0 1 1 0 0 0 1 1 0 1 1 0 1 1 0 1 0 0 1 0 1 1 1 0 0 1 1 0 1 0 0 1 0 1 0 1 0 1 0 0 1 1 1 0 0 0 1 0 0 0 1 1 1 1 0 1 0 0 0 0 1 1 0 1 0 0 1 1 1 1 0 0 0 0 0 0 1 0 0 0 1 0 0 0 1 1 0 0 0 1 0 1 0 1 0 0 1 1 1 1 1 1 0 1 0 0 1 0 1 1 1 1 1 0 0 1 0 0 0 1 1 0 0 0 0 0 1 1 1 0 0 1 0 1 0 0 1 1 1 1 1 0 0 1 0 1 0 0 0 0 0 1 0 1 0 0 1 1 0 1 1 1 0 1 0 1 0 0 1 1 1 0 0 1 1 0 1 0 0 0 0 0 0 1 1 1 0 1 1 0 0 1 0 1 0 1 0 1 0 0 1 1 1 1 1 1 0 1 1 1 0 1 1 1 1 1 1 1 0 0 1 1 1 1 1 1 0 1 1 0 1 0 1 0 1 0 0 0 0 0 1 0 0 0 0 1 0 1 0 0 0 1 1 1 0 0 0 0 0 0 1 0 0 1 1 0 1 1 0 1 1 0 0 0 0 0 0 0 0 0 0 0 0 1 0 1 0 0 1 1 1 0 1 1 0 1 0 0 0 1 0 1 0 1 0 1 0 0 0 1 0 1 1 1 1 1 1 1 0 1 0 0 0 1 1 1 1 0 0 1 0 1 1 1 0 0 1 0 0 1 0 0 1 1 0 1 1 0 1 1 1 0 1 0 0 1 0 1 1 1 1 0 0 1 0 0 1 1 1 0 1 0 0 1 1 1 0 0 1 1 1 1 1 1 0 0 1 1 0 0 1 0 1 0 1 1 0 0 1 0 1 0 1 1 1 1 1 1 0 1 0 0 1 0 0 0 1 1 1 1 1 1 1 0 0 0 1 1 0 1 1 1 0 1 0 0 0 0 0 1 1 0 1 1 1 1 0 0 0 0 0 0 1 1 0 1 0 1 1 1 0 1 1 1 0 0 1 1 0 1 0 1 1 1 1 1 0 1 0 0 0 0 0 1 1 0 0 0 1 0 1 0 0 1 0 1 1 1 0 1 0 1 0 1 0 1 0 1 1 1 0 0 0 1 0 0 1 1 1 0 0 0 1 0 0 1 0 1 0 1 1 0 1 1 1 0 1 0 1 0 0 1 0 1 0 1 1 1 0 0 1 1 0 1 0 1 1 0 1 1 0 0 1 1 1 1 0 0 1 0 0 1 1 0 1 0 0 1 0 1 1 1 1 1 0 0 1 0 1 0 1 0 0 0 0 1 1 1 0 0 0 1 0 1 0 1 1 1 0 0 0 0 0 0 0 0 0 1 0 1 0 1 0 0 1 0 1 1 0 0 1 0 1 0 0 1 0 1 0 0 1 1 1 1 1 0 0 0 0 1 0 1 1 1 1 1 0 0 1 0 1 1 0 0 0 0 1 0 1 1 0 1 1 0 1 1 1 1 0 0 1 0 0 0 1 0 0 1 0 1 1 0 0 1 0 1 0 0 1 0 1 1 0 1 0 1 0 0 1 0 0 0 1 1 1 1 1 1 1 1 0 0 0 0 1 1 1 0 1 0 1 1 0 0 0 1 1 0 0 1 1 1 0 1 1 1 0 1 1 1 1 1 1 1 1 1 1 1 0 0 1 0 1 0 1 1 0 0 1 1 0 0 1 1 1 1 1 1 1 1 1 0 1 1 0 0 1 0 0 1 1 1 1 0 1 1 1 0 1 1 0 1 0 0 1 0 1 1 0 1 1 1 1 0 0 0 0 1 0 0 1 1 0 0 1 1 0 1 1 1 1 0 0 0 0 0 0 0 0 0 1 0 0 0 1 0 0 0 0 1 1 1 1 0 1 1 1 0 1 1 1 1 1 1 0 1 1 1 0 1 0 0 1 1 0 0 0 1 0 0 1 0 1 1 0 0 0 0 0 1 0 0 0 0 0 0 0 0 0 1 0 1 1 1 1 0 1 0 0 0 0 1 0 1 0 1 1 0 0 1 1 1 0 1 0 1 0 1 0 1 1 1 1 0 0 1 1 1 0 1 0 0 0 1 0 0 0 1 0 0 0 0 1 0 1 1 0 0 0 0 0 0 0 0 1 0 1 1 1 1 0 1 1 1 1 0 1 0 1 1 1 1 1 0 1 1 1 1 1 1 0 0 0 1 1 1 0 1 0 0 1 0 1 0 0 0 1 0 0 1 0 1 1 1 0 0 0 0 0 0 0 1 0 1 0 1 1 1 1 0 0 0 1 1 1 1 1 1 0 0 1 1 0 0 1 0 0 1 0 0 0 1 0 0 1 1 0 0 0 1 0 0 1 1 0 1 1 1 1 1 1 0 1 1 0 1 1 1 1 0 0 1 0 0 0 0 0 1 0 1 0 0 0 1 1 0 1 0 1 1 1 1 1 0 0 0 0 0 0 1 0 1 0 0 0 1 0 0 0 0 0 0 0 1 0 0 0 0 1 1 1 0 1 0 0 0 0 0 0 1 0 0 1 1 1 0 0 1 0 0 1 1 0 0 0 0 1 1 0 1 1 1 1 1 1 0 1 1 0 0 1 0 1 0 1 0 1 1 1 1 0 1 0 1 1 1 1 1 0 1 0 0 1 1 1 1 1 1 0 0 1 0 1 0 0 1 1 1 0 0 1 1 0 0 1 1 1 1 1 1 0 1 1 0 1 1 1 1 1 0 0 1 0 0 1 1 1 1 1 0 0 0 0 1 0 0 1 1 1 1 0 1 0 0 0 1 0 1 0 1 0 0 0 1 1 1 1 0 1 1 1 0 1 1 1 1 1 1 1 0 1 0 1 0 1 0 1 1 0 1 0 0 0 1 1 1 0 0 0 1 1 0 1 1 1 0 0 1 1 1 1 1 1 1 0 1 1 1 0 1 0 1 0 0 1 0 1 1 1 1 1 0 0 1 0 1 0 0 1 0 1 0 0 1 1 1 0 1 0 1 0 1 0 1 1 1 0 0 0 0 1 0 1 1 1 0 1 0 1 0 1 1 1 0 1 0 0 1 1 1 0 0 0 1 0 1 1 1 1 0 0 0 1 0 1 1 0 0 1 0 1 1 0 1 0 1 1 0 1 1 0 0 0 1 1 0 0 1 1 0 0 1 1 0 0 1 0 0 1 0 1 0 1 1 1 0 1 0 0 1 0 1 0 1 0 1 1 0 0 1 0 0 1 1 1 0 1 1 0 1 1 0 0 0 0 1 1 0 0 0 0 1 1 0 1 0 1 0 0 1 0 0 1 1 1 1 1 1 0 0 0 1 0 1 0 0 1 0 0 0 0 1 0 0 1 0 1 0 0 1 0 1 1 1 0 1 1 1 0 1 1 0 0 1 0 1 0 1 1 0 1 1 0 1 0 1 1 1 1 0 1 0 0 0 1 0 0 0 1 1 0 0 1 1 1 0 1 1 0 0 0 0 1 1 1 0 0 1 1 0 0 1 0 0 0 0 0 0 1 1 0 1 0 0 0 1 0 1 0 1 1 0 0 1 0 0 0 1 0 0 0 1 0 1 0 0 0 0 0 1 0 0 1 1 0 0 1 0 1 1 1 0 0 0 0 0 1 1 1 1 0 0 1 0 1 1 1 1 0 0 1 0 1 0 0 0 0 1 0 0 1 1 1 0 0 0 0 1 0 0 1 1 0 1 0 1 0 0 1 1 1 1 1 0 1 1 1 0 1 0 1 1 0 0 0 0 1 1 0 1 1 1 0 1 1 1 1 1 1 1 0 0 1 1 1 1 1 0 0 1 0 1 1 0 0 0 0 1 1 0 1 0 0 1 1 0 1 0 0 0 0 0 1 1 1 1 0 0 0 0 0 0 1 0 0 1 0 1 1 0 0 0 0 0 0 1 1 0 0 1 0 1 0 0 1 0 1 1 1 0 0 1 1 0 0 1 0 0 0 1 1 1 0 0 1 0 0 0 1 0 0 0 0 0 1 0 1 1 0 0 0 1 0 1 0 0 0 1 1 1 0 1 1 1 1 0 1 0 1 0 0 1 0 1 0 0 0 1 1 0 0 1 1 0 1 0 1 0 1 0 0 1 1 1 1 1 0 0 1 1 0 1 1 0 0 1 1 1 0 1 1 1 0 1 0 1 0 0 1 1 1 1 1 0 0 0 0 1 0 0 1 1 0 1 1 1 0 1 1 0 0 0 0 0 1 0 0 1 0 1 0 0 0 1 0 0 1 1 1 0 1 1 0 0 1 0 1 0 1 1 1 0 1 1 1 1 1 1 0 1 1 0 0 1 1 0 1 1 0 1 1 1 1 1 1 0 0 0 1 0 1 1 1 1 0 0 1 1 1 1 1 0 1 1 1 0 0 1 0 0 1 1 0 1 0 1 1 0 0 1 1 1 1 1 0 1 0 0 0 0 1 0 1 1 1 0 1 1 1 1 0 0 0 1 0 1 0 1 1 0 0 0 0 1 0 0 0 0 1 1 1 1 1 1 1 0 1 1 0 0 1 1 1 0 1 0 1 1 1 1 1 1 0 0 0 1 0 0 1 1 1 0 1 0 0 1 0 0 0 0 1 0 1 1 1 0 0 1 0 1 1 0 1 0 0 0 0 1 0 1 1 1 1 0 0 1 0 1 0 0 0 0 1 1 0 0 0 1 1 1 0 0 1 1 0 1 1 0 0 0 1 1 0 0 1 0 0 0 0 1 1 0 0 1 0 0 0 0 1 0 0 0 0 0 1 0 0 0 1 0 0 1 0 0 1 1 0 1 0 1 1 0 1 0 1 1 0 0 1 1 1 0 0 0 0 0 1 1 1 0 0 1 0 1 0 0 1 0 0 0 1 1 0 0 1 1 1 1 1 0 1 1 1 0 0 0 1 0 1 0 1 1 1 0 1 0 0 0 1 0 0 0 0 0 0 0 1 0 0 1 1 0 0 1 0 1 0 0 0 0 0 0 1 1 0 0 1 1 0 1 0 1 1 0 1 0 1 1 0 0 0 0 0 1 0 0 0 1 0 0 0 1 1 0 0 1 0 0 1 1 1 0 0 1 1 1 1 1 1 1 0 1 1 0 0 1 1 1 1 0 1 1 1 1 0 1 0 0 1 1 1 0 0 0 1 0 0 0 0 1 0 0 0 0 0 1 1 0 1 1 1 0 1 1 0 1 1 1 1 1 0 1 1 0 0 0 1 0 0 0 1 0 1 0 1 0 0 1 0 1 0 1 0 1 1 1 1 0 0 1 0 1 0 0 0 1 1 0 0 0 0 0 1 0 0 0 0 1 1 0 0 1 0 1 1 1 0 1 0 0 0 0 0 0 1 0 0 1 1 0 0 0 0 0 1 1 0 1 0 0 1 0 0 1 1 0 0 0 0 0 1 0 1 1 1 1 0 0 0 1 0 0 1 1 1 0 1 0 0 1 1 0 1 1 0 0 0 1 1 1 0 0 0 1 1 0 1 1 1 0 1 1 0 1 0 1 1 1 0 0 0 0 0 1 0 1 0 1 1 1 1 0 1 1 1 0 0 0 1 0 0 0 0 1 1 1 1 0 1 0 1 1 1 1 1 1 0 1 0 1 0 0 1 0 1 0 1 0 1 0 1 1 1 0 1 0 1 0 0 1 1 0 1 1 1 1 1 0 1 0 0 0 0 1 0 0 0 0 1 1 0 0 0 1 0 0 1 0 0 0 0 1 0 0 0 1 1 1 1 1 0 1 0 1 1 1 1 0 0 0 0 1 1 1 0 0 0 0 0 0 0 1 0 0 1 0 1 0 1 1 0 0 0 1 0 1 1 1 0 0 0 1 1 0 0 0 1 0 0 1 1 0 1 1 0 1 1 0 1 0 1 0 1 1 0 0 1 0 0 0 0 0 1 1 1 1 1 0 0 1 0 1 0 1 0 0 0 1 1 1 1 0 0 0 1 0 0 0 0 1 1 1 1 0 1 0 0 0 0 0 0 1 0 1 1 1 1 0 0 0 1 1 1 0 1 1 1 0 0 0 1 0 0 1 0 0 1 1 1 1 1 0 1 0 0 1 1 1 0 1 1 1 0 0 1 0 1 0 0 1 0 0 0 1 1 1 0 0 0 0 0 1 1 0 1 0 0 1 0 0 0 0 1 1 1 1 1 0 0 1 0 1 0 1 1 0 1 0 0 1 0 0 1 1 1 0 0 1 1 0 0 1 1 0 1 0 0 0 0 0 1 1 0 1 1 0 0 1 1 0 0 1 1 1 1 0 0 0 0 1 0 1 0 0 0 1 0 0 1 1 0 0 1 1 1 0 1 0 0 0 0 1 0 1 0 0 0 0 0 1 1 1 1 1 1 1 1 0 0 1 0 1 1 0 1 0 0 1 0 0 1 0 0 0 0 1 0 0 0 1 1 0 0 0 1 0 0 0 0 1 0 0 1 1 0 0 1 0 1 0 0 0 1 1 0 1 0 1 0 0 0 1 0 0 0 1 0 1 1 1 1 1 0 0 0 0 1 0 1 0 0 1 1 1 1 1 1 1 1 0 1 0 1 0 1 1 1 0 0 0 1 0 0 0 0 0 1 0 0 0 0 1 0 1 1 0 0 0 1 1 1 0 0 0 0 1 0 1 0 1 0 1 1 1 0 1 0 1 0 0 1 0 1 1 1 1 1 0 1 1 0 1 1 0 1 0 1 0 1 0 0 0 0 1 0 1 0 0 1 1 1 1 0 0 0 0 0 0 0 1 0 1 0 0 0 1 1 0 1 1 1 0 1 1 0 1 1 1 0 1 1 0 1 1 1 1 0 0 1 1 0 0 0 0 1 1 0 1 0 1 1 0 0 1 1 0 1 0 0 0 0 0 1 1 1 0 0 0 1 0 1 1 1 0 1 1 0 0 0 1 0 1 1 0 0 1 1 1 0 1 0 1 0 1 1 0 0 1 1 1 1 1 0 1 1 0 1 0 0 0 1 0 1 1 0 0 0 1 0 1 0 0 0 0 1 0 1 1 0 1 0 1 0 0 1 0 0 1 1 0 0 1 0 1 0 0 0 1 1 0 0 0 0 0 0 1 0 1 1 1 0 1 0 0 1 1 0 1 1 1 1 1 0 0 1 1 1 1 1 1 1 1 0 0 1 1 1 1 0 1 0 0 1 1 0 0 0 0 0 0 0 0 1 1 0 1 0 1 1 1 0 1 0 1 0 0 1 0 0 1 0 1 0 1 0 1 1 1 0 0 1 1 1 0 0 1 0 1 0 1 1 0 1 0 0 0 1 0 1 0 0 0 1 1 1 1 0 1 1 1 1 0 1 1 1 0 1 0 1 1 1 1 0 1 0 0 0 0 1 0 0 0 0 0 1 1 0 1 1 0 1 0 1 0 1 0 1 0 0 1 0 0 1 1 1 1 1 0 0 0 0 1 0 1 1 0 1 1 0 1 1 0 1 1 1 0 1 0 1 1 0 1 1 0 1 1 1 0 1 1 1 0 1 0 1 1 0 1 1 0 1 0 0 0 0 1 1 0 0 1 1 1 0 1 1 0 1 0 1 1 1 1 0 0 0 1 1 0 0 0 0 1 1 0 1 1 0 0 1 1 0 1 0 0 1 1 1 1 1 1 0 1 1 0 0 0 0 1 1 0 1 1 0 0 1 1 0 1 1 0 1 0 0 1 1 1 0 1 1 1 1 1 1 0 0 0 0 1 1 1 1 0 1 1 0 1 0 0 0 1 1 0 1 0 1 0 1 0 0 0 0 1 1 1 0 1 0 1 0 0 1 0 0 1 0 1 0 1 1 0 0 0 0 1 1 1 0 0 1 1 1 1 1 1 1 0 1 0 0 0 1 0 0 0 0 1 0 0 0 0 1 1 0 0 1 0 1 1 0 1 0 0 0 0 1 1 1 0 0 0 1 0 0 1 1 0 1 1 1 0 1 1 0 0 0 1 0 1 0 1 1 0 0 0 1 1 1 0 1 0 0 0 0 0 1 1 1 0 1 1 1 0 0 1 1 1 0 1 0 1 1 1 0 1 0 0 1 1 1 1 1 0 0 0 0 0 0 1 0 0 0 0 1 1 0 1 1 0 1 1 0 1 1 0 1 1 0 0 1 1 0 0 0 0 1 1 0 1 0 0 0 1 1 0 1 1 0 1 0 1 1 1 1 0 0 1 0 0 0 1 1 0 1 1 1 1 0 1 0 1 0 1 0 0 0 0 0 1 0 0 1 0 1 0 0 1 0 0 0 1 0 0 0 1 1 0 1 0 1 0 0 0 1 1 0 1 0 0 1 1 0 0 1 0 0 1 0 1 0 0 0 1 0 0 0 0 0 1 1 0 1 1 0 0 0 1 0 0 1 0 1 0 1 0 1 1 0 0 0 1 0 0 1 1 0 0 1 0 1 0 1 1 0 0 1 0 1 1 1 0 1 1 1 1 0 1 0 0 1 0 1 0 1 1 0 1 1 1 0 0 1 1 0 1 0 0 0 0 0 0 0 1 1 1 1 1 0 1 0 0 0 0 0 1 0 0 0 0 1 1 0 1 0 0 0 1 1 1 1 1 0 0 0 0 1
18192 13426
10907 8122
19038 19056
13908 5947
7311 16919
18841 10265
5437 16359
7820 18571
14342 1234
10281 401
14092 8456
2037 6161
401 2453
10184 3563
14971 15887
16723 16776
3027 13437
7356 8731
7523 9737
9089 7520
8307 8404
11276 17032
7079 16231
10507 12187
8666 18032
11603 18566
8263 17762
11294 8660
11472 62
13547 12476
16175 2535
15000 4010
2524 13158
11178 12351
859 3876
16472 17127
1966 2015
16666 12169
7915 3326
4668 11707
18269 14641
14007 16989
17018 8585
18293 11510
3886 9585
8563 7493
3275 15239
3811 181
2033 2476
1157 10901
9252 11280
18147 361
6549 3083
10599 8831
14207 9432
15948 8998
6737 11251
11388 17541
3423 10211
13131 18290
609 18797
1729 12781
12790 10745
11943 8854
4203 3900
3428 8661
14605 2179
6699 3462
17192 3468
365 8589
18172 3560
10647 13274
8384 18851
6811 3065
6113 8354
6839 8002
19198 11954
14341 15026
14938 1308
18116 18063
3401 13242
11705 5514
14254 17923
5736 5456
9101 13025
17794 2399
12920 1341
18799 8935
7390 7929
1560 11401
16395 11192
1364 14573
9012 6636
9914 1740
16831 1397
7826 10072
13485 12937
13024 9068
19379 9161
11337 13201
17337 18466
7782 19191
16871 525
10252 10543
564 10864
13391 18833
13421 220
9945 13510
19521 16297
19306 5733
3756 241
13642 3974
7212 13836
4542 9316
1066 16441
15487 16341
10701 17554
17501 8446
17140 10839
17235 16280
654 7304
9193 16925
4804 14889
5045 1444
15930 7621
16171 12720
3673 11700
11124 3865
4102 10178
2295 9294
17425 13442
3507 5430
4581 11591
3924 5077
4863 7575
11993 14246
11620 5846
11500 12225
3777 19382
868 7788
6391 6554
10382 4173
18055 14864
10224 18504
2965 13985
3883 9748
7159 16033
64 15875
13428 9861
644 12499
932 2785
4697 6602
15875 2064
8913 17991
2024 11130
14781 13352
13186 3718
18249 11850
16796 18746
1289 12245
1756 3661
10777 5494
12541 2267
3651 9233
15458 6612
1540 16782
11176 11680
15802 15904
12742 8081
4200 4147
18139 4964
103 11263
17177 17762
4471 6839
1787 16855
5389 7650
17113 15267
13994 17972
18626 10429
1873 18751
16287 7117
18966 2542
8314 14540
18777 7338
19483 10112
8244 15586
665 2683
17290 4791
15967 10153
12196 12234
1547 13389
3584 14639
12622 10083
11631 1918
4781 18411
14470 1852
18981 5583
5694 1112
13222 7819
5098 10545
7558 1565
18696 1328
3216 8362
11437 18386
6353 9979
5827 14185
19214 10727
18874 18006
2612 3379
12518 17056
9224 2430
12901 18762
15707 976
11220 12658
16154 2567
2491 17304
2619 71
16974 8543
11162 16528
12008 18169
2865 13558
7095 18033
4860 2043
17388 8689
3237 14503
4045 13462
320 9619
2336 1732
18809 7868
9910 15640
5862 8954
12504 6216
930 5625
3554 8708
17142 8500
289 19023
17760 15252
13223 11492
8702 17320
10848 16651
19534 4298
4902 13455
1869 17199
7655 8784
12519 9392
6737 7169
14014 13990
2355 15845
6309 12003
18098 8359
6277 2466
5917 19089
2909 9018
5017 11335
4190 1288
11807 18173
5226 9114
13197 15843
906 14481
10751 13368
2857 7048
15551 3173
10296 4991
15316 5649
6805 9858
12997 5285
3126 7719
1898 3801
19194 994
13041 12628
16029 11933
9499 7225
13719 6191
3716 16150
18194 7628
6724 12030
1273 10964
7461 17326
14138 14571
17469 11762
1302 16864
6116 12257
2185 18664
17849 13618
18089 7516
9247 15147
18695 7218
3545 14018
10139 19281
6688 11791
18092 6022
18558 16855
3823 4134
8410 10188
15245 14739
15732 9820
7271 2894
876 1350
14074 15606
8862 16510
18897 3917
797 1464
3381 542
11255 10974
7535 4657
3006 17868
4947 12330
3705 1522
11266 7395
801 5971
17615 5384
6720 12778
9284 7545
7286 9837
8499 16336
7156 7014
721 2682
18393 15733
5478 7617
3669 3514
499 8176
1996 19411
929 2409
12157 16898
15475 12327
10612 4043
10484 8207
7055 456
13520 9223
14006 1434
19586 7281
9669 10697
18350 1224
9716 962
14118 7210
1683 3438
17701 17821
947 2455
16739 10383
11420 9710
1593 1386
19574 7379
6927 10873
13562 19400
8365 11202
7525 17367
2834 5144
14996 8572
15729 13959
13607 10801
9600 9968
18556 16278
1424 4084
5721 14691
13946 9994
10469 12940
11574 84
3297 4348
5537 14102
9807 8347
7567 18483
18161 19231
7482 17704
2969 5910
5544 130
10126 13665
10540 3414
6773 2147
15366 4792
17048 7923
7017 986
10479 13114
11652 14431
10666 9912
12166 1900
4820 2352
2308 5440
586 13034
16286 15880
18703 6697
6108 983
1324 5102
9707 13433
18 7073
4899 12325
2151 1845
6375 6705
17613 363
7228 4406
15981 14433
17422 12329
9504 4272
19332 11436
4268 8404
15673 14338
19149 4424
5883 13073
13023 17583
758 13134
7288 7888
3021 8319
18524 18268
7524 18688
11237 12595
10235 11511
12366 16115
3013 7055
18202 7787
17916 1032
18881 5717
3570 2874
15193 6877
19099 10827
4763 12392
3886 18938
13051 5805
17831 16108
7076 3239
6421 9195
12935 1208
10471 15107
162 1372
14424 5404
8837 398
795 16137
4479 18103
11342 18544
4437 12927
17470 4572
1712 6900
3405 19450
13284 3856
15102 16267
19607 10881
17978 10499
8820 8607
3987 17854
14309 5770
8478 16086
13136 1337
7008 11094
398 14833
2190 12362
3627 4161
13252 9334
8060 4660
13029 15888
10735 7039
1643 17267
10348 1470
16390 10564
9219 7682
8087 19266
6752 8343
15277 18702
11889 16227
12322 1473
9544 1630
6645 10978
1681 2290
9120 2105
9581 1076
7859 18976
7943 14911
2714 16940
18332 8886
10128 18792
4188 18604
3083 19417
5150 13139
7467 11413
1395 4963
3598 5230
7413 7169
751 6554
18176 13097
15661 13914
15708 16571
17204 9231
18748 7299
14020 6513
3160 8669
10638 4261
4579 12970
9990 1047
14429 10791
5943 14336
14794 10180
8262 1572
13209 18694
1566 742
18511 13823
9421 10556
7369 11537
11537 17901
14898 19421
1993 12544
7410 10826
10509 734
3442 538
18712 10598
17395 3654
13131 12090
3675 5443
6349 16483
4738 15774
10279 5428
15204 16623
13850 5453
9704 19430
3745 11004
3841 10573
18663 12102
6398 19599
9125 7568
4066 2396
15736 5329
9119 16555
16138 11880
14936 4602
9489 4964
4229 15724
556 17013
8657 17832
14017 2771
962 4691
17461 7648
288 12409
13298 5843
10868 13819
17535 17779
7602 17463
2024 11185
10056 2931
1191 1578
1110 3182
15192 7990
16466 3531
1696 8351
2029 4729
10988 8401
18061 4805
14678 3097
5974 301
1966 18451
579 18869
440 14746
12006 14818
11750 10263
15518 7510
3377 17620
1398 5066
9382 11113
5868 3111
16377 17681
8080 19337
11684 1843
1028 15047
13337 13779
5101 17650
12171 15818
3308 10672
18225 15610
12994 19177
5917 4804
844 11650
6607 7573
541 9247
2404 16625
10536 10338
16456 17897
7207 17773
13069 9277
10361 14863
2067 9113
18352 5785
8531 14776
8767 10618
814 1265
745 12504
8185 1860
8039 10117
2008 5687
2146 7537
16000 14041
13058 5010
17998 10171
8080 8267
15222 5013
16092 11935
8011 13250
14892 5322
2969 15543
16598 11607
18079 1349
3043 8619
14040 10831
8249 19665
6176 8134
15038 15107
12841 12093
4107 12397
15024 201
275 13059
4605 5447
17825 18083
14123 11071
18158 5633
11840 10381
9419 362
3864 4272
8662 2298
9851 17213
19424 6116
12842 16650
18522 4010
15038 6230
14929 3251
6684 14033
13645 10780
7343 3568
15396 15168
14690 283
96 12503
5998 2052
6145 8884
17694 17344
13757 3390
5619 917
4671 5240
6494 9263
3376 10510
14803 19578
18354 325
12544 5118
5606 18173
10769 10489
15581 12159
19521 12717
17338 10804
9924 2635
18189 18887
19034 5857
14535 18287
13771 6472
4405 18162
6358 5347
2359 13593
5347 475
12424 17034
9253 4040
3501 13407
12864 16514
2656 14411
15773 14797
1451 1072
3562 164
17763 10355
4607 303
16940 14439
7082 6731
2434 19178
5524 14445
14912 4683
17113 13892
9567 10172
3136 7929
6678 13972
968 3660
2915 5013
2633 17167
16969 2484
132 6827
13153 10597
18685 11181
18719 11003
3849 17266
2012 13732
10715 19692
6143 9668
11938 8765
2423 8243
1508 3060
1127 13403
5678 5100
5191 15473
1058 6296
13374 16727
17275 7292
12485 16987
1552 13929
17444 309
4660 5061
7599 5928
17902 7134
18889 18512
15165 14708
4976 952
13068 16701
10952 9559
2925 15838
1637 3098
5814 985
16879 5517
18648 7335
15532 19205
19545 11415
11928 19291
13345 9419
15572 15842
9065 7039
13498 10607
8606 3871
7019 16027
9932 3101
3713 13112
16721 6528
7874 19697
11309 11552
934 4438
3341 4840
11427 17608
1895 2434
6474 3772
19037 8027
449 10064
4534 6473
901 11075
10105 17557
7253 999
18859 1999
1349 18696
13559 18504
2611 1508
4765 15905
13084 18892
9099 18851
8646 12202
16929 15370
11214 4117
14086 13294
18556 4772
17545 17291
13277 11397
14452 1113
14556 5491
16712 18905
13154 7306
10438 18710
8933 409
19212 6885
14951 11540
14552 14519
11376 13702
15481 5296
8098 16000
609 11902
8794 17573
16272 16687
6872 8043
19240 6127
19007 16185
18282 6346
17848 1285
13707 17913
15554 18843
19126 1014
6755 5058
6645 7637
14359 8743
12232 16315
3426 18056
16466 11106
12888 8006
13064 17086
7427 11872
16809 16146
4364 15385
10902 5169
4798 1971
15708 13022
1043 10028
4471 4876
7107 17173
7063 10578
5193 5132
3722 13922
8983 9870
479 5444
10303 10892
8358 271
8430 11362
1291 76
17527 14483
2144 15063
11072 4746
12635 6022
14051 13413
14706 11945
10472 9047
14492 7960
9067 11001
10334 14040
3329 6300
13903 19562
12235 8657
7837 11647
14396 14805
9174 5986
12659 2108
14066 1919
14687 7155
10292 7449
4374 420
19112 18947
4481 14059
10427 14457
369 4097
3224 12490
2329 6396
9277 5968
111 7938
9785 4389
335 16468
13504 7326
9874 4967
8141 18301
15974 1354
199 8309
11216 15190
18501 5391
6760 2489
10960 9515
17100 15734
9606 19270
5499 14514
4086 4197
15883 16471
18800 15485
8950 8048
4638 7163
9234 9956
14143 8941
12588 1441
7055 3822
3679 2326
377 1966
9680 13172
7815 9909
15180 11185
18932 12287
6292 13804
5565 17210
16773 19264
7882 100
12335 7362
17471 19590
3216 4228
12619 4723
17660 11525
3705 4997
2503 9786
7586 10813
18170 289
14487 6451
12994 1298
18418 16751
18638 7197
9416 11726
14560 10606
1102 17944
17722 2449
17093 15306
17893 9738
14624 9561
11057 11203
15827 17028
17455 16379
4620 11222
16206 15777
3695 10260
14681 7858
15314 11822
13364 67
2049 11643
7042 18949
5854 13403
19092 9882
10993 8582
16718 5937
6738 15531
206 14209
11452 13515
13245 5334
14265 4594
11457 7893
9570 9824
9622 4759
18013 13095
17303 16184
8034 8169
14794 15462
3153 8199
815 16707
2651 3830
16793 15463
221 5730
18344 12602
7783 11788
695 9671
10052 15752
9538 1326
2491 19447
14015 9305
10923 5295
10436 18164
13516 14320
17271 11718
1535 18315
16903 17483
3822 6384
5843 13205
9191 16880
14655 1493
2999 17201
14601 15613
16563 8525
13900 11204
6411 14219
2608 18190
1363 13235
6134 15007
4061 2192
12519 8991
12017 14877
18097 4857
10401 6231
1302 11896
16601 19290
10324 4140
15397 13630
8756 14926
17350 9836
3502 19457
18456 15754
17397 699
19268 18055
1722 2561
17763 4047
2988 12493
8847 16152
8391 18515
599 1975
7095 15945
14192 5795
19275 17627
12203 17997
18549 1005
7899 8696
8605 15277
3770 7948
5119 14852
13463 10340
14167 16395
8887 18439
7408 11272
3799 7825
6631 1189
18180 918
8203 5139
3523 3487
2309 16046
9192 14195
15955 12149
5063 13088
12949 30
300 3154
10214 15925
7993 18013
13576 10759
18819 14506
19107 15104
18977 6845
6021 4051
19442 5807
17745 19600
14512 10579
15040 8738
3291 13889
14798 2369
18219 6185
6589 3137
4821 18537
4382 681
11962 8559
7257 5123
132 8513
5520 8750
13716 9037
2520 18026
141 5254
1195 7458
13518 15862
5164 17394
17617 4292
4945 13944
449 6150
11643 19173
14778 16480
4529 8675
13143 9508
16191 4590
15889 5840
16285 14819
7178 10734
3165 6233
4222 13757
18674 17381
14750 11111
15158 8409
9530 2230
3284 12573
10880 3896
16318 8144
13654 2179
13110 10750
9141 4679
18744 13697
4543 11590
6919 3244
7038 15147
13960 6978
13606 5456
17069 11158
13438 8225
6716 8869
3104 14328
3879 15082
11369 14685
385 1156
13916 4941
2153 8119
11092 16888
18532 1691
12238 17633
11889 1739
2773 10620
10357 12323
77 2570
18921 4126
4176 2029
17784 2677
3677 4171
1727 11025
15023 5665
8832 5634
9383 6056
11092 13599
10773 14332
5917 14134
14795 3242
10179 12570
10755 14745
19341 19583
6267 11958
10504 16190
3626 18148
14581 2143
941 10206
11182 11253
8540 13132
14258 2316
5511 3503
5925 18136
3587 1555
10616 16346
2711 12426
6952 19652
3740 8845
10430 391
12032 17333
12733 8601
17182 3430
12075 8396
13454 1318
3228 10485
17300 1083
925 791
13782 5424
6832 10628
3564 12423
14969 673
7771 3623
17894 14038
10471 9138
4221 10999
9540 8663
7598 199
19491 3769
17071 4175
9374 5878
1155 4532
9290 16031
11769 1933
6103 16576
9915 8183
19177 6959
9070 18098
1063 348
2168 16994
9436 543
6667 15544
10688 14811
15424 16302
9513 9215
8472 16381
19527 14471
1710 5318
13345 11898
4221 7459
791 14693
10774 11723
10503 3135
4075 18047
16749 11425
446 15012
13177 11824
16477 3416
3268 12877
19657 6681
13120 18108
13993 9602
14886 12461
14551 7308
708 13436
19373 3456
14242 14980
5818 12440
16203 10041
4681 17038
2906 4307
3344 11743
134 14548
581 12852
5333 19102
2113 19540
13203 17136
16393 12842
10899 13724
3200 828
11133 9053
6379 16074
7404 12470
17897 6639
1139 6765
619 11454
11764 9188
4454 11445
17053 5477
6662 12935
16503 1651
15470 16683
6826 7139
15537 18724
13337 14325
18604 19352
2811 11286
19547 17111
2992 17741
11854 13844
16 6911
17722 18772
5877 11322
7840 4145
13690 9416
6980 13977
2430 9553
12685 12944
13296 15478
12279 2418
15837 3573
1351 7462
14955 19183
7934 14954
2882 5900
10401 7476
2607 5287
9741 17799
18372 4913
17810 8327
5303 4216
13197 15137
10487 8481
10026 3685
3693 19398
8414 1682
468 13179
1844 3880
3256 5370
14548 651
16769 1544
16928 7006
8538 8102
17643 11398
4232 15734
3724 18177
12369 17258
7133 656
3271 16419
17233 15431
6934 6914
4247 8468
15349 1269
14936 12260
7076 8413
787 78
3750 2958
6576 5409
314 5779
2114 19421
5421 2686
10051 1103
4802 7159
1569 5625
6278 16180
14357 8022
6736 12581
5226 16132
10177 17422
463 15852
13310 2090
13911 11848
1415 2254
14476 16496
5545 293
16688 4742
4801 18848
7648 3835
1635 18422
12100 8812
10964 18631
10641 6457
102 17162
7367 397
6587 10169
12438 11550
5157 15143
3469 7174
14364 1023
16478 2129
13915 434
11135 7412
3522 13640
4285 7585
3731 11696
16890 3837
3472 11729
775 7911
19511 14747
3904 5168
9887 7034
7061 16976
1514 19189
11754 3183
17892 1145
549 5861
17618 5036
17931 11476
12058 19274
13950 14746
9169 14593
6884 1119
2371 2568
17442 17062
1715 5646
18886 13934
15083 3438
9835 17436
3066 2196
12367 1580
14094 3330
11999 13879
1400 19588
13770 1391
10212 928
5965 13540
16557 10931
3850 13478
1261 1678
11214 12807
12101 10693
12417 7283
11762 5368
4481 15273
4737 12264
2111 15666
10100 12504
14032 10033
1237 10256
8268 17227
4707 600
14122 14029
8266 1772
18927 19233
4585 18700
16025 8229
10355 15011
7714 1879
7919 3340
12660 6272
16417 843
18498 11167
18853 17034
14636 19408
8219 1526
7272 12580
7792 1191
14495 15332
4133 16256
14564 2074
15891 12369
18089 19662
15943 14438
12384 19360
2187 7723
9294 1448
16548 9706
18204 17505
3786 15478
1978 15906
3384 12587
17347 14985
11229 15900
16257 7417
16736 10730
3490 13820
5979 6280
6171 2857
4441 5299
6169 9042
16658 2493
15129 3657
6754 11407
12297 440
13811 10451
12793 18579
18640 417
1011 17555
3874 2984
12597 18700
11165 4704
14801 18327
12902 1492
16379 19704
16881 10134
7464 14664
13493 14417
13548 12263
15426 14914
4963 7024
13834 10417
16312 6755
1753 3161
7488 17509
15468 8036
11953 17334
9381 5820
19509 14868
1937 16637
17248 8112
10063 14538
11033 15378
3505 12282
16164 12878
16623 9737
4430 12941
11465 18396
16784 12436
7055 3906
1359 14965
13854 17168
3023 5350
4570 9448
4311 4114
18845 2434
3070 842
12011 4653
2100 15125
11135 6877
13574 5754
2344 1285
10684 8744
9505 8200
6927 6610
14180 14608
4998 9729
7110 14065
16617 262
7052 2885
6186 8692
4936 7561
15519 8087
3458 12000
15238 3443
2516 13268
13975 3989
15159 8724
4155 11977
6178 14100
11690 19619
18501 13474
12807 16727
16692 10103
16838 4341
7528 11726
10875 19406
7562 14
15285 11361
5028 6078
13464 6899
12447 2860
7846 3305
328 16596
13803 15948
3580 4315
5959 7817
1396 9114
6698 18387
7507 8233
11548 5328
17870 14368
1896 10223
11192 13687
2680 9073
11086 13389
18913 14527
16374 12391
8935 6517
14793 14284
2082 5811
5276 10710
18350 472
17423 2016
5558 18607
7446 671
16958 3057
11429 17298
6708 7498
8981 12991
9389 2730
12035 11663
16025 12511
6352 18428
486 9739
10911 5732
1947 10343
116 9804
15697 7186
11491 7192
9921 13308
12690 4614
7137 6673
12575 5772
12074 12551
3084 11688
16588 14656
10134 15803
17191 11701
16251 10743
1921 15117
9678 8992
5329 1615
19670 10893
19326 12905
18754 17552
7174 15667
8449 18872
7491 8660
3035 4318
10479 19224
6240 1048
3824 17200
11860 14601
13637 19399
17243 1688
18960 8245
6596 7914
4636 3764
2779 16587
6553 2158
14356 17605
4238 11592
10463 12120
8135 6961
5413 15903
18891 11039
16889 18211
2985 11520
8189 5138
11940 4387
13706 19446
16944 17756
2804 16135
12536 6534
17462 19182
5499 4789
8057 10703
10833 963
14496 18826
12770 3712
16451 360
14878 10360
10266 2649
18157 14572
18667 9146
15613 4999
3406 6396
5908 219
4283 17065
7262 10342
2840 12168
9719 17709
17131 8655
305 17920
379 17429
3336 19463
15560 18006
11222 6225
5138 6298
18536 8073
10364 1941
7158 17128
10026 6381
16183 5189
4803 14282
18479 12770
14026 11797
2024 5275
19129 14039
960 14423
1800 12361
5935 12205
11353 14044
19377 2274
12008 8538
14240 7476
6132 6845
14253 7359
9458 11993
11807 1454
18053 3874
19511 18849
19033 9473
12732 6541
8745 9082
17734 7394
14972 2080
5880 546
2682 14432
9300 17801
7964 5545
11730 8364
3475 14071
14542 11643
4322 14492
6197 4305
460 1192
80 10852
11862 9617
14657 18554
1817 5768
14144 18083
1834 12343
16976 12691
15383 4788
7266 19139
12745 19342
12694 16828
17989 3369
13711 17578
13347 3808
5039 7253
9559 12655
5680 13044
1673 18585
9713 10783
8356 8863
3883 7352
4725 17538
12 93
13387 3742
10674 6646
3672 2419
14846 2328
12674 11462
12204 13825
19263 15183
3658 2498
12070 15119
5974 15488
18697 12939
4221 17640
2347 1467
8191 8788
9542 13166
16881 15597
14537 12561
6476 15599
13419 639
14842 7720
7982 16287
16076 5280
4476 17425
592 14479
8876 126
9163 18240
9155 14535
19253 10462
19216 9995
8326 11963
12559 3150
7116 626
8151 849
2103 10896
12758 3866
7791 18110
8346 405
11712 3444
1240 14906
5155 13497
19534 6882
7149 17776
19427 16998
591 19456
3400 6921
936 17499
6574 15689
10094 3996
14349 17647
12613 1462
9550 540
3787 9323
18719 19061
18820 16261
14237 13333
7964 12862
19328 2806
6446 4333
2178 403
7351 4239
11772 12437
10768 10699
3325 15840
5660 16741
3655 413
3056 2571
1006 2188
18973 7888
73 130
13746 1080
11744 13395
19371 13744
4146 3825
11400 16268
8492 8772
8178 8344
8811 19272
16724 18740
16937 4745
3453 14351
14574 3965
708 8575
3903 853
18737 11451
6770 15735
2939 16796
9246 17461
10066 3018
6410 3964
520 4440
7012 5491
7144 11100
14239 15834
963 15042
14843 1185
758 4437
18352 3638
9327 724
11193 9382
6293 7627
9196 3198
8356 13574
14730 4983
13241 5847
17663 9845
8460 2976
3573 4522
7456 12460
9400 14076
16877 4730
6266 14494
8950 18588
5528 9338
14021 3609
16381 5087
16076 14863
9468 788
19410 18607
14945 14737
18048 10861
18052 7542
17127 10222
5898 11682
14456 13686
16369 11729
17432 14244
13331 4978
381 19485
13847 287
14536 7139
610 14482
3218 13193
9031 1782
11606 16625
6967 13760
18211 9465
14532 13208
6153 4451
14727 16206
1826 1698
17018 5278
19151 15437
6776 11875
11734 13823
7400 3904
4998 13238
9299 17752
17580 12116
2722 7448
16415 13073
6209 8537
5249 11455
17682 17323
12750 10511
12147 6987
1278 7969
4843 1064
14135 16893
1303 9636
6626 11720
1686 6676
6167 16240
9471 5230
9269 8631
2701 19274
3289 16062
10678 17549
7544 15753
10177 1907
8670 15909
12210 17971
1230 19311
13753 11338
12207 17817
18447 14978
5909 3780
9970 667
18409 3641
3480 933
8803 19088
14441 15652
16224 13802
12858 14210
3880 16767
8245 8897
16131 13936
9394 14441
12355 15236
19568 17500
17206 1104
16436 17686
3332 10083
9990 11014
11909 11979
8059 3412
545 18748
4658 10488
5357 19065
7110 8142
6509 5256
13877 8264
13831 1560
3403 9988
12137 9621
6516 17581
12712 19518
13062 11921
16765 9227
5226 18331
5027 858
105 12351
17668 18467
10473 13954
13121 7131
1443 10724
15008 13008
16529 10936
2253 15954
14703 11797
12736 7631
18051 3634
19680 13502
5421 6909
8996 18038
8519 10856
16131 2681
8749 4860
16956 8412
7938 14317
757 9275
12604 7778
9333 16860
6768 18759
3216 8571
6980 7093
9706 18649
4358 14361
19649 19082
3246 6145
13496 570
3702 9169
8213 9451
7882 4490
14053 13525
12384 14615
19455 1874
13480 7401
10871 12821
19327 11182
5581 18965
4351 17901
7066 7022
7124 203
7441 5291
7530 719
12324 8666
12680 10845
14770 11579
17068 16449
13513 3897
16207 12009
12677 4847
9272 19563
14594 8727
10332 5333
5983 6002
17681 5526
18748 6342
3267 10636
1623 15502
4510 13983
11473 6895
9303 16401
7192 11474
406 3372
7626 12027
9722 13767
15109 12976
2173 11584
19111 4503
12722 2777
14666 17334
17838 2543
2451 61
3022 2921
2707 18880
17042 19424
16689 757
15264 9732
3463 13
11690 14786
8166 274
11849 11015
899 2538
3482 11946
16324 8733
9684 11636
10563 4435
15846 1761
11989 17938
4620 6874
10337 14760
14738 5843
9817 19374
9713 13895
17351 5213
18215 3986
1906 15707
2007 7934
13528 807
13139 12981
7852 302
10216 12857
19025 13329
17687 18127
9766 7062
549 11542
10969 7381
15221 9681
12611 17183
15992 18196
16158 16056
196 8494
10787 15762
6995 13239
3330 17410
8438 1017
19382 7869
1730 9887
12222 8354
3061 12218
6438 4977
1056 755
3649 18010
17014 11422
3658 8975
16602 8716
10589 11840
10958 16275
11440 8885
19039 3927
11109 13073
5418 12773
6307 19425
1249 19560
1335 6414
6444 4748
16163 7781
14809 9245
8934 6750
18619 17079
9718 16696
9797 18485
15865 13968
11387 6828
7406 18507
13934 9528
19280 5194
14573 435
1194 10285
5347 615
19396 15036
15861 1349
17591 11006
8343 12393
387 18029
6511 1589
8995 12254
14505 3022
4028 4292
16139 10529
12636 15130
18596 14140
10345 3871
13390 10830
12483 10325
12685 6950
2501 12967
11774 1612
16611 15656
1820 13405
19001 1563
1235 7354
477 1911
15777 4790
2539 4398
18085 1921
1147 3420
995 1262
18503 5338
14832 18096
10229 2539
2581 19278
1587 2854
2887 7885
166 6533
14846 19668
2211 2058
11524 7030
3305 4466
10207 3170
3490 12300
15209 1082
13770 10101
8329 17975
2270 16160
8067 7129
15247 16980
15043 12420
16042 1201
6437 14292
7975 6286
4650 4514
9629 2551
14652 11905
14529 18944
12930 3895
82 10912
13706 10992
6426 68
9346 8365
5823 13611
480 9157
15447 15121
3885 4196
4933 5577
8613 3485
3752 10857
18768 12986
18266 3363
1974 15117
5651 13304
10545 18787
13377 6567
5333 16459
17407 11123
18736 3717
17801 14973
16353 10959
17571 16470
11445 15226
19615 6692
1790 1545
9405 7067
4255 2295
18502 9912
3408 17819
14357 19281
2903 47
8859 4637
6725 14545
9881 9462
6885 1559
1322 7336
1545 4919
8945 6543
7892 11793
13737 13799
5430 7995
10712 7457
18963 17748
6176 13169
9379 4267
4938 1237
15124 3063
5546 7610
14487 357
4737 14676
14808 6159
18613 16378
13763 15749
13941 11835
14274 19334
16465 2141
2220 10188
16488 1922
17213 1686
19384 1786
4284 2949
4459 15642
6689 6204
19002 13756
17597 827
2616 9228
16965 1987
18239 16995
4138 13027
1277 14584
18965 14857
1229 12172
5716 4971
7231 11784
14040 3210
2509 29
12527 12099
5826 2819
10088 10749
17314 3230
5187 6345
6009 15342
2692 3249
9572 3153
3371 13745
11259 4628
8448 9416
17740 4615
6697 5613
15544 12385
9067 109
12616 12873
6050 9425
17911 14947
1687 3443
2151 4682
11278 17390
8004 15852
2125 17917
1183 12167
19163 1124
10845 19166
18652 6416
7035 3270
6325 3320
16397 4568
165 3368
4635 16640
11633 1808
600 7650
12838 14171
2385 18277
1726 13111
13212 10497
2392 3112
12185 394
16223 8694
19662 668
4617 19171
7494 18821
12380 1275
703 10331
16587 6491
1276 5371
5263 13095
16569 11629
16641 14147
9046 16675
7404 19011
6121 17612
4288 9100
10657 10281
9764 7674
4554 18373
14496 14031
7561 4543
2275 4828
12571 17694
18933 4910
2573 11746
2059 5145
7488 14128
6800 18005
8275 8475
18408 17593
9777 16721
3448 383
12299 508
7098 13576
5606 6929
16411 16758
154 4719
1038 6736
10356 5360
13654 5692
16616 15687
8366 3224
13062 7844
1450 11056
14460 8741
4691 5846
6668 912
6129 14261
5861 17993
14651 682
16585 8251
2977 15075
10509 5078
15153 398
457 907
6883 16480
8103 285
17438 17795
17119 5268
5278 18145
8014 10193
15092 845
4236 15966
12485 821
16382 3327
12536 7468
14623 12889
3953 6995
8741 15630
7218 8189
19282 18036
4203 5340
3113 8332
16802 977
6038 18111
3001 2281
5223 19223
14931 12136
10124 13731
12952 19087
303 7758
6684 425
15157 70
15741 3648
18955 14114
15709 13173
2699 11147
10952 11512
17313 1207
16475 10097
1582 18891
15051 9442
1648 3243
10464 11825
12541 90
7391 19605
6768 18105
1700 188
9216 367
1512 7789
9483 42
8766 19398
18430 17547
14377 5707
7131 6055
19158 4816
13109 2615
15217 6903
10179 8086
7810 8473
17267 8438
15905 12934
5751 10490
7906 16851
17972 10701
1923 3535
629 16348
14951 1933
7903 6884
17472 4435
2217 3074
1311 3229
14695 9923
8093 11609
1746 611
12545 6232
11041 12407
4803 7559
9124 11299
4541 2927
17835 3889
5478 6473
15751 15809
9962 14228
5343 6953
1055 11375
18689 15620
4730 9514
6544 18488
17011 19159
18763 9719
16144 1735
14278 17830
11121 8693
13023 17699
9173 16778
6311 13899
4719 1196
18560 12562
3564 16077
5431 18728
10836 15890
2323 14387
10424 8074
17467 7459
14025 6007
9963 1383
4962 5921
5785 11594
19447 19665
1850 273
8778 8941
5384 7221
17181 16878
13434 17375
5903 15544
17381 12840
10753 5203
1008 5584
6266 17891
12524 17650
4234 10874
6512 17522
6732 8148
17979 1261
6020 5165
4305 12165
12243 16017
620 10304
6943 11265
7540 2829
19676 8329
10451 8677
17658 6053
4848 12683
10896 12283
7657 7721
16573 14839
5794 17529
16436 17594
5102 8131
3330 5195
6359 9538
8834 5806
12607 19218
12387 6361
10276 12313
7538 11743
7869 5860
17648 5471
2497 2664
8109 848
10358 443
17348 13518
18542 18206
9650 5784
18799 8015
13612 17342
11598 15430
8496 14755
11013 9716
7686 17914
17456 13871
8861 9142
15601 11713
14241 19577
16649 6704
10414 15616
574 9174
10335 14868
15879 5815
16939 16631
3495 13747
766 1344
5003 5270
6142 11128
1602 17650
13692 482
9705 7758
5775 16554
15453 5856
5096 19201
15207 6314
16076 18741
11169 2671
11575 14551
19694 10464
14585 4491
1796 9077
1006 16169
14158 2414
15237 9202
10861 15513
14900 5141
10276 17018
3534 19251
19319 19249
13907 8003
18695 7234
1853 11672
10118 12359
16196 10343
13722 3077
15975 7995
12060 5655
14502 7660
6710 11
4581 9872
14255 9641
6650 3039
1913 13826
5637 4550
3961 2429
474 8116
6505 19476
12473 15943
15118 6229
13486 12198
18648 11138
367 13756
193 18404
1851 10072
15744 9176
2038 3337
10506 10049
5042 3602
18026 1247
1981 14892
11867 11508
3254 10592
3208 18353
14865 1369
17231 220
8984 3884
8923 16907
17780 11778
3016 17328
5632 3029
8556 18281
6199 2843
2123 2778
9961 17175
13942 12828
16288 3909
14224 16376
9739 15371
12721 516
3064 8825
17520 16372
18425 4836
262 4147
8932 18250
13833 18102
3675 12724
6937 6613
12094 17159
10599 1290
16272 12443
3920 6727
7607 11236
8452 3438
4641 4141
18918 2255
12350 5001
2118 17443
5243 15938
18715 9696
12344 5443
6523 15844
6710 19268
19581 19301
17444 1493
6787 3379
13068 4056
18414 8495
15182 10091
3362 1333
15595 13660
16073 12230
19268 6863
2934 1534
3900 13118
16483 2245
17653 4250
18472 3956
4944 7783
5767 4075
16042 11085
16344 11804
11557 18882
3090 900
13144 11062
10401 12422
18640 591
12871 10962
6725 14325
17547 19376
1101 13640
18699 17212
5284 8390
16981 10293
12195 13813
10169 18742
13991 6163
19060 14364
9022 13154
18539 236
9721 8529
9365 15099
14825 4764
39 6731
10820 18618
12468 8972
7216 7754
6804 14729
497 8848
9536 16822
8841 991
11556 8009
6257 14643
9456 6876
248 13907
9938 7901
11578 2026
7721 11235
8455 9233
1087 8010
8438 15624
11117 11930
6321 2936
14895 5871
1312 19288
14753 378
8459 16614
3232 3498
16394 1823
13271 3071
3648 874
19658 18281
10161 7137
170 2343
16804 11676
470 2739
5352 3889
5577 219
16586 2736
6670 15297
2933 4544
16586 11632
8932 19265
3446 9066
10923 13313
16749 4992
14378 1362
1335 15472
5546 12933
18586 13493
10444 6502
16185 12921
4493 12662
5310 8957
13866 2251
3993 49
18954 14080
3608 19604
1447 7507
2444 6638
8976 7670
17013 10133
911 3827
717 12315
8055 7706
5762 15713
462 11207
2031 17319
17456 2042
8434 7021
10668 14148
5425 13260
11263 10956
7532 10060
11982 4968
9322 19041
10329 11504
4751 19074
6198 17285
8257 9298
434 3590
6666 9897
6102 14955
18514 15755
5640 11155
18450 18045
9305 17125
5488 17898
18109 8810
8203 14673
12976 14781
8525 19160
3072 4213
1325 13775
9988 8047
18028 10478
17275 1719
10866 18402
4153 13668
13313 3231
8196 912
13269 10076
11525 352
17074 19568
6751 1368
1389 18587
15230 1710
2331 12164
16594 12558
4108 18479
8250 18638
18769 13247
8260 968
6590 16882
13261 18820
4237 8036
12048 15279
5360 3537
13459 11938
5864 11084
4767 4341
419 18850
14455 11759
1835 4121
178 1187
4824 5922
3193 14668
138 15757
9413 4854
1179 18894
14353 3963
6084 10867
2465 10446
8042 6095
12975 11352
706 16950
12484 14440
5444 19101
12451 1733
12970 6237
17531 6346
13798 1121
15699 17954
4911 603
2047 8254
12847 7837
16102 8051
4003 10672
6608 14933
9932 17815
5359 4467
10319 4926
2468 9934
7298 18743
17521 3086
14108 15292
13800 10438
14154 6816
18244 12556
6615 15606
10140 7156
10944 6051
7313 14962
12799 2175
19432 18217
19333 12313
17391 11530
18956 17782
15510 4029
984 8231
1728 8287
3718 1066
4941 6398
8375 13282
2076 16776
3295 4928
17867 16509
17550 2702
13740 4359
13042 16059
16901 2094
13287 2425
4286 16129
7067 10968
16794 13616
8055 6679
11513 7119
423 10374
9063 5488
16483 4892
18706 4391
6299 1497
11376 7214
512 5810
8838 13373
884 10680
15140 1117
2122 18675
16328 3132
2216 1352
1076 14204
13358 19115
7617 18326
17128 3148
17039 4584
18275 157
10964 1754
16964 18365
19289 13732
1084 15107
8902 15150
5610 7335
16271 713
10659 7996
6406 10997
2948 14776
19204 11890
18903 15009
14593 1188
7549 16098
19629 15072
9588 15438
19251 7316
19670 8599
10568 9604
17070 10420
12979 30
14875 2989
11134 9195
3317 4962
10134 7738
3238 5119
5501 2832
18478 973
875 2900
16033 2031
9623 824
17774 11481
7956 15474
10870 9081
18949 18345
8350 6510
9600 16284
12285 6511
8958 24
6924 4372
8424 11286
956 7054
18881 1217
340 5458
12430 7290
10601 6741
8854 15129
6806 3559
8482 4798
10995 19607
7368 14714
14728 8749
1236 3492
1128 5216
15223 11562
6673 11120
10238 14540
18670 8478
6094 17488
7525 12633
16041 18804
4853 13219
18068 3780
3068 8834
13472 6618
2356 202
13808 10980
4561 12390
10756 19482
929 6830
17708 17901
4111 10092
7744 2000
7362 6697
19591 5353
5965 19018
4676 2743
11996 19005
10975 11994
6752 8797
8987 12636
6389 2274
719 10404
9962 15920
14049 15731
8988 15476
13107 12193
9252 14966
7330 8355
5297 6425
15178 1833
16046 10507
15715 19198
10741 6095
16325 18311
10515 17753
8855 15732
14625 5947
19644 1454
2677 11575
8040 14317
15625 6297
2962 6890
4031 327
18693 17980
4127 1415
11335 2243
15378 18292
2358 11488
7509 1371
12127 9753
10421 13954
153 17396
10585 3548
468 15554
16989 10785
7059 8655
6518 3469
11703 18235
2376 4169
3678 8719
10640 14635
4361 9571
3493 5350
12833 7024
15403 16285
3840 10944
1564 4124
16390 937
11185 12018
2898 6963
18135 135
2512 3978
14757 955
8015 5246
5824 6465
8903 624
7422 9427
18480 5079
13111 13543
15367 6488
10685 1743
17113 13941
11394 18833
8588 15196
19695 1846
14976 3905
2611 11257
7362 16169
5321 4185
16728 9904
18038 10419
16305 16703
17228 11657
9066 18813
6402 13875
18278 4115
407 215
17583 5712
5107 16290
19309 16491
2626 15840
9155 10771
18520 5445
6680 11969
15705 10663
7657 14538
16450 775
2410 9940
5991 6482
3359 10487
3325 8871
5560 16982
6482 4466
38 13829
3590 15379
18952 12530
7297 14506
10480 6678
15516 10358
18957 9270
14350 12236
12666 1513
6482 773
8980 15403
17367 3857
18577 14731
16929 2868
8270 6228
15751 18333
10610 16518
8091 628
15528 7715
11600 19085
15448 9928
17884 1005
16917 634
2246 18276
9269 17687
1945 19164
3530 16798
7543 13750
14568 11112
2009 3846
3735 2973
1024 8111
16576 12008
12782 713
11460 4484
15533 7696
13881 19469
17969 6310
11735 17117
19304 7189
14265 8570
432 16651
17147 2770
12516 13603
17685 4139
18512 18714
5053 2712
9820 16454
5438 2599
797 16655
13246 19543
19561 7149
14332 18019
1118 7224
15616 11654
8162 18513
7217 4882
2315 5522
6919 3623
6046 13427
9877 18696
12426 12709
9254 11826
5998 5982
9081 5385
4140 110
1889 6998
5175 18224
3111 4431
10973 12435
17637 16355
438 6934
14747 12961
6509 1802
489 5644
11095 10051
514 2975
8549 15047
2406 11464
8985 706
2531 7589
17097 18214
4240 4249
19553 18227
15705 17808
4555 16820
9188 7358
12178 15410
5845 14871
7043 8808
1450 19329
14050 2422
10410 4078
9852 836
9081 715
18586 14586
10945 7629
14118 793
4469 5511
16871 17252
12819 12822
13395 18545
4329 12707
8304 8214
5071 9299
597 18975
862 3847
3762 13814
4733 494
9281 10639
464 9760
18521 10903
18293 6735
3801 7207
11414 4145
7535 17200
1119 8062
6580 7609
10930 9170
5101 5523
15678 6740
15730 228
18448 10230
297 12085
7959 6190
1012 659
15116 4159
16399 1853
3841 3339
310 19553
6585 10268
12224 5747
18045 16722
6295 8143
16736 2314
10772 18547
10273 14069
14299 6135
15068 12152
3914 9650
2874 13083
11084 2915
7564 9746
14783 8749
15118 10016
12594 1393
9744 11841
13715 11330
5927 10128
13928 10197
16234 15941
1495 3497
13190 18924
3403 9371
10394 10155
13980 16740
15448 11309
2865 9927
11584 356
5379 15145
15295 13258
15018 17339
3664 10514
12330 16340
11390 702
19552 11800
10605 3620
10813 9976
6701 3443
17575 1759
12218 1476
8347 12843
11649 8990
10266 8222
1620 16212
9663 2550
11534 3035
3629 4765
12195 16911
11003 16615
6563 5050
16138 1487
18957 8516
1546 14533
11037 5944
18531 7241
14549 7788
19561 2615
15720 9897
18007 537
17857 18931
5323 14237
13000 5422
13653 11276
2396 817
11320 9380
1403 12265
17458 7376
8105 6834
11446 7189
11297 1096
15333 18454
12329 17937
9782 14129
2458 19219
13468 7486
12391 3070
16301 13634
11712 17493
8918 12207
11037 14436
11332 4530
13959 2654
2638 1037
3425 213
1703 17245
5162 10796
8323 10655
3223 12173
18650 10511
3094 506
1295 10917
322 7028
15867 7385
15784 11680
13101 3601
5376 17182
6101 7302
11584 8875
14454 9211
792 12936
10363 4050
1816 9019
6234 3399
5666 11275
18766 2173
13991 6284
17698 15698
14264 7799
3595 17065
18106 15410
16506 4494
18437 2183
3280 5662
18614 8033
18449 9396
4665 13175
1633 17674
7899 14957
2835 581
18303 9054
13715 6847
10134 7420
17232 10867
10868 18159
2174 5152
4618 8500
8174 12591
9676 18207
18363 18580
15345 11522
7339 13831
7891 10913
2587 14401
10228 13263
11064 7037
12917 10805
2463 3098
9501 5017
2227 12883
2784 3789
782 14188
19705 17742
8759 11670
3828 2420
2879 2945
8780 9640
1279 855
513 9354
6854 13517
11909 13106
2338 8180
17718 13633
2155 8615
9616 4425
4295 19469
8872 15627
17695 12209
5411 17436
11107 16036
4263 17789
5870 13364
3765 10384
7747 3064
14325 12099
4750 17099
17878 15903
6482 17549
19705 6097
12917 19233
15251 13030
9349 10311
7743 1998
17029 15542
12657 19350
2260 10244
2808 5349
10737 17243
16183 5612
7381 17495
15352 12923
7328 19612
15452 10734
11424 10024
16793 4853
14485 15679
1082 17387
12142 3091
3500 14468
1675 9295
17843 971
12996 8207
945 19544
9602 1612
5574 17977
4283 7781
18959 659
17885 3162
9708 849
2054 11677
17627 3843
2080 7211
9289 9939
13058 13270
195 16106
383 12475
16248 214
5168 1071
625 18374
19140 10483
2255 17621
5969 6824
17280 18566
15645 7546
112 14816
11842 7629
11568 19566
3480 5158
12757 16739
14993 13788
1495 18567
1701 4131
29 4340
7070 10061
14956 18487
13448 17109
18280 14718
1001 16242
12079 15022
7198 881
245 19522
5512 11125
7853 3069
752 3872
4321 17597
4378 14619
3166 9959
16481 1250
18016 1831
7106 743
17700 10160
17515 9701
4573 5120
13423 11108
5151 1263
13718 15550
6658 279
15618 14774
13985 1594
5845 18447
18954 16551
1660 13853
2221 8416
15815 3323
13853 19354
1352 7375
11866 3749
15405 16682
15946 16065
2153 11083
3050 17948
3668 2632
376 15713
10447 19630
11400 7850
1867 3578
9876 773
4502 13580
5354 4362
13919 10769
11658 4345
16171 5991
3250 7244
15626 17630
9727 18072
306 18997
15016 9260
16030 6688
16022 16333
9635 15626
19268 15785
12884 5543
15014 10405
16364 7249
16592 17990
10123 7129
12681 16258
18615 9422
3356 14939
15511 17876
13532 8831
4890 3898
7182 10160
2943 18642
9210 7851
17981 6779
14868 2690
15363 2986
14376 2764
11730 8013
12714 18892
17554 7321
5338 15810
12016 16644
13677 9661
18187 14157
6060 3184
9061 11254
4402 2644
3635 7133
13380 12293
6319 13918
1036 11356
18376 6095
14796 14386
5865 9121
18711 1406
9164 14449
16134 18985
12266 13133
5151 16361
17084 6582
14466 16418
945 16924
16152 603
4611 6592
10783 10423
7090 18559
19584 7654
282 15673
1825 5551
4619 1015
1523 7409
12490 14392
10711 10619
4210 9451
12003 9203
4959 11659
8622 3696
15979 550
1842 13616
8617 4137
4100 6337
7010 3142
8726 13834
9197 5056
7235 7301
15648 8742
7934 5361
19419 352
14500 9908
16928 15546
10920 3294
19617 17553
5674 548
14953 5012
5879 470
12971 16384
3676 6852
3163 1024
5610 15121
16400 18972
1129 10317
16931 8123
9133 2937
13931 6469
740 14444
17073 11544
9039 4216
6707 5456
19190 8346
3063 17194
12984 5325
11449 10736
13109 18492
7952 2068
8425 7220
441 1701
2801 17792
12890 3062
16781 2618
4537 2304
4000 12590
13400 4171
30 11728
8190 9517
5773 13077
1531 14194
5509 17251
12109 5816
17825 17806
9708 5307
4234 15373
4713 8220
4997 19110
19330 15150
6250 8523
15726 12428
4422 4023
13203 17608
10263 14882
18966 12110
1579 16498
6678 14746
15269 2558
16228 9787
8307 16356
105 2951
12698 7718
1575 19158
9833 8659
10116 4389
15331 14642
4322 12196
2533 3302
13162 15464
13940 5349
822 17863
16476 19149
8090 13304
1466 6583
18638 15819
8639 11770
18417 13581
7236 12915
1328 10887
1407 10384
6536 16630
8560 8299
5171 2410
4875 11820
4406 257
3112 9902
393 4673
13233 1336
14162 9475
14357 15274
5003 3969
6447 12023
11506 8587
3461 16410
1047 14038
9131 2474
17956 7654
8614 2137
19430 4649
1356 6053
5789 2466
14944 17560
18759 9187
75 13949
12251 2742
15279 10086
17726 11945
4457 19310
16260 19133
12642 9947
19474 190
9665 6689
6456 16550
5427 14124
12703 14360
7006 4191
11067 4742
14227 18344
1656 18081
15001 16987
9207 6933
3978 8258
10735 15607
11508 3299
1767 4281
6052 16515
9699 16451
8342 14399
4436 11897
18024 7765
15532 14081
5728 4721
2561 8409
14867 1437
4450 5750
3179 48
7618 6154
8638 9676
4164 16935
13825 3053
16429 11991
13356 14142
3484 2117
18016 2680
13734 460
16934 10342
9601 17666
11081 11926
687 6630
12495 6119
5848 12596
3800 14361
17813 5239
9226 11973
15896 12951
19545 18114
3285 8342
11313 11732
15063 14907
12634 15643
2304 6130
6915 10255
10011 11439
5750 19016
10669 17666
5857 19103
6245 6072
7634 17889
222 12332
16412 12357
2783 15360
6657 1797
6 416
14426 15566
18441 12398
2319 14866
15759 16685
3956 19161
7250 18921
18421 4995
16403 1491
2386 10800
7709 18624
5399 126
265 6009
10387 17152
16537 10878
4009 18149
11783 18288
1020 7801
11864 12081
7819 13391
3466 14824
7280 15184
12424 2320
5260 18738
19053 6281
6732 10686
8648 12066
9666 10395
17791 10543
17751 17774
15977 6111
7833 9885
8932 8891
15110 9558
8247 13003
19368 1468
17027 4031
11418 10259
16313 5078
535 1656
1436 11546
18819 11529
7620 4980
18579 2377
3739 8611
3194 4903
9430 10553
2063 17333
2899 4183
16600 8061
13090 5127
10286 19082
18722 18213
3074 16541
8187 2638
16242 2517
247 11587
6736 19646
12131 11101
1152 1972
5703 4005
6690 18767
11242 3231
11657 18535
10342 10380
14238 8451
3479 2326
12421 13370
14493 11006
18356 11805
15454 9178
9615 12408
2377 16496
3689 13989
769 15542
6964 9105
7537 10534
17853 7498
13955 14105
15068 5026
13840 3445
16292 18929
4180 264
18661 18986
7722 9253
6428 9602
10764 17204
16843 14360
17041 19053
4761 65
16664 12024
13842 3643
4566 448
9487 18944
6984 18588
11355 8440
4264 12343
10276 878
770 15706
4053 5556
5084 15262
6873 15321
16590 7222
4705 4954
5463 2840
19121 3869
15023 18848
16619 7592
11583 6792
7744 1622
3151 16865
12564 16674
15334 15830
12554 13500
17094 3106
709 2578
1881 4645
17317 6700
16805 5499
15490 15879
1782 8783
18752 8818
9935 2867
3778 18487
870 6395
15767 11497
18194 4911
9279 14540
990 236
2316 8209
15976 8925
11001 19487
14623 2199
3567 15615
311 18346
5416 19411
3986 4206
2098 2077
19074 12656
5062 16543
3241 14297
13025 9836
14715 8167
17360 621
14989 14247
19359 5666
3653 728
425 15632
2524 6312
2631 8832
17352 17198
16790 4326
18702 6137
18877 4560
8710 5534
14330 13938
11077 7197
10345 196
300 3201
192 9975
6208 8708
3910 18181
5623 13751
13416 1125
1158 8290
8536 16289
11634 7349
8622 16180
10156 491
17658 15386
6377 6891
13254 19234
12237 6558
14662 2991
18741 10924
2591 9318
618 2740
1098 6783
15231 12929
3143 5147
16327 7577
18262 15865
608 2079
3327 17542
14501 1207
14174 9478
12786 3521
15137 15100
15548 15392
12894 17955
1339 15251
7443 16056
10283 15870
16854 8228
17031 8267
7047 11001
6675 7265
16754 10923
12222 16997
2075 2799
11838 12857
831 9332
5285 8664
19155 13883
6986 3122
19279 10623
7259 54
2652 8411
7820 2050
16439 17539
18610 19389
12304 6089
18948 4950
1458 8115
7112 8171
2676 11947
11684 4318
16596 2428
19688 11871
12113 6330
3660 6164
12532 12802
19128 14979
5334 18339
3718 14354
5727 17453
16421 3540
2895 18781
12328 10269
14222 3999
14494 18836
3460 13189
4367 7272
3915 5
2898 6096
5262 3576
8262 5057
18382 3520
12977 8683
16098 18904
12112 2445
9184 9806
14644 6054
2412 6180
17245 8759
13511 12988
9497 12552
7284 10683
13694 19123
12684 5641
14445 11914
16006 10610
8303 2485
17899 15186
9909 5932
5671 2468
13809 10006
8730 11507
7143 3573
11570 12328
12553 11553
10553 10047
7936 799
10945 9628
17283 16975
9800 15369
3827 8145
10209 2077
13833 13521
4268 418
4739 12917
19625 8885
9118 14322
5024 15621
11785 12479
1642 12590
18771 6933
11259 1081
14085 1539
5343 9982
172 10802
14611 2526
1331 18270
9624 9485
15377 18636
5672 8914
1942 4610
4678 10250
12441 2847
15642 11576
2176 5952
13107 9459
6293 14989
4675 17923
13974 2849
6849 11970
14820 10188
13842 16610
15264 11809
1830 15104
14501 7181
1142 14391
13379 12240
1940 1636
3038 3908
19669 11162
2324 4627
17204 12506
3433 19312
12342 5721
4175 9071
17306 9716
19530 15013
10778 3719
5256 2981
7313 11577
7097 9726
91 2639
1177 3587
566 1090
5429 17474
765 12054
123 10694
6393 13404
15926 6265
17671 6552
7579 3779
11361 7365
1533 14310
5699 1254
17482 4929
12614 12018
18922 15257
4029 10422
14151 13625
10615 12289
9373 296
9310 6544
2351 8136
3808 12127
10943 16330
4842 5950
1912 1423
18774 7113
14405 5305
10373 8547
66 12687
18411 2798
13196 1876
7238 18653
8810 7458
14794 4991
8580 8186
11656 15131
12915 2670
165 11505
12899 16849
1414 11845
2732 5281
6918 12691
16370 18366
594 7991
8195 14671
6996 5487
17357 1915
13612 16943
15500 14951
4946 10572
6462 6946
2599 7315
6471 235
10175 8920
17644 9693
9718 16078
3971 19144
9507 17625
17385 2650
18405 9412
2962 4523
14435 14834
5089 19437
18918 9855
18815 6385
6884 1674
11114 19548
14399 4334
13635 7915
1855 2988
5789 10582
2855 10535
2413 16392
19096 19079
3939 13082
15098 13244
12931 13200
4488 5354
4494 16201
6897 2711
9418 1811
10336 10877
14736 430
3257 10994
9072 6376
5621 13391
13063 10192
11484 1669
3251 2180
11865 19481
16173 14332
29 5074
1994 913
2547 9326
5128 10506
17609 3877
2258 15649
7601 10775
8878 12851
18609 4219
9433 81
19557 8217
10643 9814
13431 12963
12937 13802
9029 1770
15218 7025
10411 11729
1444 9917
1197 4855
6492 10364
17757 6533
11165 3360
892 8762
15617 15979
5951 14930
1381 16953
15329 9556
18092 7900
13929 5820
13717 13627
11136 17753
14561 4811
1342 14800
183 1497
8897 4426
6844 8838
2474 19574
10911 8486
19661 11258
17604 17557
6414 3041
5652 3934
17074 6788
7179 15833
11635 14198
11040 2345
6161 19655
1558 17308
7569 8702
6599 11985
16714 6747
18654 3389
1954 7857
6711 19220
6099 4446
2600 13080
9447 5324
2846 9809
2157 534
8006 12755
14428 18035
5817 4070
6362 1296
13628 9746
2245 15872
15566 15368
19300 10357
15486 4492
12734 16520
7914 18154
3775 11676
7516 16722
7779 12883
458 9591
15046 11638
885 11073
9532 7806
17198 16963
7177 10691
16973 9159
10455 9150
18130 15333
1574 12764
9038 4312
15641 10208
6877 11312
8590 7863
7479 14901
14733 9079
14568 15862
6177 8708
955 10102
8981 12795
9011 7329
5432 17836
19685 17458
13388 19358
17565 9626
16658 18416
18669 2272
14442 7434
16664 10015
7228 2737
16110 4712
4478 15144
17851 15686
9838 8867
1222 16618
5931 5506
16388 8759
8005 12751
15160 19532
2437 16687
7116 14502
3660 7407
11115 2938
3365 11132
9144 10178
12028 11494
5071 1270
13030 13264
16168 2598
3615 13180
2771 5515
5357 6262
11025 3846
14318 15727
5557 834
7366 11183
10630 17565
363 17930
15880 11303
16285 10042
18157 9588
4748 4382
14188 11371
18164 12198
17258 14543
9816 16949
1366 8802
11707 1944
2053 1953
15986 15994
15282 14339
17209 820
6524 143
3233 10447
6762 16663
8828 14005
17639 14851
19376 1434
3160 15356
15403 15263
12315 9626
2928 3845
13685 14386
12999 11148
7090 10493
9287 8798
3460 3537
15324 2226
15617 553
12380 14003
18655 9593
16065 62
6795 12573
7510 9290
5328 18551
7892 326
18116 10464
8897 14877
2630 8091
17211 15369
17321 9865
18201 13508
18137 10242
8484 6551
3927 4347
2184 1382
5665 13641
11911 19480
8534 5542
5119 14696
1083 7215
2165 19425
11691 207
17868 9176
17672 18895
12863 16187
4362 8656
17686 16597
918 1142
5923 6629
2734 3012
9446 6436
9567 19000
10692 19682
14217 18299
16653 11241
6864 18596
17150 375
11915 19540
202 6503
10430 6423
16779 11806
3000 12772
17550 4318
15745 12600
17923 18616
5626 6148
8456 198
1001 13301
17392 17487
1909 4781
713 1714
15953 15935
17723 3025
16474 18585
14402 18884
13363 17052
15760 13412
11692 16652
18388 18714
6090 3518
17316 7295
12682 18054
18018 7272
15045 12890
18355 6298
294 7750
7155 6563
11290 11579
19560 2688
14722 10649
14658 18019
6529 5042
13453 977
11986 7552
18262 5260
9387 8351
1737 10280
17807 15889
14994 1804
15911 5170
2367 14220
15756 8428
11640 8147
11049 4628
703 11864
15418 16085
17055 18549
3891 14790
2930 1633
16092 16925
5468 17522
8228 1627
6647 7987
4264 12224
11816 19260
6790 12499
12274 15199
13193 2315
5065 9842
10998 7946
13332 2623
3389 14281
8735 17383
2231 19283
12460 11674
14635 7335
12637 15374
14440 1016
11046 359
13603 13514
1381 9164
5413 19295
19287 1312
6160 3645
16109 14586
14 6672
3677 4832
2279 19217
5312 13568
17989 18581
8015 4644
18053 17235
11370 15804
5184 5633
19175 8879
10181 15439
7664 9829
11073 1443
13792 13733
18343 19461
15461 10289
12926 19639
13487 1648
13298 6013
4094 4306
18111 13663
10797 2249
8253 13343
12135 1768
12319 10286
14298 2034
500 8761
13638 922
17281 15710
19227 8265
12756 8212
14511 18822
15558 9301
19682 2980
2426 16532
10850 2932
13481 2032
10148 7096
1508 12829
16126 2294
6463 12869
13640 9514
6100 2372
5818 6532
3015 9007
1115 17928
10298 14918
9714 9534
11978 12296
7001 4918
18965 2093
3380 9494
32 14747
9025 18935
17420 10020
6779 16473
11497 17698
14320 3785
14015 12745
4328 11466
18732 2698
18095 5411
15468 780
605 2050
2948 10869
5711 14040
10132 14387
15215 4409
5194 13685
12302 19363
7504 10714
16158 8158
4117 13852
8544 14644
465 3603
9201 6545
1182 5684
16081 3513
11994 5907
1332 13691
8661 2535
8763 9309
12097 17965
14473 1490
12975 8782
7741 13747
11230 18853
2902 9818
17972 5564
12948 10315
6794 14335
19595 12307
16650 17786
3037 5100
11768 199
9831 8916
6156 19608
17119 19317
117 11877
19541 18871
8938 11544
19661 3183
8070 18535
6611 5288
10029 7854
4558 8699
16750 15785
13989 18869
2093 15393
5116 18829
19189 6715
11189 10462
3002 17779
3155 14113
1417 14924
2045 19619
17492 1610
19598 102
1857 5682
3112 17568
15568 7316
6220 3557
12073 11735
4370 16499
13784 18100
9138 14106
10250 6939
9418 12431
15693 770
1002 1527
9922 12892
13670 10756
10718 3437
2697 3512
8345 19418
8371 7233
11419 15110
5113 13562
9754 7079
4675 15713
10740 11600
5740 6516
11708 11062
11935 17110
14942 3713
11409 2511
2788 15981
7146 6040
16569 13311
9265 17679
1476 12162
12522 13743
2154 7205
2777 9990
17936 2472
9197 3352
7385 17569
603 7451
6905 824
19336 2205
15160 4947
14037 16584
16396 3329
5830 13270
18613 17703
13898 6144
1909 6046
14398 12649
11306 10274
17551 10481
12005 11381
11105 7551
9024 12978
5506 8251
18240 12441
14159 17696
19349 371
13695 9095
13780 12856
16660 13341
10853 16229
16709 7626
4685 10625
7026 7360
9821 8666
7727 6313
3176 6679
9102 4659
12395 19274
6947 18496
124 18132
2643 19659
15498 18007
11225 19360
16059 16237
1325 13503
9618 3812
7 12722
6685 13692
17849 17981
244 7200
4120 10618
3539 10537
10700 9366
14776 4698
3615 19436
2510 1859
2343 10131
13649 13703
4661 11314
14511 2290
718 4879
9814 9322
6160 9058
8341 6435
16493 4931
13803 8464
3731 15056
7377 16718
14039 18063
3597 16202
3862 11168
1866 4634
9976 16164
13052 6483
12061 7090
12410 15157
703 15516
11300 18661
8591 12651
5982 9672
18528 5645
17750 12053
14062 5693
12237 10176
5584 9432
18865 16732
219 230
16511 5125
1752 18638
17 860
11710 13333
7217 5664
11705 18036
8423 14801
5708 19166
8044 2557
10253 351
14416 6820
882 3762
19682 386
5901 10016
10456 7946
11386 4056
3297 4970
4180 18089
16698 12818
2802 4318
14630 14853
18628 2918
10019 12325
165 6280
15294 18885
16890 3576
11575 4110
14271 13984
526 4335
6427 13787
14209 9385
14160 7636
6797 1428
9739 16804
13427 17833
7515 412
2655 15790
563 15005
3933 12496
12601 2331
1226 12231
15814 11052
15658 806
18603 13157
15206 11632
7394 12146
17818 18040
920 9496
16825 1124
8565 133
1056 6212
2203 16080
14818 3964
4884 18214
17569 4874
19506 13802
8771 19525
1760 13020
8755 4006
13225 2824
10737 1134
13781 9871
15427 6344
1844 10113
9766 7928
11664 10971
9454 9276
11303 2170
14546 4345
3212 6869
12700 802
5493 12227
17106 1880
3609 6651
13912 16463
17328 14614
7952 4072
5215 11308
2857 18471
9105 19469
1795 12197
17812 4776
14183 5471
19176 19391
8286 8180
17657 7501
9406 6226
8860 18239
11373 11199
2534 16903
16142 18609
8651 5997
3334 2136
4733 6698
14190 1194
4069 9659
1762 12429
13202 16976
5562 4526
14195 3490
10057 1991
12744 16991
11904 4654
11779 17909
9189 7710
14688 2286
5364 14943
7739 9853
8188 3310
17164 14075
13488 8354
6124 172
5390 15888
1973 16412
14118 18232
6555 16040
15858 14579
9906 13978
1766 1105
12854 15359
8815 8936
7611 8739
15987 12958
11443 15542
8294 7108
7140 16828
5887 13965
18351 11310
17277 19615
1262 13369
4683 15198
6031 17380
18612 8667
16217 9300
17628 2622
19418 11376
6158 14596
11082 18476
17768 13761
9394 12920
17941 2201
9142 13718
8394 10013
741 9753
3878 11886
7273 1333
10206 16319
14099 19307
16536 13090
11990 9675
1529 14147
2097 13755
11845 17096
10675 10207
5516 16763
4648 7704
7471 15400
14602 13660
2926 17102
1971 18412
16336 6605
1575 5943
7943 9577
11404 8513
16099 1663
1374 15879
4990 2664
6358 10381
16198 9075
8341 8287
14542 6997
6340 17698
6444 18653
7572 17690
10943 1463
2388 2595
9687 2889
15563 8900
18511 18261
16805 10622
15426 10240
6361 18969
11831 2027
15031 13049
14593 12877
4026 10987
9013 6304
7004 9366
4808 12846
16245 10521
8875 1166
3326 15883
13375 4436
14992 17988
3797 15473
12216 12847
3695 6120
15272 11508
13533 9014
7334 16894
11617 15451
18461 13879
9344 11667
7371 11059
11092 6349
4867 12729
237 15574
16949 15671
4199 10149
10611 5645
10432 516
17027 15442
6711 18133
7270 10868
4487 14091
7568 4743
16799 6263
15778 2190
6900 9173
2972 19667
12626 6744
2337 4311
201 16565
9949 331
9440 391
3051 19538
1568 11968
10040 14655
7228 10413
3069 9091
9965 10901
11959 10648
8558 2021
8340 13877
9465 8935
727 14544
5188 8610
7581 18743
15701 1196
14289 3063
388 7337
11936 13612
10431 15183
6879 10439
17939 13369
2637 4974
4230 19696
11683 1758
3333 10623
2129 1486
12033 242
19690 9803
10078 3538
17731 15349
13694 9605
14381 3908
15733 15127
12865 12541
15723 14250
5411 13851
11976 16619
2080 11641
3467 421
17517 5212
5359 8860
430 6137
17280 17486
15861 9364
2562 18184
2769 5696
2314 7599
16302 2507
9162 7511
19406 11220
10812 3738
17956 8922
5812 4693
13705 16748
12507 1446
15910 1086
16925 10837
18678 10774
4596 17510
5354 14589
14160 11102
7557 14159
12163 305
11484 14814
7094 14485
18547 1777
12354 2320
16864 5144
8299 17586
18903 12230
7821 9053
14125 11573
6890 5957
5186 4860
17633 1794
18875 13202
5669 9101
5973 15334
8830 6318
18852 19103
7260 6919
16049 17233
14424 4672
16214 5330
6846 5960
6350 12808
16244 8755
7127 4045
190 9460
12140 6824
10703 5459
15414 12713
4238 13046
8544 4971
13276 7303
8747 6475
18942 12605
17793 9320
11319 12612
10312 5293
13046 17974
16911 859
8760 11599
13918 3265
5555 709
19486 3767
14831 15433
14989 11350
13415 17055
8847 5289
10993 17124
12929 4888
19069 12791
4556 5677
3431 934
13598 1608
5503 14153
17827 1172
16047 5890
10345 13896
1415 8377
3147 8299
17641 12780
13142 4401
3683 690
11514 17919
1877 1888
9609 1757
3006 12097
8368 18865
5914 17146
9137 643
3936 19327
12522 6943
18414 7305
7132 1069
11037 11861
10754 16440
3258 9312
1202 16502
16609 859
16560 5033
9469 13176
4908 12083
112 6100
17157 4037
7668 9
6328 119
1815 17247
12531 6581
12246 12321
17515 3662
15707 5548
14076 6050
9445 2759
19136 18090
8493 4033
4099 10797
10972 8783
4337 1830
11733 13366
7936 3131
17879 13470
4294 12246
8172 9106
12639 2403
11048 17039
5342 18893
19364 19628
11184 8635
13458 10578
5111 13822
3704 11849
3038 6051
2162 10008
14097 5473
16703 13296
8160 9370
10486 2819
3673 12111
8519 9745
8214 7732
11633 4847
17367 7558
16334 15052
14918 5980
14547 1065
14985 6783
1351 13840
42 1128
14792 12749
8634 934
441 16807
13849 17050
11256 4700
2842 17540
3631 4373
16566 11679
1687 8888
12821 10985
5534 11541
13297 15760
5067 19130
7565 16100
9108 666
17835 5990
9702 15923
15647 1579
11657 725
10654 333
3772 7997
6721 10592
10973 6628
14253 13890
13481 10284
17772 7088
10 14149
3592 1078
16089 14331
6048 10397
16166 16308
1548 1397
8140 6564
10470 14736
4632 9758
11393 6735
4812 5798
16787 15998
8236 17268
10350 14003
7749 17590
17265 10025
5588 3638
10707 8642
17262 4823
17906 14661
14563 10160
5282 10268
9955 7341
5049 5011
8051 18310
11245 8797
17478 3932
14466 17186
17701 403
9906 15188
2133 7054
17145 6661
6713 3564
9146 12378
11472 16333
5606 3769
14819 4182
8909 12542
3388 1377
12565 13818
19568 7319
856 12153
11083 11137
18089 6445
9128 6621
269 19670
2139 7893
8160 9277
7693 12266
14544 10779
17228 16001
2905 10843
5051 310
725 3456
4704 17468
16548 17775
14733 19509
2281 16694
11339 9531
10641 17225
9627 13832
13698 158
4647 12110
7570 13177
11261 6162
185 5159
6338 5700
714 3881
335 5308
16872 19668
1679 1036
3463 17010
16097 16311
3699 14299
17619 6081
17533 17749
19049 630
17452 3136
19453 580
15322 7017
9880 7992
324 12838
4100 12845
1327 10906
564 8391
3254 6252
11741 6116
16019 15778
15044 9492
4202 2119
18750 10817
18077 17485
12444 805
17284 13209
5839 18144
18661 1755
18890 2126
840 3705
8214 485
3971 16195
4618 12990
7625 6831
12311 5901
18111 15817
14214 16061
19628 16071
15680 11442
13785 2156
10933 8
17329 11472
16835 583
9950 11348
6204 10459
14078 8005
17030 14222
15383 6653
15972 14788
950 6448
7281 6065
1769 11179
10204 5651
17054 17806
14316 767
181 2171
17638 13334
3469 1587
15598 1259
13515 4633
6074 11633
15359 1302
14072 4013
14256 9106
11832 9540
6890 5724
11076 5031
7729 606
17013 7087
12092 1116
13437 18323
2510 10301
9727 6729
12788 12799
2296 15472
5611 17753
13335 13643
1795 12684
8685 12042
1052 19004
8182 15508
18962 13099
5451 2822
11593 7130
7200 5156
10352 1303
13936 15552
15471 3050
17054 14102
12632 3920
5122 12778
297 14246
8922 2746
3934 4176
645 5274
10456 8966
5827 18810
2330 181
18784 3357
1708 13218
5926 19552
11251 1498
7166 18495
16903 15545
12542 18617
7638 18627
406 4623
16706 14238
14009 12654
4857 11036
11173 11435
4115 18515
19675 2849
7153 12167
866 16395
4053 5434
15578 11247
5559 5392
4052 10408
18164 18968
3644 5504
1092 2886
18053 10442
7027 10631
12962 11378
7051 9467
12105 19696
1328 18016
10602 14739
8083 17816
7893 17750
16983 14204
4048 14897
16782 1459
10516 13355
5511 6966
10636 5090
1816 7543
2056 18931
2230 13455
7092 13801
18526 5768
8069 18629
9889 8527
16000 14121
14277 539
4540 16503
11668 5665
1515 225
19691 2811
15834 12609
18527 6371
10490 18403
5745 10085
6442 6345
1052 15531
8111 16416
13160 3420
7062 2742
14430 13943
8209 17046
1110 5606
12407 3174
3315 10631
3345 8218
6513 6827
13856 17137
15505 6817
8075 18462
19414 13764
1514 10577
14490 8023
15495 14407
17103 11635
17649 663
7967 9531
7327 8354
8358 4277
5663 4368
1265 19187
15664 17790
5269 17072
16516 15155
8672 13782
10593 13405
13734 14375
9512 14681
5823 5352
8965 2
17729 10550
13899 9339
10815 7418
969 12190
14303 7473
6399 18613
13425 416
3516 16708
3600 19150
11823 9509
5190 17672
693 4339
1235 18245
6124 2084
5545 8300
8656 17924
5800 16979
10679 15691
8942 5648
4384 19021
1240 13414
17161 1716
12822 4981
16159 16850
14871 8084
4636 2811
7554 8112
16743 16325
18835 6491
4819 18385
11546 6359
15897 14360
15830 1085
3609 8768
13725 13937
10248 18386
93 18959
7858 8920
12743 7961
9991 11869
3168 7588
6779 543
12066 7247
2873 16051
3015 11116
18481 17797
19041 10682
11971 16331
15975 16393
1178 8324
14641 10984
10266 6063
16799 18564
10677 15812
6962 131
7345 17065
1026 797
267 16114
231 6455
1948 3711
8437 14493
11264 5547
11729 13348
5370 7278
15364 16354
2137 8213
6888 19162
14554 6931
7694 9189
8992 19397
12886 19463
18870 7137
19392 5277
15650 4864
16495 15773
12160 4465
13371 13678
2778 8373
11480 9358
7095 5667
14281 8073
11807 2124
15020 12259
16757 2456
18269 13792
9667 8730
12046 14389
16255 4444
12091 18712
10206 3646
12701 4662
803 4776
8928 19663
9085 8309
5842 4808
12670 4320
18587 10382
983 2838
14902 9228
5442 1846
12448 3139
15194 11281
14752 11002
15304 11894
4279 18188
8832 3895
4731 18361
1576 9657
16497 8226
4651 900
1597 12540
80 5208
14256 16875
8489 9537
3732 18169
14784 7884
11153 7461
10079 6114
11751 9032
12596 1648
8038 10941
12323 16309
1795 9539
18936 13694
13181 6899
16445 14112
4843 11201
15714 14004
17612 16428
5566 95
12628 18241
15917 15682
13799 2262
17331 11475
3044 17981
12505 17207
9473 2105
17441 13579
12282 2453
18639 12722
1976 11806
305 5340
3717 10543
456 10888
17056 13524
18243 3066
15974 16383
15947 1387
16268 17644
9340 17047
19255 14384
270 12181
2581 6237
4088 10583
17847 230
2479 17080
14834 8395
6054 3396
387 589
9459 9681
800 15275
19309 5388
13330 8612
5002 4115
8426 425
1187 15552
18471 3128
5921 19225
5885 2340
1536 10888
6497 18648
10947 384
19505 5073
6403 6681
7720 5681
12857 12570
15408 18458
7235 19486
1774 2665
10838 15034
14444 5377
8021 5466
2103 14150
13048 3193
7085 18059
3071 15053
15319 6257
17982 11431
16906 16723
4377 10533
2243 18594
13563 4367
14238 16373
15835 2519
5555 7918
15368 13630
536 16635
15950 17595
2927 6606
8720 18986
4354 3496
5857 1621
4128 4423
14957 14545
131 4922
13738 14435
19404 13295
1113 9535
17770 17224
9273 13056
361 3379
13979 19337
2393 16308
6645 5023
18516 13237
14624 12680
829 2424
5963 11581
4936 1211
12042 4434
18786 16961
8636 16274
15690 5875
8966 12723
1396 17431
15860 10696
1873 15421
10496 16927
3973 14977
8403 2438
11564 9369
2087 3613
19378 11259
6710 9645
8120 900
19370 6503
11044 1847
6696 1001
15220 2510
1803 16455
1880 2919
2994 5995
130 399
3177 13621
2932 16544
17536 13405
6306 9752
7309 702
12874 10297
3388 12898
10088 19486
19381 7776
5634 9123
7370 5715
15526 6453
1103 11357
11197 18148
1504 2348
16729 15540
14486 864
2400 6362
3028 9258
5175 14515
10750 10596
19349 12875
7575 13708
2029 12432
1948 16843
12459 19267
12408 3496
238 12669
7725 17286
3844 2210
6435 7527
17957 1018
2897 4805
16346 107
569 14262
2065 19386
18967 4885
11701 17771
12678 12727
4779 18658
18193 10996
8062 14885
18850 9861
7711 18501
5902 12875
14257 1713
856 6102
4083 15280
5307 16536
8023 417
11298 19151
15756 19443
12331 19022
14503 11660
16140 1840
12786 8866
6194 7358
8937 8694
15271 14634
3810 14560
9839 2460
14351 19257
13386 4876
6467 16210
6106 1923
8436 7800
17272 3087
2216 6963
15087 19622
9649 14136
18175 3152
19294 16763
11328 9061
4582 8153
2364 13587
8573 1002
14183 5847
17956 18509
15672 15409
13258 1138
4150 16367
4324 1495
14518 13325
3626 10825
18369 12616
8288 16254
1773 3740
15368 12925
9006 1260
7644 17997
2703 4149
6499 8930
5058 19682
4948 6530
12466 6526
6178 7622
5858 9760
2519 17521
7236 9388
5940 7917
8173 3079
4738 6469
6178 16378
18029 6990
7873 3034
14965 14566
11377 4781
12946 5457
7886 15000
2371 1572
6635 16742
7265 7242
6778 13255
11425 10761
12512 9855
1720 7564
547 4652
8314 723
18847 14342
11616 2029
18112 15991
8003 11421
9151 16486
3709 11414
15830 17545
17142 15130
19085 18576
15815 536
17324 6646
1693 7687
11453 6446
9027 4039
14618 10649
16300 15635
15454 3249
2040 14086
15065 13521
12703 6036
11495 10307
5511 9005
14046 18285
15134 7104
7724 3613
1393 1708
13688 9830
10191 3248
6715 3250
6910 10548
18513 14792
9118 982
3825 12529
4344 14390
17351 331
17489 6807
7574 7403
14447 5467
3241 9983
2615 18175
11589 2530
7791 11433
7750 9853
2351 2360
13063 4341
14969 17493
11466 8510
2263 9987
12042 17269
1717 14645
16574 7826
18291 2963
19549 10221
8327 4066
4091 2668
3228 307
19498 4972
1154 17376
12126 3527
18508 11510
424 2414
5424 11738
14895 7116
2977 13257
7519 15365
2582 12011
2077 10143
19124 290
18705 3158
17280 1485
10755 18831
8163 17191
1593 2065
17834 3670
2919 12881
4454 14598
16363 5610
7130 5305
19178 1004
11379 10441
18864 1704
13381 18312
12407 10930
12759 6282
12391 2589
7558 9769
17553 15343
13327 18996
11518 6355
7168 7702
19017 13345
13253 12477
18723 3589
10994 14763
19457 10146
5594 1900
4762 11566
3028 8854
11702 7097
18559 7218
17365 11396
8007 8139
14168 12129
1415 3075
335 554
7784 11890
1427 10948
3898 19375
14535 13188
7039 11395
18630 10356
17318 15030
3181 6799
10660 7664
8258 1781
15902 16460
14700 3149
11530 5718
7075 13103
12198 1613
12814 6299
5396 8752
115 16439
12428 10684
5343 3783
4727 560
15089 7524
9730 861
4153 517
18073 16680
17803 2092
4937 9247
2575 10266
591 16684
11550 2243
13776 11789
4670 6782
14010 9112
14019 17725
724 14202
7885 4734
16276 4977
7255 6792
11715 18961
10000 14447
9015 10279
4477 19368
5867 12644
8534 9093
5321 1522
15925 14901
10629 6449
10864 3220
4872 8297
390 1582
13493 3202
403 19285
5714 15411
16726 6024
11996 9002
4555 16613
5658 10023
15062 5506
3379 10045
18757 12800
12200 12491
12036 12543
1496 6850
2141 10136
12661 14653
5627 14043
6499 13715
18844 17912
19397 16945
7064 4948
16461 6109
14460 5562
16446 13507
3599 17295
11595 6204
6720 15059
18791 12518
12910 15735
13892 16580
6075 13206
19412 17631
17907 14052
12062 15287
2790 7551
1323 2215
8993 15865
1953 17025
17090 13514
16618 19534
544 15810
2568 4123
8133 10612
8621 8109
19228 8306
14179 11999
18431 2888
3239 7985
10997 4331
14815 13778
12735 7126
9835 7590
1964 3767
11515 17616
7477 940
2867 16177
4763 18735
16898 18780
8028 5229
19449 11246
601 11211
2923 9345
3979 13906
7245 14384
11556 15148
16921 12363
13963 7646
4157 10067
1013 13396
18086 12466
2884 13617
3472 2034
3576 4834
12744 16289
13330 14014
3055 1784
3287 5314
17594 7480
8622 17517
10976 14906
2188 15432
8985 2881
13382 11565
14589 148
9444 14618
1 8361
18084 19603
18267 4259
1988 11808
558 2071
16548 14152
7447 1365
14564 8844
632 18971
10721 15016
11555 5177
1204 17134
11355 10725
18691 611
1481 13448
7221 3228
5953 14256
12511 7607
4580 15586
1823 10253
13169 10365
957 7823
18372 17002
19071 13647
4894 2302
15103 19247
7993 5448
9835 4754
12239 15152
10680 19502
15619 13712
15066 17396
17463 7856
10837 1499
11322 2729
19140 1126
2567 19283
1220 7433
16236 17454
6374 7714
18168 17115
1218 4102
14752 8898
3077 854
6110 17713
16800 13450
2589 1982
2765 4189
13013 1094
18022 4760
18093 7333
3987 4948
6110 17895
3792 1907
17888 12567
10852 1183
8927 12517
13854 11430
8250 10906
17475 7012
5615 8974
17874 15323
9358 561
11933 13151
10465 4664
273 12962
14182 14441
11115 2303
9377 2854
12488 17506
2993 15468
6043 7245
6337 7359
18786 9519
17019 1120
18576 17963
5725 3392
6558 4123
5378 18071
16155 19029
17829 2883
16390 9167
7976 9319
15988 12721
2012 410
18807 1422
2876 16791
3032 5494
11639 3481
2088 17063
9284 1729
8166 4920
17842 18331
19454 11149
15586 13456
5544 5082
6235 15579
12849 12923
4462 15155
14118 12294
6939 19064
6951 10757
3860 17172
7876 1542
15050 15010
17556 14454
8000 10324
524 7851
14923 1030
12088 2773
12303 14395
12897 6001
1294 10638
11941 15207
9829 12707
19229 18855
69 13121
147 4630
19100 6062
10884 10918
13533 9742
18424 1128
3098 14396
6390 13596
8196 12620
19580 12831
14185 12101
14580 18144
11932 4154
1822 2522
13944 13784
19682 16969
246 15379
7843 16043
10795 18363
13305 18081
146 10816
11972 545
19564 7526
13536 12847
4423 2999
15115 6698
16773 18961
14083 16346
14271 13857
5685 2779
8337 3391
8470 7132
4435 13717
13751 3359
16327 10048
1006 3468
7970 5475
7987 16493
14258 7109
8931 15301
11410 16562
17460 18798
18182 17777
8042 14937
19262 3942
18598 15805
519 14394
19107 865
17798 11657
8318 18252
8449 4624
19402 2874
9149 13256
477 11642
2116 17587
17933 17859
16859 13904
11549 18043
4129 18801
14057 17461
10284 11599
13783 3597
11914 16119
13248 13453
11866 11616
15420 1029
5356 2046
15006 18333
3719 8399
7231 18413
17744 4875
3159 1442
30 17185
468 1017
10027 13213
11489 17823
2887 14205
422 18932
12746 15404
18375 5811
13615 4797
13439 11638
16124 12215
2828 2305
10085 14101
8087 4001
3384 3624
6487 12343
17309 223
5046 6857
3404 10678
12921 14927
4645 8481
4861 15285
16146 10096
10829 10914
3683 19535
788 690
18444 4851
14756 4123
6522 19004
10460 3672
12458 7920
6507 315
17491 1609
19090 3932
1751 15178
139 8916
3124 16550
16986 357
11333 13320
9332 14194
11391 498
5489 7331
10325 8783
7136 13991
11808 1216
4265 2749
1662 8655
2974 8781
9679 13973
13499 4080
11979 16375
7502 2689
2000 4809
8146 8690
4593 5797
7938 2708
4296 3426
10218 5963
3996 17945
2944 6758
14962 4511
2118 1184
17993 3513
19145 14245
18911 14739
13029 1351
16611 5628
6353 5086
7002 1657
18938 15541
15210 6585
17592 4212
10549 17953
542 13577
2398 13345
2302 14616
9375 3755
7036 13427
4415 5602
9538 2103
4475 2505
10708 3479
2126 4430
2395 6276
11869 10155
14563 17023
10251 459
19188 14259
19099 12197
1197 4547
10366 9471
7108 16520
846 5947
7007 17325
980 18120
8636 9076
12151 8968
14411 13906
12460 9308
3464 8413
9475 925
18446 18897
14768 8763
10058 14368
12139 19048
7878 13328
1918 833
13973 7236
13280 18785
1327 5624
14156 11802
3902 4145
1346 18581
6890 5905
16596 10407
10922 10099
1426 17042
17818 5882
6694 14538
14842 11731
1507 14638
12407 4381
3553 15086
13445 3804
8454 6506
4106 17077
17518 4925
2129 4068
9182 16499
2679 1818
6411 10034
6341 16246
13839 10062
3651 16985
14216 3562
11684 13021
14323 16066
5457 2275
19104 10662
278 13522
7673 12001
9020 807
6404 675
4413 12560
16200 6914
6782 10495
13323 15786
9158 12365
14919 6120
2673 15867
3418 17951
3628 13285
9759 8932
223 12612
6625 3524
18330 11618
11267 17138
17112 13440
7166 8839
18360 11859
5988 1089
15287 1039
14008 3003
19409 6461
11286 1730
1243 2757
3091 9802
14529 7524
7344 18674
8385 518
12700 6690
3363 508
2234 9017
5242 19483
209 13704
15417 14354
7237 1481
8616 18691
16857 16745
427 6467
4076 6938
493 19697
3737 1760
10027 12166
18163 3763
11440 13520
2236 19215
4390 9302
4966 3125
4117 17459
9659 11975
19018 2856
1836 4997
7057 652
954 2603
1434 5437
2198 18648
7968 11331
14431 8267
14118 13917
5217 6395
8396 7642
16864 229
15945 6900
1848 9258
8511 2643
16788 18387
7212 8010
17548 131
18654 18446
13655 18324
10036 14507
16500 3927
17814 382
12850 5167
11079 4901
17635 5380
13229 16941
2434 12213
12966 8493
7494 19397
17095 10635
19028 13195
14597 10320
4226 289
16905 17896
700 9830
10672 17570
7873 5066
3092 3385
15972 1215
13009 2030
2675 1153
3795 4770
2148 12870
5604 9284
10239 15759
14701 1389
2515 12562
14678 8293
8246 11398
11834 4531
11226 3410
13307 13244
14962 8473
15817 19466
6253 7655
6868 4211
4966 6491
3997 1984
6271 3640
19323 744
6521 2362
18032 9742
9197 13277
10368 4398
5721 15638
5016 9657
7280 18341
12772 1734
3520 10019
8667 6500
8044 11992
124 4815
13729 11154
2346 10738
4810 232
14293 10467
17051 7230
2041 14084
18827 7884
15361 19550
982 5284
9728 18804
16731 13039
19073 9745
1532 13351
3207 692
9813 11515
2135 14386
18274 13011
10748 15907
8393 13061
10930 5888
10462 14341
17487 684
4314 8644
17439 3050
16841 12047
2462 7993
12245 8147
12308 12738
9691 11964
10505 15145
1060 13614
17085 8877
19104 1229
13932 17241
11301 2507
13016 9082
813 13600
2634 5140
16143 14083
11947 934
13660 1959
2492 7270
16384 472
13623 3667
321 11199
15594 3052
18178 16481
9391 11652
9262 3548
19626 18311
11619 2276
10208 3682
2441 14570
11439 18993
2719 15045
15292 13165
2609 9008
2189 8581
4584 538
8682 12891
5911 7073
18599 7531
12319 12873
11783 2530
7454 272
16234 4650
12923 4044
11047 823
17172 17412
17253 7739
8873 4009
18589 3193
9930 12700
2082 1727
15323 19479
9526 4879
18265 16557
9830 18661
3166 13546
4248 6112
19248 13365
8703 13963
17984 4774
3214 13228
7086 4380
19208 2253
5044 2530
16389 18899
3940 695
9755 5426
18841 487
7166 15072
13231 18555
6821 3154
16184 9508
13732 5260
7154 7890
4304 8370
15188 6603
5647 9721
4325 1553
15509 12467
7506 1088
17031 9909
16399 5432
17882 11423
5879 19470
2875 5486
12955 10338
17004 9195
13059 8302
7952 7498
3966 16008
14697 15816
4499 2740
11249 15134
9220 5460
18693 8328
12152 13251
8459 12520
15806 110
800 11255
12752 5549
18678 14739
1917 12978
14020 4803
6802 16014
15748 18542
5946 19193
1847 2481
16572 15061
8583 8762
6152 13705
18772 12863
347 1394
13577 17931
19641 12076
5791 12609
2306 13285
11744 7618
13474 2801
8893 9502
2073 153
11455 12416
12523 2590
15338 13487
4200 90
6797 18913
14212 5309
8205 17058
3528 16172
18272 223
2104 15030
3103 4199
9433 1413
16501 2913
13093 2427
19180 134
8790 368
6222 17680
1493 9285
16308 8550
16051 11864
8541 9145
7667 6309
11236 17898
16902 7980
6289 9174
15650 15738
14821 14513
8951 11582
12629 7915
9523 2702
17016 8630
14717 16152
1585 16621
17868 11984
10308 6483
1713 4341
16497 9367
11694 7300
14686 34
5597 12000
921 16337
10996 2556
14195 4883
17182 10319
14082 7877
11383 569
5683 15534
11564 9897
17003 11724
15239 8702
1301 8544
4044 19220
17096 3393
2194 14313
6355 10699
1912 3435
13774 6030
65 11037
3239 17665
3875 9107
5168 7156
14312 37
4399 7059
18698 6571
18426 11305
3686 4767
6557 7905
14311 6685
9018 8064
3278 4655
11727 14107
13654 5697
6940 18080
9069 7396
18802 6069
18072 19538
4041 11797
14975 11318
13578 18880
2791 18136
14758 15876
15969 11198
9240 10594
14904 13849
14400 11784
6153 13204
2327 18782
17118 5575
149 18396
14374 1856
6923 14216
8200 904
339 14297
2410 14865
12913 7761
9930 4784
16073 15977
7755 7102
9495 4809
9041 9010
14285 6459
16130 18591
18331 15692
12049 19511
2483 11659
3000 17682
7637 19207
41 14579
16516 18578
6881 8591
7578 4225
14202 13704
7906 7423
17795 7236
13229 14104
33 2979
19287 13795
4752 6699
15401 13523
4489 1008
10358 6677
15132 8600
17802 10157
5374 7841
3953 7695
14250 3434
7520 3806
14567 14431
4662 13547
15066 3505
7435 11076
11491 16886
11615 16598
10770 18875
8157 4170
17944 7797
13868 502
4135 12828
7959 4304
12725 12269
3915 6895
15402 1432
7930 10734
3149 13606
8375 18376
13496 11128
13565 3825
1409 12206
9767 9772
2318 15398
2436 16269
13621 10168
7007 6682
11322 2062
1080 519
17873 13111
7906 12275
19490 8612
10422 5852
6696 12922
6084 19514
11199 10560
5105 344
7998 3295
16700 1477
16204 10423
9432 3593
8892 5209
1079 5724
2634 14647
8283 10460
7746 7601
9507 2402
13993 7183
864 838
8372 17755
6415 18452
8701 15162
10027 18692
3364 4987
3519 8274
7521 4330
8284 15033
6523 8391
1531 1074
4178 17376
8870 11557
2284 8095
5777 18564
12872 8906
19510 14297
16341 7532
4965 13155
5008 15125
17458 9578
1478 5535
12878 9748
14010 11311
5784 10654
15316 7999
9690 136
19033 9438
15528 14754
7619 12188
11875 15851
7549 5833
8390 17705
15322 9099
17861 3597
15098 745
12406 11771
12763 10094
15337 19353
10249 3892
18459 11254
11700 14797
14124 8890
5589 2931
6624 6917
11037 18979
19481 15139
5680 3518
2164 10182
6634 415
17103 15687
18090 6656
12837 19603
11134 918
12753 10553
8905 13684
8813 14167
18239 4512
17457 8330
11759 13962
7257 4274
16073 17466
14393 10497
9411 13371
17996 10670
15313 10569
16786 4674
7761 4078
12399 19007
767 17512
13872 17179
1794 2615
15027 14073
527 16539
3189 6185
5313 17306
12622 3240
4932 17287
14753 1459
1109 18283
398 7210
5804 13317
8566 10095
528 15761
9768 5299
11936 16579
8757 19702
1110 895
5768 4720
12205 17099
4301 7396
6715 14719
3375 17303
2551 16812
2659 4037
8193 16573
3884 17734
11511 7970
10752 14499
293 10844
7734 19076
17366 9709
18964 6454
19015 14569
12091 124
136 15381
15026 15669
5154 17878
6057 2994
1378 1922
498 11114
8548 13243
9841 15964
4719 13071
13885 1033
15918 13651
18807 9255
7112 5363
11156 13557
11359 14263
10455 14741
13919 17169
1891 14225
1705 5726
15437 13430
13678 7206
12061 473
16930 16513
12907 7983
17629 142
11389 1142
12358 10694
1940 9090
4763 3388
13430 9792
11385 16241
5210 1818
9335 12055
18193 136
4785 1965
13495 15646
6639 13451
4021 3892
4754 11745
13315 13882
9582 12989
5421 7989
4965 11008
1877 12129
18581 19137
9599 19694
10204 6993
2980 18992
8491 17296
245 1705
13133 16075
4444 13329
12546 5601
10755 18749
13841 6624
750 15669
5721 6198
17754 8914
15398 2107
13035 16200
5156 14504
1516 7930
6192 10220
1037 18860
1042 6000
12606 5598
11162 16357
7949 16411
5041 11411
594 1822
12520 4904
10981 5114
602 5038
16121 3781
7268 17628
6403 16474
15921 14943
19163 14537
15331 6311
15264 16598
4695 11659
7542 11488
10263 5137
2889 8829
18972 7480
19450 19077
15983 19698
5099 9111
12116 7456
2389 18527
9989 18621
9015 452
17985 9586
10528 11719
1050 5732
18829 1087
18920 18038
725 6514
6993 5282
8216 4631
17517 8965
5108 13224
9581 8477
18552 6703
13200 4747
10471 11416
11122 1934
9511 9269
17434 5494
9596 3748
6790 4472
7423 4028
17761 19516
9286 7594
7273 3545
12376 7224
11103 15076
15599 6774
16892 12585
296 6348
5486 17961
8640 7187
18192 15577
16070 12717
11646 9243
7455 6892
17817 1383
3982 839
18291 5492
4520 18679
13185 11199
5963 18996
5501 4581
16396 6019
9386 11380
944 15915
1122 14469
890 7882
8922 5192
4817 18088
140 18628
1590 931
13127 6297
6750 15376
4185 847
1441 12812
14879 5171
8638 7908
175 2148
1161 3368
9438 17371
16036 2833
9449 11346
4356 584
11699 2170
9814 2269
527 10634
15771 3819
5602 17164
2137 18255
10961 19031
1470 5325
2133 3410
8175 6550
6834 3741
8704 11502
4260 6774
6698 19637
18839 15542
10806 17293
18000 3522
6444 4605
15983 12724
9652 1744
5346 3973
11538 14450
9954 563
4401 6951
19586 18868
7148 11470
11252 12122
15206 19262
1790 12662
16213 11521
11149 5959
16057 1712
1067 13201
14849 812
13113 15048
6183 13417
17426 19250
11126 9579
15746 3876
14713 6592
11791 18106
17724 10853
12475 19014
10120 18066
7318 1137
10517 16048
14131 16684
8603 8566
6032 3976
5552 15922
7289 1880
10472 17910
7943 10738
10867 15161
15197 2177
1504 8086
1342 874
13793 3612
1245 18609
4055 9412
13843 9238
7062 844
1488 5208
1581 19388
3289 6151
588 19093
7854 15881
4319 15240
13635 14665
18220 10337
13360 16435
16226 8644
4200 2062
59 13864
8963 1600
2613 4816
3823 9785
2627 18423
11208 5423
637 9639
16299 17998
8497 3980
8584 5361
7941 12376
230 3857
8910 18914
9661 2373
4374 53
6851 8514
10220 1076
17918 17328
14917 16244
18031 5474
13357 753
14957 5199
14734 7378
7925 12445
8769 11234
8535 14006
17327 4093
16122 5070
14431 12373
737 6755
4033 4466
697 13019
17819 3650
18433 6480
13781 933
14218 17207
9054 4881
7282 14785
15452 1146
16483 15270
11483 10966
4623 14004
895 77
19365 8834
15349 4148
4186 7477
15457 16294
18248 16913
3583 9521
809 12474
410 4376
4040 13912
899 12547
4877 534
18014 18304
11057 17187
1384 7986
12252 1999
9963 3568
1427 13098
16251 8027
9647 850
4956 14163
6064 19530
2929 7990
19666 4497
9457 14750
12412 9024
8143 804
12077 16275
7962 10468
3349 1637
6667 5880
225 16218
13468 10880
7193 18933
7658 16281
19244 13046
6040 9300
4799 18273
8833 8057
3146 6944
17428 13591
16125 4176
7770 15407
5510 10993
7592 4863
17053 10312
2635 8359
5411 7444
1386 11362
16936 15008
8140 8041
16084 1052
9335 6249
2101 18842
17426 8110
2716 8868
18285 2648
12462 8429
12427 15845
9937 18681
2675 6943
4917 5697
7969 9249
6164 15434
14023 16731
5221 7541
16451 4367
8955 14962
19060 4043
14652 9397
15407 12613
14301 5036
4428 6038
5814 15148
19072 3918
369 5806
12659 96
15724 1833
8984 8457
8096 3887
16547 4762
8495 4535
14685 2697
4059 10518
1003 3035
10090 36
16041 14422
5260 18641
9978 1910
13220 8562
9203 2099
7948 6860
7835 17033
8865 15181
2316 1392
2698 5007
798 7968
10667 7967
11750 11944
16255 17992
16411 4575
6414 16161
13068 5160
5484 9764
4429 13608
10323 1300
3454 4689
11196 9757
3115 11786
18670 9513
4377 12827
12950 8248
4006 14858
2291 13727
9859 5470
12986 1826
12187 12119
16856 9547
4849 2105
13939 3495
17585 4878
2265 7302
15689 11745
12207 18273
16122 2458
15916 18713
15837 11127
15374 2504
9417 17431
4974 1231
6651 14363
4539 8393
19146 11821
3572 6337
1565 14507
14787 19470
17035 10830
8874 9133
3222 19075
12856 1771
13696 4395
11008 2815
6730 8
10689 1180
18247 10022
15336 6582
18686 11848
17966 7580
18917 18680
16328 6562
12028 7465
9368 4498
3173 18121
19604 587
3607 15259
8850 4895
14515 4581
7676 1503
16711 14231
5328 9631
8369 2677
3360 2038
6408 4589
6759 4194
18041 3970
6190 15101
18489 16186
7561 1796
18543 3095
224 17658
5696 6983
18583 5237
14060 8850
16662 17590
13224 4748
14416 12737
8095 11049
12730 94
14761 12250
13353 4363
2721 25
11336 16689
1571 8322
4324 12379
1976 2164
14402 16208
6124 8037
3096 19504
15766 17166
7643 9326
9458 16003
1391 19341
14795 7426
13714 5718
16362 14232
10799 13968
10856 15602
5047 17142
15447 10809
8970 599
18973 1210
17232 12583
2784 3345
18635 18998
6360 17363
8417 1416
18773 4353
11250 1112
2161 18445
16021 947
9346 16342
3079 496
13123 12004
14178 16174
11901 16534
18725 3078
15294 14914
17769 7801
9428 15350
17938 1237
2081 2990
14555 18208
14534 18678
14938 5029
16878 10017
7958 10170
651 3133
3706 1127
14738 13024
14947 98
12412 9033
16792 9642
278 13958
18995 2808
2299 14296
5228 3966
8481 14935
15141 5075
8236 16292
15939 17020
18393 17933
1190 12716
8091 12029
8286 4391
4352 8826
15714 4201
4713 7868
7243 3889
8372 19106
18362 14206
2550 8752
12989 8503
4640 16071
17251 10714
2704 16698
15561 1696
9784 3737
5297 15812
11825 2996
12940 8063
4023 8379
17224 13999
3805 1550
7751 426
11204 7285
2543 12726
18166 5451
1362 11164
6331 90
13686 2764
1029 14199
11667 11978
16817 19526
2136 14658
18448 9587
11768 9734
10411 10372
10452 9021
2272 11678
19054 16320
788 3897
16490 14284
14127 58
10093 4296
15953 4470
9429 9893
412 4087
13858 9721
19442 16042
3489 16810
8711 6494
16094 10736
15213 5710
16244 13632
8653 8407
15540 10905
13508 7955
9530 3803
3591 7866
3890 15223
13192 1078
17214 18755
1028 18295
3910 5301
4277 13072
8281 2886
7012 10908
5590 11155
11917 5033
3633 5878
9671 13540
8662 13530
12743 5790
14223 6205
13073 110
7892 15932
17373 16990
15252 6996
5817 3437
9184 8248
4058 5356
17949 9935
18478 1919
18405 19508
6422 5030
3167 15782
4642 5181
15021 10522
6825 17664
5258 13975
1271 2238
7000 6531
8623 5960
14631 7143
5769 10349
2367 9554
2565 5292
2467 9798
14967 11124
9926 2035
12915 12276
11889 9905
6820 137
10151 14230
8343 2957
818 11059
1034 15480
12275 12980
13797 17689
19261 6144
8211 3465
15231 5000
4753 9406
662 15905
402 18700
18280 16059
18656 7863
12858 8942
15425 6282
3808 11286
3503 14583
7007 3606
1740 17171
14598 11775
15305 18163
8754 17946
10051 4761
17447 5315
11908 8554
18553 5756
8507 4663
14958 19391
2874 4187
5251 7509
2049 12397
10461 15247
881 16051
714 2685
16489 16007
2614 2099
11861 5772
245 11532
5265 2829
6054 14758
343 19464
476 15700
15901 9470
500 3302
6501 11776
14462 12687
3561 5804
10758 4082
1954 609
6996 5396
5840 19285
14730 18083
13002 9967
15260 4474
16710 11274
11882 3943
10637 12048
6714 8688
1359 14133
15989 886
9228 607
15843 15093
5336 9979
9871 11562
18661 3571
5414 16650
8890 11243
3730 53
2815 9329
1347 19241
11248 4121
12811 9170
7954 43
6891 12584
16629 5367
880 12521
6510 1810
14596 19150
16527 3273
2337 4307
3012 19702
10832 10388
11269 5072
9325 15014
7505 12918
14209 3394
14444 15330
9811 2743
17434 16132
3739 16366
6711 15265
10113 2973
3010 10119
8686 6233
1572 18846
2236 8454
14525 16085
3076 630
2047 1699
2409 12388
19004 9888
6288 9452
6210 14561
595 15201
5021 12745
18951 9331
6234 14568
19357 2543
9522 13787
18855 7958
14986 16037
5293 14348
510 9765
6521 8562
476 6087
7716 13946
16725 8541
588 9792
5508 4449
9307 7754
1736 4199
7814 17428
9424 1466
19513 4820
15287 19199
10936 17800
16542 6051
16446 1264
10213 14506
11061 3921
13689 5913
3500 13023
10095 13868
13974 14074
17193 6654
16992 13238
7391 19621
13197 7469
15749 2666
894 12096
5971 16976
9143 2742
15427 1241
7758 3585
11741 18493
4233 14921
14243 1204
2765 4219
294 18161
11045 4603
13268 13363
12212 2081
15637 13540
11325 6205
5713 4702
13195 7415
6541 15236
5636 1665
7 8663
19151 14062
7692 1825
10089 1702
2496 1179
7199 3307
3797 8983
14964 6762
13119 9537
1297 15512
8716 10400
18524 484
13372 1815
12698 18691
15530 11822
1013 15787
15394 7930
12320 12625
17542 10668
17875 17908
11629 4741
14658 11218
16878 15997
7341 808
5304 17651
2203 6335
7722 49
1479 14361
10481 12281
11609 13633
5224 15799
5897 558
6079 10271
5504 10203
14526 15012
12586 2368
10652 3561
4788 15570
14319 5998
2198 19666
10574 4073
8276 4956
8796 19186
11527 2514
10481 9322
1756 3135
16398 5613
7549 18539
14129 12286
9227 1835
5351 13393
14788 15938
2089 8123
19575 10448
10029 13210
5158 8280
4771 13786
13812 3871
8160 15858
13067 14486
11254 8625
16776 19170
9769 10840
17922 15750
2768 14306
11812 7842
14137 7674
10398 7300
10159 10142
11264 10355
631 9471
18331 14046
14059 10818
6673 12776
13654 10779
10689 14111
4137 10535
15356 17375
18894 726
696 19246
1100 6878
7618 2787
4074 11373
2924 17877
6906 5522
10794 19572
759 2430
4330 13693
1012 13804
17334 6640
15200 8876
10931 16314
6994 10723
2097 15328
17297 8351
14078 19326
11564 14968
843 18771
16933 9449
15783 11425
14350 4927
17452 11552
15325 6858
11927 3251
12327 16875
9237 5659
16605 2836
18814 19348
16602 2518
18758 18119
15064 14266
2310 15892
18870 13528
9527 4350
4308 17988
9140 6848
15831 8536
7315 15722
13281 8908
17442 15376
15334 2412
15790 2764
2130 16693
9981 11606
10166 14886
5662 5424
12871 12360
11444 2679
19044 14598
12518 5818
14209 9840
7949 2060
9524 11413
3798 965
8301 9489
6829 7025
10365 2871
15023 8241
6287 14651
17925 1991
4943 9957
9410 4375
18242 11603
15808 4731
10838 14769
18220 9399
18970 1494
19314 1588
7873 9341
9867 8032
12050 11761
12301 10399
5695 10808
11784 2037
2493 2684
10802 4025
12684 7824
15131 11504
10306 8895
14746 9724
8027 14877
13717 9206
15970 12343
14178 10314
14194 8328
15002 14453
5283 2972
2913 17842
15487 17707
18717 15901
11151 6968
16502 18675
17022 769
14208 19493
16918 14557
8307 3837
5462 8729
19111 10866
17813 8823
7311 1401
15847 17751
18085 12012
10179 4988
2274 17577
3030 2728
9764 6416
11280 17892
283 7960
12991 19440
4882 2529
6276 6852
19376 19358
6834 14302
9625 8462
4642 8463
2158 3617
16013 6824
15777 2145
10898 5518
341 8063
13864 6392
5579 12843
91 3859
9162 4513
3007 17049
15290 1522
8295 3250
4381 3226
6939 771
234 6589
11010 9834
16114 4931
7913 13792
1599 12983
3237 6185
13442 8909
19058 8598
15233 15017
1933 9027
8053 13551
12958 1888
18522 10661
4250 2546
17356 3079
18661 11390
14040 7865
1093 3588
17420 5079
16522 9788
7297 18775
1506 146
16459 15504
13761 11422
13567 9858
11762 1785
5474 5069
9079 11514
19607 16389
3189 7639
5198 9732
350 9000
6127 15080
16212 18499
8558 241
7383 1925
15815 19013
11804 3298
299 11920
17759 646
720 5018
11739 10790
18957 18705
9723 6092
15756 13990
18926 14790
17734 796
15017 10636
12985 6324
14859 6714
173 19146
6631 3818
8056 19313
6308 6432
15414 4917
5701 19174
10960 11739
12962 17453
16323 9664
4254 11494
16691 12334
11299 14006
2464 7897
2695 1742
10387 3351
19612 9936
18528 10937
9128 233
15789 6657
10613 4464
13077 6913
2321 3649
4829 18667
881 14314
8939 8681
1044 146
5270 2186
8704 7489
8541 13076
13497 10804
19096 2175
13129 4943
17212 3065
13146 8895
4897 13635
17619 1315
13939 18283
16765 9436
18012 88
4530 5489
386 5697
6700 5254
14922 7797
11714 5674
5230 2553
19510 16871
16659 16923
6602 12716
19399 18484
7645 1880
19621 10502
11724 8758
7735 4564
2963 10279
19537 999
19542 7508
16315 5326
4090 16629
13267 12210
3338 14996
8852 15153
1092 7018
5496 16081
2925 2830
14819 15391
5020 16921
9948 4639
9092 2896
1645 9208
3665 12324
13341 2971
1090 17656
19043 6344
2197 12949
13834 19152
761 10635
12653 6532
4313 4525
18975 15346
13339 14931
8554 10371
3309 1788
19235 8484
18009 13607
10704 405
3194 15497
18716 16395
11016 16130
18086 4138
19109 5904
5064 11341
6702 19339
10174 10250
16305 17567
9847 3835
1444 8055
13651 18328
17541 15526
14443 18220
8290 8799
5015 6089
1786 13475
1421 8862
18633 3816
2839 13557
11281 15307
2845 19567
2616 11777
6225 4551
11682 14968
15840 1638
13373 16640
8947 9132
10650 7128
12635 15504
4611 12805
2156 6189
5085 16313
2334 13495
874 13967
16203 2513
13776 7195
11894 13340
5916 354
14062 7878
18899 8961
13116 16298
19092 10465
10231 533
15439 3586
14722 11827
17461 18471
15435 17719
15235 16841
8330 3743
4320 18578
16435 17797
14001 17233
7160 18513
18216 1626
15968 4029
12052 5462
839 5636
19346 6548
12080 17645
9013 8406
11170 3438
17120 13039
6157 13234
18047 1611
9593 11930
4731 13720
17646 4510
6082 7774
560 17291
11683 7849
3313 19040
1573 6811
17585 11671
391 10474
7857 1927
17525 14928
18011 12150
19706 3816
2739 8881
2801 5441
8137 5438
276 5435
707 10976
17556 10689
10055 14321
10607 1963
11052 14876
19286 5453
7478 6047
13897 3121
10267 2310
8658 8712
17698 3311
11974 7237
1027 2295
4838 15999
17338 10121
13561 5729
18622 14201
4338 2154
12495 4912
18782 18730
1389 3666
6528 3157
9317 16499
12928 2266
16168 2441
5108 16524
830 4077
14453 19127
11837 3602
6901 8183
15775 3477
5798 14805
18786 11792
6021 14735
11016 7740
9596 2790
13125 8493
3129 8283
8177 8532
4502 7902
17477 16651
16130 13079
9125 19050
15429 6722
15697 3870
16678 1801
17684 4871
18368 8240
5749 7711
6610 9923
5845 4037
1837 7741
3117 16057
19528 13234
14469 4020
15517 18739
14143 384
7871 17129
18503 11290
3680 13574
9630 9423
12393 10881
19638 4883
8856 9634
13427 9903
11279 2432
4114 12323
2797 12164
9394 11645
1019 11959
13604 1990
1803 13892
17717 17339
34 14401
15695 1283
9043 7958
4980 4510
14144 1077
15424 4984
10949 7955
18635 9859
4568 9631
11033 3304
7954 6916
18896 9238
1004 7363
8318 17105
11429 7543
2715 18201
5984 12826
3613 6542
12125 594
1377 16382
13526 11303
8113 12830
8204 14964
8497 18444
16824 8395
2651 15832
17262 14930
15286 4676
12262 18339
14165 9432
11015 13601
8701 11469
11082 2960
15527 10816
17686 11417
2711 11881
490 10582
7021 12346
16049 3771
7003 1344
9250 15612
10841 3187
14991 1438
17585 5080
7859 2422
3879 12775
10426 767
13680 4559
18967 4673
16802 9480
8017 5603
3757 3707
10841 3349
4160 17861
19663 4645
15484 11810
18173 10766
10021 14918
17970 4
11624 3566
4240 12009
8285 3681
3443 13383
19259 9557
11315 4805
9891 16431
16182 15261
19628 3395
13316 10114
10651 10922
5787 10259
14701 19133
15925 1438
1885 17928
461 7954
17836 6326
16450 7365
897 11722
2059 4075
8123 7184
4461 18815
9279 10265
14486 10171
10215 1561
13095 1295
8559 13713
11369 1924
3965 7279
14626 12766
7248 3662
3933 8384
16303 11361
5930 15335
405 12348
9583 6184
17583 3016
5903 12182
7392 15328
14172 18335
17922 6981
16628 17988
12121 12107
3014 1869
5396 4889
15229 9200
49 3601
13690 2183
6866 17153
12465 431
14932 19701
10776 6302
8866 13517
4325 4499
14626 2004
7490 3725
10962 9165
9129 1095
14634 619
1267 11746
10627 8113
12768 15040
7182 6886
15346 9362
12651 4567
7940 6650
12511 12402
15460 5432
17880 276
19258 12371
11923 16574
10359 11520
19544 8365
4312 18992
18687 7473
11218 853
5114 19080
6417 10905
15619 4565
16832 6226
17693 13272
3838 436
10859 19061
9735 4747
45 13652
5726 2245
16977 638
16835 4142
10425 6172
1987 2976
1384 5921
8879 11595
19048 4865
781 18826
18221 12577
13379 4862
8291 464
4120 18282
4778 11104
5028 6781
14898 10726
7853 1893
3755 7915
14126 1665
3161 2320
1568 9069
19617 7150
5302 5327
9378 14836
16879 4544
644 16442
2558 4194
14997 1090
2557 1480
10162 18731
13506 1788
5986 2884
10821 8633
6906 12256
11632 3196
2623 7795
10988 11271
12484 539
12871 40
2901 19413
2619 19005
15444 19457
11305 8171
20 11966
5086 19098
4573 15225
10084 10451
16520 10693
19127 12880
12865 15603
12532 14265
13492 19074
12991 4777
4761 17398
800 13904
4663 7797
6570 1254
9859 14068
924 1572
6910 19450
4378 7219
9221 11514
6260 5086
7435 16902
14723 11578
8423 18427
2880 15843
19572 15530
13148 6330
270 19286
13227 9310
8480 6505
16990 3517
7904 7066
19548 13609
9549 3550
18429 14144
7986 14145
14837 19601
2485 18643
3358 19602
4927 11617
2579 7889
16646 17634
12820 4403
10276 18960
3734 6295
7037 5373
7080 9169
3688 12543
1990 14434
1305 18770
12759 12020
12475 7482
12263 2768
8159 2442
8417 1126
7245 3427
11850 8686
8313 3879
16496 13629
14380 12789
28 14468
19430 13864
4270 11067
6118 46
11505 17670
12468 16011
15358 9265
16915 17846
3697 4421
8433 4647
8854 9463
991 9088
17721 7199
3149 16439
11005 8836
3466 8225
14721 2284
1723 17823
1756 7306
16780 650
16716 18367
15135 2887
19623 14402
15319 15931
3081 18325
16787 7237
4087 18063
7769 5408
7320 19592
6136 8000
11980 10989
16461 5213
211 6480
19435 16705
7884 1313
18994 6034
7991 17007
2744 8548
2810 14578
1870 12043
5727 6663
14651 11528
2479 18600
17080 8186
6401 10957
2921 11354
16304 1776
18318 14856
18878 8646
13599 13818
13470 16645
15993 9033
1768 6530
123 260
6540 12484
10359 4715
10152 15522
5617 9035
370 14130
189 11139
18230 4429
19540 3632
15050 3355
14175 2002
3126 15313
7217 832
4130 14759
13220 9050
19415 2224
4206 15492
3692 6986
9761 2305
6797 11558
659 984
5771 15539
18908 2676
367 4878
6967 4266
385 15679
3998 3427
2244 11097
4639 3743
15033 16675
2804 16295
13278 10130
18053 13643
13871 11199
2706 7528
16686 19173
4757 14128
7008 9261
3530 10484
576 2243
9904 9627
9960 1545
6261 17358
10017 12257
107 1403
19441 5514
15807 14912
18794 8698
12240 18139
771 1812
891 16704
11559 14029
11981 19155
17632 14280
18222 14236
15639 8031
16836 9350
2791 3724
4542 7813
6718 16763
7349 2152
7148 2234
5433 14717
18412 14918
4934 9183
17697 17220
15119 3986
1738 18474
14981 15748
2947 19200
11567 6754
15499 5627
577 15272
5844 1790
1772 5097
389 2783
16830 9432
9186 6558
8946 15729
13394 12932
18952 14797
11068 10054
6835 2791
6349 9333
7700 7209
5351 16657
8978 6542
13270 12627
6650 4223
15640 16024
14789 9546
697 1181
118 13390
9933 14451
17778 19564
13752 18486
7452 5809
7503 7512
7977 4407
1910 9136
4838 676
11791 12998
10007 9884
1410 18947
19473 6993
9442 8674
4379 18999
17040 11025
4627 6816
2627 2620
3252 2899
10382 15742
8137 12288
18958 11677
16913 8801
15031 16962
13257 18983
3906 16886
13110 3031
2644 14523
10470 1714
10994 10709
9335 9256
4681 1387
1957 10119
2598 9672
19228 17284
1811 776
8793 5429
5449 10806
893 16133
13244 14324
8475 16145
10089 18105
8786 16055
6747 13134
2317 15817
8851 9381
9220 16077
11801 11043
4177 9527
3807 3189
6612 674
13314 5728
1356 5929
19443 11509
2976 1862
18963 3459
4791 4167
9573 19301
156 7255
3930 2123
18964 9662
12964 2454
9046 1824
10954 16505
17978 4961
9128 18151
5255 16170
962 7102
7485 6524
18937 16611
6212 2952
12033 13589
9373 11426
8244 5042
6236 15481
9848 1858
15992 7647
3085 8679
412 2283
7837 9466
18582 3491
239 8816
18441 13921
11623 19021
1329 19394
4496 9155
3306 12142
6930 18464
13587 17235
12139 7830
6968 5738
15670 4241
7474 12462
12189 8979
2003 15540
10741 6794
9623 16486
5162 3094
5003 177
13576 12676
6839 13267
15615 2853
1902 18001
15846 10952
11432 4860
356 1557
6836 6006
4456 1408
8770 5124
13028 1999
7536 14294
10178 15245
16242 11372
3047 17243
9841 14448
6822 12792
2645 10986
7138 2846
9054 4693
10959 7256
13319 3741
15887 15136
13307 1634
6179 13636
12455 4601
2447 17912
377 16197
5791 17815
5344 619
12480 19162
9515 18624
3026 3425
12216 16719
2662 7659
11416 226
12219 3228
19055 1320
14049 16019
14239 6671
19471 6846
4262 9838
13815 18862
2473 15121
11755 9751
7505 6873
19489 7028
6492 4297
19119 18205
18618 5116
830 18525
8618 15948
3206 2469
15039 9324
15291 14405
2098 7569
13271 2382
18595 17080
2639 11434
4581 5118
15279 10089
887 547
19534 7081
10471 3869
9783 7991
11587 660
4912 8215
1912 6727
18620 7132
18330 12469
17114 6418
548 16908
12011 14073
4682 16552
5017 15864
4251 13057
297 6657
920 12152
12534 1579
645 977
11341 16515
11757 2607
8461 10467
485 19116
6243 3632
14646 15428
7850 5616
3494 4573
10530 19239
652 1474
19011 120
17543 2459
1404 12204
10645 5851
1340 2206
12367 2661
12771 4180
1758 16643
16596 3097
6759 1254
13570 2062
1524 16519
6016 19087
12305 16782
8290 10423
18921 5800
14236 15436
3829 16742
10877 10121
6183 5737
86 2141
16690 5498
15111 14799
8348 158
3233 5500
12924 11403
6870 10232
18983 9741
16768 18991
17837 7453
2780 3775
13240 4081
4871 5370
5131 2209
15747 1702
3805 8419
17164 5533
18639 10393
14080 9730
7015 13392
8337 13502
15850 338
10653 9873
16096 10300
77 6035
18120 14469
13435 494
992 6333
8679 97
12477 5007
1805 819
2249 9744
13323 7966
4797 13389
4011 6665
8019 4900
15787 3924
18542 125
15848 6650
285 16962
13635 17961
15906 14356
9341 7339
1027 11142
682 14807
10023 4560
2335 10912
13407 17144
7555 19249
6398 12776
14115 12469
5332 13018
11828 12963
10435 11681
17970 7641
2455 17165
1976 16918
15087 7802
14202 9465
2541 17278
6780 17267
6413 11155
16137 16537
7761 8905
6194 18776
46 9908
13886 12185
10677 11511
5574 6031
18470 13680
4622 2969
13032 4579
3958 12174
4553 12909
11540 10077
11347 2653
6379 16020
287 528
7534 2806
15903 3815
18659 18179
14551 18608
16449 8806
13078 5303
17711 7096
2577 8983
1293 6499
5656 15842
825 4549
1718 9632
5099 17295
6206 4129
436 6219
13965 2878
14333 11598
707 15469
19661 18821
7900 658
19131 15656
8392 116
14637 7711
3132 6709
14811 3008
2439 4599
2885 6649
6663 18281
2158 17275
6227 8152
7887 18868
17348 8077
16365 10486
11176 13829
2863 2601
2548 17711
4235 4554
5059 8566
12537 1097
5150 6745
4018 17928
11178 6717
456 2448
4097 6366
5153 6597
6263 16744
11529 7748
622 8108
19362 6018
2859 6828
15551 5326
6534 2146
6043 10477
1412 6683
17346 15910
3314 3275
54 7634
14926 10115
2785 11170
13361 16367
13602 14871
12349 8808
15269 9034
10469 4167
15222 8620
8531 14102
5148 8292
1918 5526
17964 1587
15885 4445
12513 1266
6740 12248
2281 11449
13670 10728
17184 10807
6901 10045
17275 7572
12719 18211
12883 9251
19681 1875
7151 14847
17943 60
18966 14836
19694 8977
1118 8079
2780 13749
2216 4519
18759 16047
7111 8024
3652 5812
3792 12554
19192 10808
16028 7046
17009 19479
1647 7876
5267 6643
18510 6745
271 17575
19641 677
19052 8247
13875 15958
17962 13570
3424 18774
19368 14794
12652 1614
12987 3479
10020 9172
18620 18445
52 10326
5855 13794
1736 7046
924 3921
2549 14016
1931 10969
11916 5978
6029 17800
3802 13377
10091 18219
14295 11614
11384 13632
680 9342
13108 19374
18816 15249
3507 2955
14468 13754
18153 9518
4509 2678
17488 8281
246 14765
11936 11478
7787 18521
19169 1132
12919 1247
1308 15779
6881 14874
3277 14215
9572 13590
1510 1332
5342 3128
1885 7251
17078 8357
451 4708
2282 17018
5857 19692
2699 2532
13237 8677
19197 11872
6371 19523
13697 5035
9569 7805
6082 98
5467 1685
3057 7715
12858 13954
17190 1007
175 9519
12078 6448
4966 18885
11244 773
1882 14360
18232 6069
8141 8963
14225 1729
4095 12138
14837 14034
4597 18002
6888 16052
1807 8637
15306 6738
12208 19113
3887 6544
16235 13619
14381 14988
18758 2943
1 6314
13949 6519
14017 12853
3187 1221
4805 2240
10524 8868
17149 9488
16471 6369
6238 8681
10782 13283
10051 1046
13507 10681
15218 15996
17860 2966
7637 10838
3129 10206
10225 9590
10882 1738
13171 19498
5704 13717
14137 9637
16151 10299
15720 3857
16802 16141
2703 14762
16738 19441
4286 4212
16378 2872
178 11711
6695 11683
17341 15377
7028 19645
14237 4323
1025 18789
7763 8208
16901 17496
3919 835
16177 16014
3345 923
5202 306
5867 13094
17627 5249
4960 3628
9747 14058
14357 17349
13679 11608
3242 508
658 6110
10069 9247
17536 10349
15299 18443
10539 8997
1345 10088
16860 13256
13036 846
8593 11338
2213 3955
1285 10358
5835 10728
8031 7460
3428 6703
1238 10609
18639 14427
9804 14920
18862 12377
1728 15983
11420 3923
16307 11284
2969 9236
1275 18267
10999 13103
10633 16440
9854 15171
7546 12992
406 19467
19679 2560
5279 18242
9051 12563
8548 1214
19136 10427
2335 16080
13446 7449
13187 10747
17462 1014
18688 19308
4087 17465
4368 4825
5505 10190
3356 2323
17740 589
129 11557
14052 764
17728 13727
6700 9563
19364 5709
5901 15764
3785 4626
19478 13471
7324 171
15057 12713
10499 2097
18783 2309
16975 18684
7548 4291
16998 16939
10167 12678
19668 10420
3991 11176
18967 5502
153 2237
2763 4220
6637 5163
2521 8474
7764 11802
2365 18622
11629 14055
7773 8130
1662 15456
7368 19533
16184 14702
16552 15763
2285 8880
3393 8147
18077 656
18487 6844
14016 7951
10536 3994
10096 13445
8829 4173
12233 16641
19222 2432
2258 6506
1859 19636
8039 18143
13075 124
17569 5261
15471 13159
1733 9964
12347 2959
15717 5000
4164 5914
15068 1041
6008 4682
14416 483
11873 9962
16955 2415
17860 8100
17777 353
4791 4357
167 6280
12415 16639
10875 10643
10885 9052
11350 5590
18442 1168
3036 292
19394 9805
348 4473
16178 5094
4483 11633
12067 18764
1547 14370
12102 8261
11281 1549
13579 1430
15428 6415
3820 548
5512 9061
11662 15436
13372 14414
738 18894
6672 14011
927 5919
10163 687
9240 8474
5823 8545
19623 3418
10159 8439
850 463
19597 4327
14839 18503
2111 19532
1668 15887
1617 8738
18306 4896
17925 9758
8780 7944
14850 16590
13072 6133
16697 5469
15752 5064
16685 6186
18271 1716
2549 18321
1028 14488
10291 2699
8298 4479
7433 4609
12917 17940
16165 16900
1171 16699
12014 14685
2033 10196
14343 13375
12181 528
8594 15467
10665 5944
2157 11820
2348 5544
16029 5710
4472 17927
17 6937
332 12779
15071 2992
7440 17037
9125 16956
19643 16870
13145 8400
18461 18690
17436 12473
9010 11628
882 3727
6442 8121
17224 7324
2215 14499
17017 3814
16023 12062
7069 17753
3987 8125
1425 13375
10907 16974
14272 6488
1107 7563
3510 7317
15190 11279
2299 12386
17503 10822
6682 15971
17051 1282
18734 15955
17075 11238
11074 8680
4067 19703
18520 3318
12452 4279
12272 12326
8089 8473
5237 10825
5684 18854
13070 3161
14023 14406
15816 15535
5579 18634
3702 17264
10889 12169
3122 8858
12236 18124
12917 756
18700 5528
14944 6904
12681 11062
11756 13661
16802 4219
10969 9341
5182 5778
9625 269
8653 14329
6321 4947
17950 16121
18305 14139
7712 10894
16764 7194
11861 10555
9915 7356
10847 4653
1711 6745
8068 10868
13920 13560
1508 17589
9778 7277
7885 14155
16642 2623
15886 12358
14254 6977
14859 2656
7920 19271
18608 11228
15702 3458
11410 1151
14873 18662
175 18027
18110 6327
8033 11440
14478 19419
3622 16692
8173 16214
18229 1534
11362 12760
14258 10455
8099 360
2027 8789
10155 4791
5716 8496
14074 17431
14768 18321
12238 8954
6798 2636
6248 1952
16242 13387
9421 14908
16404 586
8668 1537
16544 782
12161 5375
18296 127
10772 3380
4442 6498
6021 6837
1404 13814
3447 12455
12743 4432
14376 18099
14983 2503
18427 1949
575 16855
19369 12422
8331 12586
6598 6828
7221 10272
14980 6428
8633 16460
10235 3231
4175 2202
3080 12040
3289 15501
13046 10566
12401 15311
1832 4823
5299 4631
6898 6825
6590 2544
13602 19143
6490 8126
17480 5066
14104 9819
12169 10004
11950 9365
3042 8882
5936 5320
9640 5316
8473 8397
2026 4332
17239 1563
9603 17617
5362 12425
15096 5423
19556 6708
19194 10984
4843 8150
2707 18626
2354 7602
1734 981
381 12146
14838 9361
6602 10270
4256 3379
1973 2641
234 17217
4745 1234
5384 14170
15668 17059
6850 17787
8748 212
7021 4856
14941 4030
12450 11836
10841 14257
7252 17428
7555 4916
13096 6762
11755 6097
11596 11404
11087 7606
5199 6746
11526 17267
4051 2061
6764 11448
8648 15900
523 17521
15251 8790
10580 2399
6047 12974
9409 10537
12734 13167
2055 7500
9656 11092
12340 14337
218 4151
8153 17227
5841 1142
10566 9035
6447 5939
10344 7587
18747 5408
17271 18687
3469 8676
372 18847
1379 839
6629 3661
10305 15711
12458 5483
15386 14898
3521 5240
4898 4927
4296 2495
8684 18240
18151 12192
2323 10500
18727 2823
12319 14903
16335 2325
5582 618
15444 5002
19478 10953
12070 5241
7742 7129
14187 590
5752 14952
4190 4076
2546 17130
14316 2594
3024 10275
16423 17531
6228 13394
1779 8355
10464 16159
16420 17936
2087 6641
10542 1507
10582 16960
17883 11243
12704 17226
17194 611
19410 17785
9749 1590
13030 14928
2797 1004
9324 14433
11735 16526
3405 78
11899 17464
2167 17882
11292 2815
812 15202
5386 16119
3857 7921
3903 8209
6847 9235
14047 1625
5323 11921
13653 3048
8928 5794
2039 7031
4120 5506
5817 8740
18338 16007
5048 16276
18021 15166
8190 11531
16740 8095
12978 17135
19381 3473
11326 8910
14131 8523
19571 10245
786 4174
17256 12887
11655 15632
18163 3430
19501 2572
1078 18198
18006 14956
857 19295
3083 18076
10310 7714
3141 9151
16444 10444
3407 12896
16633 15078
4501 6785
3930 5462
18631 5606
15944 8695
18868 9943
2376 2950
4872 4953
18828 7533
3564 4599
16169 11329
9900 19545
1560 18184
15906 7483
2363 8094
13341 17779
735 16842
19398 8725
10535 18309
15268 6378
13880 6424
2294 18630
7613 15170
9023 14824
401 15174
3219 8274
11518 581
15923 5374
9133 6087
13800 9231
12568 11355
990 19409
15208 8771
14268 12322
11399 1126
15311 12346
11700 7121
18490 9603
18122 14249
2533 1070
6423 8097
10783 16491
19042 17913
7697 2760
4368 645
16504 11426
5183 1522
7913 2944
18399 6867
11367 16204
2527 1576
675 8242
19468 13005
14730 13105
214 11308
15380 14275
12825 11846
6142 5929
792 9679
12353 414
11283 17123
1455 19622
17459 9993
11180 12743
14235 6380
17921 13086
2867 10330
1438 9258
12241 16147
11200 6517
12740 19221
13407 11663
11166 16992
12593 8289
18856 17407
18414 972
6224 8811
19221 14925
6766 7359
3942 12103
5055 7611
5764 16930
13709 7531
7933 10494
2013 1894
8012 16993
7186 5018
7010 3745
2234 14449
8026 16627
9598 16676
12247 2656
11042 9625
9735 1640
4572 1272
14283 253
942 301
17202 18372
951 19697
9686 12174
10406 484
18756 858
8408 9380
3969 11081
14837 5895
17844 9422
17476 2135
12664 18637
4978 5271
7662 8519
9843 10667
7782 10376
240 2313
12419 18699
3600 11965
6537 13545
9590 10250
9854 11976
16978 19315
6810 2934
7508 6934
11784 6414
2220 12442
15180 13907
17639 16819
5866 10224
7309 2308
399 9401
11377 13149
14153 4755
9644 19007
16863 18398
664 1375
11811 13635
12961 6548
16160 17291
11748 9062
10302 8641
5528 12651
17229 1223
17082 14228
16380 14509
319 11206
12374 724
8620 18824
1821 3
14981 7082
5181 1471
10457 4711
962 4869
1606 4263
12059 14529
14402 7414
19300 10617
12912 12125
14344 15140
12204 1716
6594 1384
10541 4866
15583 10468
3841 2840
8252 3729
7246 16236
3089 6845
460 19091
15054 18562
7125 3225
89 5345
1188 19596
12225 12825
11392 12488
9977 12843
9209 5263
1267 5585
4716 17131
1169 259
9509 17974
8293 5748
13538 7603
15588 13412
14112 3719
14217 18062
11646 11475
11273 2629
17239 2552
16243 2193
16040 15470
5231 19520
9152 151
12007 6140
1184 7500
13195 9189
11239 18386
17927 18404
364 4817
7677 17497
16049 19181
7123 1646
14656 3637
11752 1826
18739 358
14676 8573
11336 6595
710 16603
15591 15253
8671 5719
7009 17970
16996 16630
13378 14916
12633 6878
3198 12022
18831 216
13300 18199
2864 3530
10608 8751
9747 11349
3223 8960
6260 12206
423 6764
782 1603
1164 7687
8849 12277
14024 7515
13934 15185
9485 1979
15648 18481
8467 13523
7168 6894
724 63
16841 19069
2083 19092
2875 903
17301 14380
11784 8641
18602 8917
9166 9272
2224 14766
17652 3518
3308 1518
15604 1802
2091 8346
12932 5161
14923 19037
13106 13706
12121 12265
4401 19049
4118 5153
17645 3543
9767 17010
1186 19394
13810 1607
1173 12098
5093 8898
186 3662
5584 5124
3555 11693
6122 7134
10926 14300
13827 12919
19413 12973
18138 6256
1053 6498
7145 19611
1894 4434
13899 3832
2853 16859
17667 10254
17639 1080
13153 13893
19661 1227
16139 15107
7106 4133
9044 8187
14421 4528
12123 7139
6753 17957
7086 6338
6958 17796
5538 8903
8202 7060
6891 15461
8390 16606
7726 2669
6741 5587
8287 1478
7864 15866
2904 18477
1193 8480
3997 13408
1527 11038
6586 5142
15824 16893
2693 7243
6756 10966
4654 5810
1371 19531
6104 14347
17199 8072
3300 6058
18453 2907
6921 17706
18415 1018
3947 11888
13985 7364
9808 11404
2667 2966
1930 4096
4024 4540
17439 17448
18270 15635
6871 6117
17414 15870
9967 9180
10644 18629
9078 3719
3838 4658
9019 14682
9866 2803
15288 15657
3628 8967
12765 10214
13510 9932
15217 18482
11000 2947
4603 3283
16699 9776
4552 16711
9971 6091
18652 12540
15861 17404
3769 16836
11935 15191
8862 2277
18633 8980
15877 6287
3753 658
13314 8010
17481 4385
19425 1726
10666 3732
3859 13211
12295 9257
15354 15833
7026 10990
2011 10547
5010 7808
9749 19255
15468 8532
15546 16930
4454 17223
2551 5863
18141 2283
4613 7050
12579 16756
6129 11138
7641 12076
4762 17151
5940 9995
4063 3578
15780 19478
17393 12861
17209 14023
2384 869
7587 6791
669 19699
18002 10491
19297 17932
2457 17152
439 4
3483 15817
7998 2462
10493 17177
14458 15395
13140 5354
12413 3718
3752 3851
18375 12736
2257 1783
13199 12510
3001 8956
14050 2982
15298 15566
15133 13941
12122 18500
16254 13504
5213 13686
14960 8703
7274 15088
5398 4834
739 69
12514 10369
17607 1248
9929 16947
2017 336
5561 5855
6948 19356
6471 10037
2731 1378
14798 8315
1825 16162
18444 15875
10403 13492
2712 11460
9673 15159
12322 17500
18863 10588
2685 18807
14239 10403
15847 8705
5534 13610
17789 18795
8137 13644
16665 18220
10587 11041
15064 2977
11983 3073
2848 12654
19335 11554
4835 3875
3648 4774
12944 11800
17190 14756
17837 7101
16630 2384
11286 7713
7115 10910
17821 6822
9944 13880
4839 17902
11046 6615
5686 5184
17771 17477
12650 9093
7430 17339
17257 10153
18203 6615
18365 18007
13531 17728
2248 18067
55 14825
17697 10024
16355 14211
16307 2201
8991 19142
19673 5019
11651 14249
17967 2804
4139 11019
7612 7703
8285 9407
11802 17239
15758 9144
11277 7209
2306 9824
6945 5601
8325 18130
317 9520
5100 8502
8504 16093
902 3354
18112 14068
18758 4414
12431 9784
3943 13173
2022 15711
13813 6429
15625 6970
8317 17385
6259 16646
11129 16349
7920 12347
13579 9449
3015 5622
2291 18544
3347 4307
4864 4949
6955 4443
10340 13050
12653 13508
16590 4702
910 1591
504 12192
14597 2837
14142 13214
8653 7382
1292 6556
17986 6188
16038 8184
13537 19349
18383 9658
1308 2355
17032 11016
15071 11073
18129 12260
7408 3210
9670 18118
17643 133
1814 13181
10710 2028
12379 9266
10390 1658
2133 15873
8048 861
1680 6402
1920 19221
2852 7619
15557 5083
714 10304
13645 13008
16316 12254
11894 10038
9378 10013
19185 9877
18830 11892
4287 1248
3604 13256
10147 10309
8011 19180
12374 7787
16165 11267
6289 2564
16489 3763
6478 5936
10864 13962
16653 16994
9762 9314
15506 1457
10776 15878
19120 8823
3168 5133
7083 6249
1582 14272
9828 11521
10098 8977
5191 5193
2020 16581
6157 18686
1275 8608
633 7254
10897 1432
8952 18811
15234 18467
5820 12433
19326 9225
6084 11545
17724 18313
10739 7328
18198 3029
812 5104
49 6314
10887 15689
17005 10261
16236 16632
18091 12659
9492 2083
4974 16706
12715 3178
2794 13740
12516 19132
10859 704
18294 1472
8609 18837
9360 9755
2226 18219
17204 9795
15378 1742
16063 19099
17551 3340
19200 4905
13628 9036
15596 7378
7699 17691
3723 18729
4513 15241
9925 16357
3683 15017
3258 19095
19423 19052
4830 18585
2591 12158
11466 13093
16862 14643
3212 19458
6761 17695
10910 1056
12314 19576
14246 13555
3231 13366
16157 5755
1820 12991
5276 19624
11021 991
12498 17790
17614 10760
7874 5734
16283 1961
1418 15797
12972 8609
623 15220
17429 5245
7741 2274
11942 7848
8406 17142
3643 17684
6751 3963
8085 18756
7361 9626
5675 12418
11701 17397
5247 8126
7872 12136
6861 10109
13153 7403
614 6433
11385 14118
18357 1720
14578 12213
5882 17513
10556 2368
209 1883
13425 5810
9516 3336
10481 3315
11162 19442
12288 3145
3105 1874
563 2814
8878 13926
8174 19097
7173 3301
144 11191
16044 6729
19321 17764
8286 679
3309 11020
533 11197
5244 8441
5072 18811
5115 9101
14024 18974
3300 13122
16088 3312
18776 5355
989 8073
13749 8968
5572 18589
13860 2117
9968 5943
19118 113
6686 1566
2922 3523
1525 1968
1727 16716
7835 12318
16450 1133
1286 15523
7934 16519
10234 14395
4968 8113
6218 14161
10706 4805
12183 9617
12971 12810
12390 1280
12113 3242
10548 18792
19326 3606
7083 1159
10018 17331
6197 7560
4415 17362
2594 1688
3699 5265
1917 11817
12242 16855
14728 7013
7814 323
12429 3639
4109 12321
19060 14416
19678 18060
13764 16261
19245 16614
2010 13830
18545 3078
12170 18334
13899 261
14274 11487
4360 717
7055 12453
17746 1212
12628 16987
1030 15924
15077 13666
3934 13569
14713 19542
17596 203
2880 2057
11457 5498
18800 6552
12138 16512
19304 7463
13901 15989
2471 400
14479 17070
641 8701
14822 3159
9567 12095
18853 9054
7680 18676
9355 9176
17504 5420
19247 11864
5837 17391
19565 12799
16918 2352
10406 12305
5586 15725
125 5232
4676 15264
16200 565
15629 10855
19039 14672
14216 13150
13993 4018
3739 17121
12299 5257
17264 19472
6230 13595
19392 14280
13266 13071
18866 18926
15413 10342
14490 14970
14621 13127
1068 2167
8801 19203
2162 2238
10602 5222
898 6760
6092 13636
7147 16601
19012 8750
12248 15454
12467 19671
10510 6869
10024 3869
9159 1040
1627 616
18206 11830
10157 11410
3373 8438
18221 3944
7919 16144
3135 13693
6796 8031
8696 632
16224 285
17269 10137
507 7210
10967 5312
2431 11054
16016 87
2921 14677
4599 17203
11318 4675
11692 739
15324 18861
17225 6321
9161 4244
18096 901
9748 13290
5661 7829
11621 19660
3657 17075
17787 3561
17383 6787
19413 6774
11175 6060
12526 433
9527 6365
4124 8594
4486 13972
4680 13597
5478 17797
9779 382
15347 680
649 15323
3833 5502
2312 7834
15723 7428
6815 4834
1006 14410
18630 4022
13769 385
16570 9684
7964 2396
8577 6588
11901 1960
17803 8746
16596 16595
15259 3394
6253 17673
17846 5291
3079 6674
8434 4215
6731 10960
296 3052
15541 4893
4001 18988
7596 12472
144 1295
14780 12812
3093 664
8240 4429
17794 12398
10890 18056
1343 4058
1509 10328
18380 11497
8037 1950
16220 9076
11659 10247
19202 84
1355 9714
3412 16701
1151 1935
8926 7152
13636 6033
3547 579
7098 13349
10658 12576
15934 2493
11218 12509
678 11925
1810 11240
1266 16658
11292 14912
5783 12439
10827 12675
736 13227
2946 9773
3389 8227
18467 6745
9835 8164
18488 5309
4267 11739
9986 17354
1724 2758
1405 17400
15713 15260
5498 10764
17557 15395
8087 15684
5615 836
8708 8737
11143 3071
5489 5652
3751 17622
17644 14409
380 4718
12436 16833
13590 12943
701 15969
16262 10697
7356 2389
14379 9010
2392 3616
4958 3856
252 13015
4242 18508
999 2914
10764 17864
603 15772
17730 12058
15009 4656
4636 14446
10837 5690
15402 902
3533 14709
4796 4778
18864 18750
19656 15348
2163 9984
16437 10244
9127 17343
12145 14309
15203 18330
15732 6687
16897 11819
17987 18628
504 4957
5623 19062
12400 1671
17389 447
16245 8277
16559 9609
17445 18468
16681 15765
584 11019
16365 10827
3720 12450
9444 15801
1671 6973
2525 3333
7237 5596
8182 18439
9878 12980
3724 6971
10196 6605
2720 5770
16480 19384
1213 6118
16192 865
5469 2167
11234 18140
16821 9091
5955 11410
13914 15303
11379 3555
7640 2475
11957 7560
1410 6840
11172 14932
606 7901
97 5488
5264 5027
16891 6504
15619 12275
15139 2783
16321 17950
8580 7973
17571 3225
12137 8840
3145 18199
19475 4333
5598 11782
19097 11429
1988 5756
17391 9878
17241 1445
6432 9038
7775 2466
3606 6495
11120 5777
6480 16205
3704 14125
9974 17025
1636 7249
12083 14826
10186 14024
18364 3701
1867 5366
13738 7388
3853 13048
17754 3133
5159 996
18003 2386
15745 980
11894 8310
1749 2978
14416 18010
11897 1357
8271 1732
5841 571
4105 16254
14606 12544
6405 5559
3820 584
1864 518
8677 2154
8838 6616
19523 4233
11025 893
6363 7977
6434 17008
16324 14618
12540 8411
14686 18955
14437 17739
12102 2345
14729 9516
9497 15181
10422 2051
15671 16026
7169 18389
4492 5987
5014 10808
1463 13028
7867 4361
8602 8801
17598 314
12065 10559
2392 13848
7271 12834
2425 944
12167 5631
8828 10704
18177 13786
16624 13863
19230 1995
15928 9445
4437 1620
11596 5399
11586 2252
17494 14091
18570 15503
7334 15790
4387 14102
13739 12013
15345 17249
11204 5853
5754 1113
14166 2906
11843 18518
13754 3253
17559 9315
3937 3048
16090 3670
11190 8657
10899 6153
2956 13169
16774 2263
13442 15415
9832 9477
81 8628
9393 8869
2976 3056
13229 625
14004 15598
16243 16704
15255 8973
2602 7118
5442 16206
3457 10559
14713 11011
5239 2841
17589 17610
18049 1256
8652 1220
15524 1943
19131 8432
1243 18209
17108 9352
18711 5648
13044 5766
18069 17988
11043 16752
19086 11892
3492 7827
13748 9789
14102 11316
6555 14607
17484 11387
13774 3100
15963 11777
18673 16584
6019 18924
18156 15600
10164 18112
4230 3805
216 6145
2733 8597
19424 11088
19209 678
9410 2239
15120 13484
16120 19661
16368 4158
11704 11129
11391 4258
1518 9965
14996 7687
1228 6068
16895 5830
7250 12838
3470 5642
4388 11743
2883 10435
6199 4873
16289 2576
7566 12749
4757 2081
5906 12745
10998 9712
16730 5183
5801 511
5365 18557
6168 12454
8732 13787
2404 76
13000 11899
3310 6761
6045 6277
10122 3135
3985 17586
8835 19226
18918 3368
4299 13708
11633 15139
6696 2070
19363 15243
17558 32
1255 9274
9844 8035
10400 17121
17980 4193
11912 12194
10926 16289
19421 9919
2645 16529
17468 2735
13963 4772
11871 10896
2846 11247
5170 15696
10555 12642
772 256
13369 6265
10254 1557
16378 11953
11291 10668
5075 4868
15385 15214
5349 7937
10385 10527
10758 675
2560 4500
12111 12507
18274 242
12954 16096
18757 19019
15660 5580
18720 4961
12969 6808
3390 9287
17420 11747
9245 1469
6668 3245
8551 11038
9228 19069
14455 2968
1031 2787
10097 3348
8909 19593
9845 13197
1981 1549
5714 6017
7663 3345
5714 7397
808 2395
7348 2645
13069 1505
5169 11551
1528 3266
6430 14539
11967 11150
6313 6081
8198 7828
1105 5235
15195 5398
6745 2731
4130 5637
17034 1967
2140 11413
15211 17692
18909 15234
8094 6612
5634 13527
17476 198
15399 16119
530 2511
6931 7298
8453 8256
2534 19409
1093 1767
886 12786
14256 6713
9643 10663
9032 2514
1200 4612
11406 10765
15358 16695
16598 9250
18357 16069
1402 1821
13761 4008
9630 18799
10257 15446
13566 7670
1018 17394
18188 13169
3386 5760
15886 110
1405 9347
11055 5492
14379 12929
229 13236
10014 11924
6059 6932
9125 1595
9 3606
2444 115
19197 9333
1027 3977
8679 13575
7179 7495
8613 5006
5136 18350
6297 7698
16610 14190
16376 7452
8959 9859
4628 11966
17716 18931
12912 13060
2574 12325
15869 2606
5317 10686
1554 68
16491 17624
18458 14219
7103 9039
3126 9594
3065 18290
18384 10022
18073 13141
2252 15344
2588 12123
10185 14796
11317 9776
4319 5746
3788 16927
9777 14169
6631 8383
7152 15583
4958 18551
17475 12774
19493 14802
6146 3945
3488 14483
17875 16759
19486 8157
5447 14129
10682 5454
8563 3432
19403 16223
4347 5401
2097 13243
9794 5541
15073 3711
6281 19494
6201 10562
2727 661
13723 19582
5509 3066
6484 5079
2637 6244
15793 9589
14640 16913
17368 9072
990 7505
15868 16824
15582 3565
676 11771
5376 19283
3096 13512
7593 17257
18864 9036
4016 2115
10829 1511
2727 18949
14779 4523
6831 10131
10070 1064
1916 1567
19487 521
7409 4923
8767 3566
12783 2456
11047 827
5478 4946
13264 13925
9156 19165
10681 12901
6628 8027
12801 18567
15951 11288
15033 3882
12324 3449
10065 15940
17655 18702
12002 7809
13659 2252
3541 1884
15670 19443
15534 4309
11555 6208
16867 206
2009 18566
379 10849
6368 15811
18604 16485
4377 17738
16225 320
18830 6364
1021 12882
8361 17265
14982 1384
19252 10090
16777 1306
6336 1555
13252 14370
3264 11741
17053 9893
15052 14141
4755 1054
6845 2715
5350 15630
3333 2721
14029 16728
13671 15389
17292 10828
5666 2221
2718 6654
14670 5062
6211 18356
13977 8854
18563 16305
1121 18671
12980 11268
17962 19328
18632 19335
18931 12793
12137 4724
5203 3004
11198 15301
14915 6722
5225 15419
490 12185
10509 12841
16816 4768
3724 4706
9566 14603
19013 899
17992 10007
10531 14238
14952 4452
8172 6865
16541 2796
3967 13177
17086 13091
12841 8836
15899 6148
614 19478
2014 17021
15964 17524
3832 16735
12475 7194
13330 6812
18939 7287
9095 14110
10347 9217
16026 19665
10129 996
18008 4157
146 13362
3664 6020
12485 17955
16402 8210
18960 2808
19036 13121
5126 1501
17519 672
8471 14538
9320 19500
12060 18750
10113 7593
9489 415
10390 18790
12118 19678
2078 4779
5525 17268
200 8357
12513 5597
18983 7337
13138 11749
10971 7461
18458 2325
6568 457
1493 16116
19063 5207
10525 18730
8610 8670
11982 17379
18142 3228
7860 12860
9204 16525
6979 1367
14623 14525
13033 8652
18144 9851
6168 8850
14677 1258
11510 10318
13560 7267
16976 13560
3373 18409
9155 8441
9516 9985
17702 9297
5516 12797
92 6527
13442 16746
17783 6591
1744 3662
5673 18290
72 3471
17247 5236
11450 1841
10560 705
5436 892
627 2221
18541 2860
11296 10065
18660 8416
16847 11135
16309 10427
18075 7424
3069 4643
5737 8503
13796 8455
1873 1172
18069 19549
14934 3714
5519 3122
6712 6848
15067 1537
4180 6009
6024 7730
12046 18438
6775 18731
11288 17281
18905 16454
2650 14305
749 18316
1413 11523
10183 13191
4546 12708
1652 1535
2726 4355
3653 8574
5608 1512
18992 18149
14958 6569
10241 9287
10108 16370
15357 13700
11146 6737
14386 11232
8468 1271
13584 5411
4679 5176
14998 476
17489 17734
1160 3983
10059 4674
3248 10447
1874 3261
8509 996
4231 16726
5766 10935
19497 8568
17194 8961
18610 8177
9746 7577
16339 3476
825 6840
1325 9648
16015 13102
7022 1469
15514 11060
9977 10746
16607 8946
7898 1862
13530 10209
1301 13874
17896 15238
11090 15345
5209 12777
10113 14904
6419 11152
4085 31
6818 7749
448 15734
12524 17765
168 13696
17735 1025
15496 11302
17841 2420
13247 13092
17007 3194
15195 17991
3954 13872
9212 9100
1288 17656
5434 18213
2325 11989
7491 11774
5662 15106
4514 9454
16963 15555
10585 3194
5374 4592
7068 8060
517 8230
4317 17603
11946 6319
5619 3576
16922 2493
10160 14941
4411 15349
6007 11044
8626 2578
3978 11666
19585 16539
16258 9523
3123 234
13466 1355
5425 4996
3145 7634
16534 4797
15237 18143
17195 15173
9733 11008
4239 1249
7882 17098
19148 6935
6325 18401
6076 813
16905 10054
2705 2648
1251 6789
17860 12506
6924 7885
13336 16981
15382 427
6200 8142
474 7202
18692 18804
17354 11228
10253 7972
13309 11847
14679 6364
3918 1737
12549 11749
17968 15298
2415 9663
2550 16695
16477 2014
8311 9826
6412 37
12073 8170
11761 15687
18884 14200
4209 7854
2893 799
805 11076
3784 1798
11753 1902
1627 14833
12624 17126
8450 5200
13249 18735
10086 14091
18397 1148
12056 19324
5940 12938
14148 15069
7002 17979
15477 10199
18686 18783
228 3836
19078 10307
8486 5616
884 10590
3353 7699
3733 11706
9343 851
16614 16672
3970 4176
9754 14723
9352 1137
16927 12256
6496 7338
13255 8914
18473 9197
3025 18670
17681 6579
2092 18245
14716 2401
2947 2141
3247 19068
18766 8791
458 8065
17467 15647
12372 1661
4466 11878
8670 12615
207 17108
393 15479
10884 16665
7736 2148
5310 17528
7300 9660
18626 4848
14009 15601
12341 18594
17869 2806
12687 18456
13096 3429
5170 14284
15592 19199
4219 17088
15065 11855
10839 3760
4092 3800
17044 1505
18542 6652
18837 6481
19462 5776
14999 12317
8876 5910
1565 4887
12460 7762
4984 5182
2078 3011
14232 2156
13685 9753
16074 16334
14725 15778
2036 2194
967 4746
17727 12160
2624 5617
14164 5954
4382 3494
10159 10967
5016 14459
1009 5162
8775 9934
15908 17644
5091 16480
18450 6315
9392 12205
2412 9555
12253 15706
12824 15929
16770 10825
12676 2102
9040 17507
4452 16967
9500 7321
4637 8994
19275 2350
8771 1965
16452 1490
5041 8552
5123 14819
12097 18009
11196 58
16667 14034
11740 4227
3465 6891
6093 19120
1277 19576
8722 15872
3945 4794
16025 991
1374 5628
9207 18003
18481 12075
14737 206
17853 14327
13657 14291
9190 7425
6128 5084
13991 14632
10328 19517
6225 11359
17016 14206
18194 11662
2064 3701
7885 6234
4303 1248
14090 6316
16035 3558
7432 11273
6061 3859
5469 182
10597 8101
2772 5187
17648 19134
4324 9651
340 6520
10812 17091
14788 11187
2912 10539
10560 16976
4826 9476
12345 12995
3915 1284
11654 16177
12767 6070
8624 3728
8549 15025
501 12278
5541 10661
6011 17418
2690 18646
8989 13993
7647 11109
1144 11533
248 17758
11655 18126
2488 19058
6113 4551
13 6531
2084 9633
12605 10003
9771 4088
13132 17208
14640 3626
362 12221
17432 2818
6638 11349
9148 1112
707 13347
9293 19354
7600 11205
8506 116
9647 4435
18207 13270
9799 711
19358 18569
2319 7653
10796 6116
13371 14036
11375 15898
3265 11633
15417 1970
2644 17066
14952 6393
16823 6634
7584 12696
8956 15452
4869 19459
16350 31
6550 12043
10988 1930
15770 16093
9365 19338
10681 15866
15297 12622
1812 9536
18467 12702
10144 17047
10286 14734
9357 10633
3190 7218
2451 13399
7398 4583
17261 10500
15383 2229
12415 13321
27 3378
5948 10062
1858 4375
4666 6256
8795 3285
1440 3157
14453 18923
14430 18433
12120 4847
18555 4207
4588 5622
961 2155
19594 15637
6201 12026
18952 3153
7439 11401
19155 17427
18765 15910
5603 15550
3956 13483
3961 6271
8099 2147
16307 15970
2272 13154
8392 7260
10055 17584
4716 14069
8671 4320
2811 4915
1943 18484
2805 10913
9726 6902
7502 16619
4225 2200
16224 6585
12644 7615
4865 4608
14893 12141
7622 1690
7674 14525
5307 3943
17788 7854
12555 7023
6776 13363
141 239
9380 18342
18779 9390
1988 5011
18174 4055
13309 6208
8076 1466
16564 8529
19051 11661
7734 387
15092 14579
2604 3227
10032 4044
7496 1542
9718 7914
10697 5694
3931 15144
18549 15960
14755 19311
16437 5643
13757 8415
5144 9697
9543 4632
12815 6916
17614 17211
7164 8843
6724 12267
15066 818
6664 18649
17322 5777
8092 16320
5845 14472
9177 15659
5793 10561
8363 6976
10946 13081
16909 19442
15694 13399
11430 7950
4717 13814
5794 14419
3825 10971
11997 10439
2340 5039
9805 18758
4744 6775
5637 5607
17613 9907
8850 13410
9967 8490
1293 14136
6875 5887
7575 19476
4450 13385
12412 6458
2450 9478
17378 1819
17005 18522
2386 1879
19232 4926
5786 16473
10852 2325
18351 18292
11439 11431
15318 13853
18960 11649
16005 1528
2560 3812
13182 14767
6308 2399
13794 1578
5174 7762
12667 15790
4898 10395
1614 8285
10908 16376
9960 8700
5967 15345
4928 11770
8828 15525
14158 4939
7969 7281
15032 3882
14867 18421
5924 18698
3534 18863
10106 4221
1975 5268
8237 2641
8345 17922
10377 6118
8493 15553
16056 3992
15747 9450
13057 17792
1890 15321
5133 5338
11522 4687
10286 2896
17872 1315
17157 17246
11044 5112
1941 14089
830 5090
1887 16832
18912 7940
13246 7748
5974 18924
6989 1131
7016 7085
8701 15715
2675 11569
3047 3862
14106 18803
18709 1409
16204 17856
4455 12887
7890 6420
8028 17537
649 2260
15199 380
2504 19091
13134 9474
13221 18418
107 15852
17662 13296
17892 2132
371 13078
2214 8893
10975 17910
3690 14953
10644 135
10284 16247
17928 10498
19669 4458
12216 6808
16608 14074
1244 7120
19393 16826
15788 5502
8843 2593
14244 4192
5025 210
16988 17485
6639 2660
12513 5039
10341 9334
19066 8146
1386 9085
395 2621
60 1143
3444 13324
13302 4596
3744 1198
9259 5767
11781 16291
17329 18928
16039 11536
12260 16095
12402 11611
2288 16070
1453 2963
7684 15752
17052 604
14675 11744
3036 9104
14503 15547
6855 14383
4642 15159
7162 7290
14576 13753
2816 16391
17370 10303
6962 7030
7830 1789
1260 17148
18944 10010
9001 2824
13397 9213
15643 12820
12984 3517
11689 943
6847 670
16172 3960
19305 642
10710 6504
11651 16080
16712 5733
4987 18327
2307 699
19610 4587
16678 6047
6382 221
19492 9320
14101 8388
7907 18407
18428 17399
1896 14435
908 7930
5025 3464
18098 10165
16794 10258
17857 4819
15493 13598
329 8986
13156 9336
7852 9397
5297 6407
9964 17079
7205 19525
14906 13710
12738 12325
2828 16254
5893 6181
1671 7510
3504 18229
8437 6859
5357 3542
4979 12831
12817 7256
3021 4197
7832 426
9072 13109
14773 19614
1829 1527
6477 16999
13281 14351
4819 6566
13484 16259
10288 5277
3042 10545
9441 11822
17242 845
3331 3320
6187 11492
7584 4875
18672 11930
5613 9011
9342 8325
15792 6477
10628 17819
11264 15232
7117 19353
8924 18406
5144 3506
13436 14308
6912 4659
4192 7547
5354 18125
6853 17217
2482 8542
18071 4694
18046 16428
18391 3693
11060 18068
568 7579
15965 10946
11374 12714
5290 12546
15281 16009
6880 6668
9315 19098
13631 19567
16238 1679
13537 16225
2273 6466
18261 14856
18857 4640
17866 19253
16558 8592
3901 16337
15789 16984
16889 13460
3696 4670
8058 16002
17661 13077
3631 10346
6037 19660
3355 1089
19082 3927
12525 15953
3509 7689
12403 11757
16745 10792
5309 2710
7797 8259
5914 8421
8887 15700
3674 2055
9652 6129
16089 9180
635 17862
1768 15346
4571 16936
6587 9899
8043 4077
6320 8982
15731 18317
12694 9219
12086 11317
18502 13204
19592 19525
18821 4649
10527 10777
15644 10812
19326 17711
13595 17903
16813 19411
10312 8385
19245 17587
1855 5933
6242 7877
17555 10247
6259 11346
7352 14296
16539 15555
5992 13515
4078 6615
17517 10501
7406 3947
15032 14061
7445 4036
7701 15732
13721 268
18913 8526
7905 14582
19448 13332
1193 4558
11155 3698
9404 16381
10334 4735
9953 11396
6264 2172
3295 10453
2214 15091
18629 15573
19314 8523
4702 10658
18377 5533
7314 11339
18965 12935
13449 16079
6015 14708
8958 11405
2259 13553
9003 7672
143 6275
13215 6188
15187 9956
16672 779
15118 5201
1448 16845
6111 8068
11798 15794
458 9009
7818 2905
3855 17480
9060 5002
5943 13771
5876 12115
16599 14408
10638 13812
4330 19566
17354 15520
10087 19162
1664 10205
5238 4759
18348 4662
16395 5452
8372 18955
9461 8676
1953 16727
3134 1633
17490 13665
5721 15179
19006 8602
12163 13346
7880 4293
5809 4521
17552 10761
14512 15740
733 7897
3392 5334
15249 12300
18433 4940
4192 15556
11331 14159
286 13821
7053 11675
14925 12574
751 17183
7510 8232
1476 7544
7336 19123
601 307
14005 13000
3578 7778
15003 2724
11309 13871
18221 1562
12461 4752
17312 3716
15111 17586
4759 2467
11131 16016
17913 4448
3751 4578
11118 19532
7720 17903
1350 8796
2813 12607
13578 13951
5130 15040
13326 10744
11430 6119
17495 7474
9583 1279
7596 2486
3346 14333
17599 7669
10680 2812
1654 1994
4686 9532
8586 11115
3388 343
17473 5266
13931 12853
6561 16482
13612 8017
5887 10574
10950 4866
8820 7708
5459 6027
9328 6075
7589 7197
1615 2384
12290 7436
7601 3893
1789 3774
17873 351
9840 6648
19505 4007
7284 7896
7028 17708
179 10882
6326 1913
2789 3628
13138 17523
6494 4415
19639 4423
19392 7196
16317 1256
5543 5257
5840 16883
1715 4271
562 832
13554 1863
8018 15684
19088 11750
4950 7645
1472 8924
19118 4846
266 9491
11207 16457
18161 5209
15099 13650
18602 5628
18907 3283
19217 2883
2433 14011
5938 17141
5135 3296
18651 2061
11626 16265
4032 18626
13429 13918
10075 12129
17759 12590
19339 4012
3415 18792
3519 8912
12198 11610
18833 725
2408 19375
14328 7107
6362 19206
10957 12264
9654 18870
5994 12292
9718 13652
5656 37
2367 12195
9899 16883
4821 12839
17925 16205
19688 16266
5663 7291
4047 14855
15740 11642
14349 19683
18737 11772
4944 15894
14465 6502
9023 7239
2133 12188
9951 18475
2805 13762
18744 173
8588 9579
7930 6202
10150 10067
8782 12360
10689 6258
16692 5926
13017 1138
4678 2807
2305 19242
1585 10562
3666 5009
2876 7941
7069 17679
2174 15449
13652 11174
2730 16923
7346 16670
2261 13908
17904 15279
7209 2495
2775 6684
14684 12835
19579 6220
6704 5737
7071 8469
10443 5135
7917 15069
10875 15143
5030 5400
790 17747
3456 13501
12144 2696
4213 2726
3329 3673
5197 2361
11360 13393
9448 1955
5961 17288
7765 1653
16576 4757
9576 6477
10576 19660
8352 17397
6215 15086
16379 5922
16848 13503
11177 13137
15610 15147
9631 3620
19057 8208
14035 6984
13996 5512
4775 10376
9819 4845
14412 13165
6465 258
1376 18545
4119 6195
10414 19344
661 2713
7389 6739
9241 5707
3948 5024
9062 4625
18592 738
4195 13142
9646 2135
2284 14680
18397 9796
12100 2369
13414 3102
13249 7605
13871 9896
15014 13961
6137 17194
2822 3402
2712 11833
1679 12368
16771 19255
7370 16043
4604 14751
10551 16435
4921 8813
1622 2167
7670 2456
14298 17923
5266 11626
13903 5281
7767 8728
18524 8528
8826 1251
2542 8867
12160 8693
14534 7992
1865 16217
15439 18485
10333 17756
13816 9232
13392 4383
5679 3939
1000 17398
14617 14819
2527 16479
10995 12671
15542 19634
5777 17531
16894 18428
16638 1047
14868 2837
7357 11085
3470 9653
2441 18403
17757 15718
10584 7500
13969 14833
17767 7389
280 5115
3576 10487
9508 6767
17255 3667
7402 19355
4955 405
8279 9171
617 11452
12702 4515
15137 15192
11777 8822
15766 12887
785 9675
17747 3170
15685 12037
11355 15828
3649 9551
4842 3878
3986 6138
153 4342
7861 10918
5650 10205
14647 17315
14548 15028
5210 4016
14180 11883
9372 15632
10277 17013
5884 13154
11998 14141
17171 18763
17530 19510
6454 8174
8692 7548
9482 14724
8627 17791
15650 12012
14367 8957
8197 13183
8512 2329
13288 17281
8378 16283
8598 7187
13639 3985
16134 5670
17668 2058
5633 13656
826 2860
3723 11447
5359 18780
19331 3307
18044 15795
11893 5731
5741 10629
3243 1998
10288 10982
17861 13457
202 18832
17761 4116
12440 17845
9086 9000
18402 15054
3732 11604
13913 19461
16808 3858
16096 12689
13933 11278
13128 18943
5729 18915
10576 12655
11056 11162
11681 2598
1494 9512
5796 6558
18088 514
8564 18163
18526 1176
9680 1024
8999 1839
16795 15144
13958 10096
11668 11469
15602 4080
16414 11810
9307 13401
3414 7802
18313 12725
18729 3385
2040 17755
585 13571
12426 15839
6680 1666
12939 61
18612 1703
1202 6178
15276 18643
17747 631
14765 10245
16530 5163
18155 13782
15896 10108
4395 18380
7108 1908
3764 16559
18589 7708
13937 13887
12835 17125
13115 7972
666 9501
18257 5934
7077 7275
10546 12246
9749 3131
11511 128
18900 6896
17798 17727
10716 17789
6000 7721
13637 3788
12711 12580
7203 6462
4811 5943
10178 8670
697 16766
10860 18574
15530 5056
6213 11518
6950 643
12304 1689
11407 16811
7310 9415
17655 16217
3928 12169
10756 9271
18649 12916
2063 4100
1083 8994
1544 6826
4166 7609
5805 2315
7202 12838
5817 3322
18286 17594
2974 10734
4631 17731
1322 2403
11742 1205
11887 6527
347 10724
7561 14611
15412 16846
19096 17566
2597 12788
3259 10830
12314 2465
16352 5844
2311 3846
10722 889
296 18185
18818 8878
2591 922
18084 7623
12569 13344
3796 17705
4132 12709
12492 6631
475 9030
13566 1111
10680 373
7926 3452
7414 6266
18677 7805
14012 12547
3882 18284
15989 6450
12134 12602
141 1233
18533 7742
10215 8519
11572 9787
2452 17881
19400 9113
4269 14342
6649 7697
10808 3219
11163 3362
1174 2464
14415 5067
15604 4313
13880 7104
2358 5480
15584 12361
18986 18994
7545 8752
8082 11368
841 9467
3856 7342
6259 9103
17413 14130
15084 1748
3515 633
12026 2186
14997 16422
6471 8428
13872 3046
2477 17313
1159 18009
14203 6089
13885 5056
13986 18457
705 6955
6350 16914
19543 17215
15910 2669
5622 764
6102 13859
15401 5163
14542 9796
3389 8815
13960 14942
10781 12970
8949 11032
1870 18708
4453 14037
9260 6023
7434 4680
10520 5938
3658 10849
9560 2411
13773 13256
605 4217
5083 753
16680 961
1556 15915
11854 17084
16797 9894
2970 13424
3529 12951
4137 15694
4714 12381
13000 16632
14619 4815
6988 15027
13138 16444
7191 1916
11557 13634
10865 7624
429 6195
6409 11940
2647 11948
8621 14346
12068 8232
13949 11606
9530 450
11320 10781
5017 663
10601 4317
13675 332
1520 16567
13391 1951
5412 18258
14520 7832
10443 11167
19642 4906
17122 19153
4211 4690
14607 17735
15863 13338
4189 14447
17817 11194
8273 1751
5922 18626
9768 19656
9478 8674
19105 17000
7824 18928
10988 2930
19637 4724
10432 8638
6998 2770
4810 1951
675 13193
18994 10384
12298 5156
2375 15381
8279 5234
9256 14726
17851 17881
18494 1427
8557 9231
5542 16282
16765 60
11515 11692
500 14933
5949 15499
8790 6841
17819 4339
17627 19210
1532 18479
4206 346
13254 15288
6579 15268
18925 4593
8446 8120
4831 17007
13876 7758
16953 13055
5171 847
11400 3409
18961 4888
1634 19141
13126 14397
10437 3623
5760 8101
13116 18910
1401 7707
6209 17137
1108 2271
16537 16748
9240 3650
8585 9303
963 17491
10232 8334
15046 10013
7968 15386
11270 6587
17157 16896
5288 2785
12804 11237
6617 12403
1664 4834
11929 6029
5961 17196
5010 18570
9791 14245
5013 2786
824 17585
3903 17996
2375 370
14071 15176
14474 8443
15380 18258
6903 5473
7978 3681
18241 14375
16210 4994
1628 11028
14793 12044
6303 12210
11512 1345
3503 14410
1554 14223
10506 3144
14063 18791
14989 19084
15889 2877
16362 19169
5872 6841
1260 9937
15841 6517
10390 11576
15193 11041
19705 10419
15308 12939
2439 9762
8305 1736
2450 16199
12901 18264
16154 17514
1495 19387
1694 18372
10775 1690
5193 11993
3916 14694
11499 10930
10424 12714
2982 7383
975 13558
7845 16846
15506 1377
4003 11839
19600 18369
8967 12631
12250 2323
18314 15159
1281 2762
8772 17077
16124 15926
10301 18118
7294 3664
6897 7768
13157 18361
7544 10354
15649 5390
2925 14706
6871 10181
16654 6450
10971 4818
9815 7724
15916 1448
5637 10653
1175 11120
521 17102
9592 15175
2998 4089
2356 16800
12472 11706
675 3213
16948 4802
4977 17279
7053 6614
1720 16358
6884 9218
16018 10262
11853 13156
16827 18681
3579 15773
19305 8379
13114 2713
14057 2499
5750 14123
17916 2756
12133 401
13003 18300
17960 9091
15911 6667
9233 6862
8210 8020
18308 880
19083 6992
11949 11023
10154 17389
18607 17369
433 8323
17230 16585
2159 10820
13413 17852
11426 8216
6386 18221
16174 5975
8254 11178
17173 7616
853 11637
2305 8677
12360 14088
11960 18523
11131 5814
3750 17417
16325 16649
2596 2019
9602 12780
18647 15897
3261 15447
16540 8698
10836 1519
1409 16895
17127 15204
19114 629
3644 11729
19507 16464
520 15937
9343 19684
14639 4923
7614 10195
11496 10340
14038 11326
312 12788
13762 2667
4322 15736
855 16076
6793 8466
5182 5676
11698 5228
6614 5204
636 5540
18861 10661
11549 2749
9110 122
11895 14598
17368 11582
17453 5897
13669 17573
19570 4784
16287 225
16934 6653
6705 714
6660 13631
12887 2525
17592 16649
19027 16830
15559 2079
6985 17009
9689 2297
4163 16057
17135 14313
17572 11236
9648 11144
9786 13834
18808 2663
780 3828
14923 16042
11444 8521
8680 785
5206 9788
13297 1187
14423 1786
10210 13142
5104 10390
3875 14450
15205 13273
19404 1961
11669 3659
2347 19125
16293 15479
15562 5982
4985 4392
11289 16524
2051 7230
7997 2793
18984 13425
16228 3236
18333 9554
8181 12686
19205 19305
483 3863
13491 12009
6982 16419
16737 5032
5337 3124
14917 3221
15388 7350
13310 6367
11974 15217
18527 11458
12070 8001
2666 18030
3652 16971
12447 17508
16558 16391
1075 5300
14113 1605
14322 14737
5663 1819
1885 12852
11990 13607
11772 14942
4726 18751
231 5602
2885 7110
13104 9670
3582 18701
2865 18423
9496 15401
1577 4614
12647 13075
14774 12998
677 12674
13368 11916
14698 12517
16526 6889
14016 4942
9478 10899
9200 19165
4569 4986
4529 5529
15379 6722
11538 15716
14937 3894
10106 7944
6760 3610
13087 7056
10769 74
15287 14034
1487 7213
14647 14234
8060 10336
11627 12896
10444 2739
17729 18218
5135 7495
4479 6454
8197 15786
9527 2572
11955 2482
3946 8327
17729 8579
5474 858
5548 17651
7167 16238
16029 3660
11568 16340
3721 11982
7715 1475
16485 13084
6698 12809
15854 15197
2459 4643
19302 11684
5005 312
5116 1806
14736 9573
8856 16487
7193 10704
15984 17163
3119 11667
744 7017
17378 6400
10539 3154
10066 18517
7421 1292
11016 3397
4168 13299
2592 7486
4857 9957
2171 3450
5760 6773
9028 4538
8668 276
3511 3441
10944 7398
1280 3791
7781 7536
19619 15651
396 1104
6606 9959
12986 18131
17140 2397
4361 8434
5787 18998
18585 7678
9611 10151
459 12244
10453 18115
14709 16761
12728 5541
14743 11050
4595 11516
757 11292
11735 16656
1872 18054
19471 15397
14822 18246
14635 16282
2501 1256
9174 13843
11703 18718
13494 19257
13047 3392
7058 9049
13841 8598
18601 9897
3959 11079
9682 18915
1961 4873
15654 15035
6196 18206
16048 1255
13432 8149
16443 10207
11085 5046
14279 16341
17643 17732
896 13198
11829 1207
11267 3099
6899 4494
14588 7455
701 16070
6192 1501
17220 17714
19258 13426
6726 7476
11589 11922
19451 17107
9112 10284
10860 1723
8825 17645
1088 9739
13933 290
5007 18247
12531 17408
9225 10983
2602 5605
11492 15593
14610 7879
19288 3876
6211 3706
4564 3569
15926 10895
136 2005
5683 1334
4557 11344
6956 8584
13014 18028
5889 10869
3848 17222
8165 14217
678 4516
15128 14505
16993 6606
1281 395
7231 7862
2478 11725
7823 2341
7537 3135
8311 1147
18186 17586
12649 15405
17385 9568
5720 8349
1477 11832
4085 7923
18436 16642
17585 6551
15489 13470
5581 2402
7958 5319
16010 5253
481 6492
18746 16045
17260 3199
871 16113
13891 19319
19667 18058
8414 5613
14257 14093
8003 7387
5273 3814
8964 14058
13326 13943
19259 8736
10771 12176
4663 12866
4930 7081
18834 19016
17357 15364
14323 1002
13838 11451
11889 8425
987 4439
14105 11964
8555 9541
10544 1723
8160 17104
6300 14727
17564 11513
5745 9591
8029 4051
15340 10863
9958 8179
9270 16419
8865 8465
7811 19549
6025 11
10834 11152
15856 15606
205 15218
1351 17097
16288 5563
11275 3342
4949 17558
19366 19602
15731 7838
3831 14701
14501 16024
11476 1496
2752 5691
4324 19357
3736 3244
7992 5836
8928 15154
8630 18812
18410 15671
13588 7031
939 471
6632 14848
585 7105
14390 3890
4937 8717
19035 4723
10323 16429
4909 99
11432 2064
16582 15152
13541 5906
17714 17793
5832 7293
13647 360
14239 9306
5110 12605
10353 19298
7277 13646
7836 12931
3408 12638
5691 17358
1124 15780
2774 10012
12273 16343
318 7494
5023 11725
11761 17007
8778 15018
18186 1743
2810 13170
827 15783
8024 3278
9226 3846
10119 11340
11425 5170
2691 2401
12744 16868
3529 6616
18305 1238
18957 11347
8312 19170
3516 7440
4160 9156
5824 3821
3873 350
16222 5215
2163 645
17150 14466
15352 1010
8336 18648
13619 12134
17227 13709
13469 17837
2660 6147
1094 7265
10151 4375
14551 15976
3135 18260
4147 9289
12839 13971
19393 3872
5681 2895
12728 17216
5800 7044
9620 12689
13492 1482
11166 2062
2332 5041
18177 10508
18803 12054
1434 16019
7204 2204
11538 11718
9664 15607
3795 7196
19355 3802
8202 8468
2359 13731
8270 16796
19491 14697
10357 19020
8040 1340
3049 9119
8626 19437
10833 1677
9894 11849
16914 15387
4433 4141
16682 2506
10565 12658
14768 4228
16344 13004
4129 16182
6678 2972
529 11289
1937 13664
11176 8332
15148 5253
10418 7247
16186 2029
6043 4510
10118 15609
1755 1996
6405 1578
9324 3996
18292 655
17565 12784
14836 1036
12397 10815
14157 12768
4089 19434
7428 8001
17678 18615
3175 4317
14743 3873
16513 14130
10774 4718
10201 4236
17162 2866
9701 3451
1875 4390
10681 9823
12770 18070
606 5819
4532 1926
4744 6061
4266 7470
3539 14186
376 18280
6323 18540
9844 9199
1182 17003
1671 4867
7091 15691
12993 16649
16963 18276
11722 14823
6919 14085
17811 11344
4036 14269
8938 15621
16273 6848
10716 14204
12984 14641
13039 1929
15384 14394
13981 5836
17078 10526
11686 6234
3931 10719
4131 18513
15471 2139
15487 13840
17683 11143
13134 19061
3845 14703
15183 207
17026 1731
3439 9777
13976 3731
14093 7939
1116 12646
14110 17887
18701 16497
17192 16717
19114 11241
12869 4394
12617 12699
8962 13928
18168 3097
17282 1897
3281 592
15849 12430
14721 16555
5552 12957
954 4527
12429 2235
17784 1304
11612 6607
14732 135
10456 19277
8050 12796
17449 7648
16923 1498
17107 14380
8039 10746
13503 16075
424 8039
11252 9610
9989 19674
16855 3715
4533 12660
5202 18130
10938 16428
5406 4939
14928 3480
18982 16843
11694 8790
113 6550
4506 6968
9971 13224
12010 6356
16694 10697
11726 5891
13237 4598
5081 6439
4064 6274
722 7359
3532 14271
16198 15582
5163 8880
2391 7416
18280 14511
354 4721
5037 5704
3850 3168
2191 11999
7648 2740
14107 8520
11754 11219
10755 16368
12785 19108
8224 128
5266 8772
1321 767
11225 4553
2256 13676
2747 7857
2315 1043
13158 19122
10273 4688
4728 15063
13325 9516
14241 8827
1471 3955
850 5962
355 17851
16963 13428
4629 15451
17680 7931
3617 14289
3657 19353
15450 3053
18136 176
6781 14762
11124 3901
13995 15719
16687 11656
11275 2225
11483 9807
8571 3259
5836 1834
136 8165
17183 7683
12248 4811
4787 1792
17642 18394
2995 7053
8348 6990
12071 1896
8506 652
5134 4012
8966 12143
10804 9930
7161 1735
10478 11429
7952 2184
4905 18111
4570 14830
7956 16917
3439 13845
403 3312
11670 3622
3636 12794
5775 11757
11285 14316
18381 13004
18191 11219
5367 4703
16654 10968
8856 8508
17583 14887
2017 11075
17027 9112
18990 10285
12663 13779
18483 1427
8788 15092
5942 1447
5673 14683
18110 12694
11023 19325
18915 11253
7264 6126
11043 3232
13334 876
2004 314
9298 15455
13242 18449
8668 10347
11743 16866
14817 4309
9383 11795
5639 8221
3084 14383
4223 15266
142 17918
8222 18282
2322 17076
16532 10574
14813 18584
1637 8483
5808 6976
3316 11138
12379 2373
8442 1381
18570 16384
14840 11284
17055 10924
10509 2025
5245 949
12255 18864
10012 2260
18683 15978
4442 19015
18340 1738
15447 19664
6516 8223
7871 9018
1804 18044
14489 13911
18932 7136
9289 12999
7622 11721
4290 11510
18965 11224
11742 2628
3655 6838
2457 2582
16758 16425
17603 7353
11403 5201
17700 14461
1023 15684
1679 12607
15863 284
4116 10166
3483 1276
16259 3073
4235 6538
9668 14184
14349 1019
15507 1641
7932 19040
5130 12624
14377 9194
953 4076
10176 18152
13117 8582
13676 2166
7563 1067
13096 12833
2284 9806
14064 4891
8065 13498
8641 948
15536 4412
13436 18263
4038 9546
4527 5713
5500 12088
16405 11847
13230 18238
14327 9156
3115 172
19407 967
11644 7677
13768 11857
16701 2096
12276 14873
6733 11931
412 5450
17704 5527
8596 5005
2455 17116
8953 15607
4279 5536
15454 3486
11324 1068
15824 14404
9275 4822
12775 3885
13641 872
8171 6512
7883 360
18168 443
7426 9792
17961 1456
7342 4927
7310 14443
9095 13336
7338 9510
304 7775
8007 1336
12768 13611
11939 10040
10183 15877
7656 13342
1232 12448
16657 13392
14070 10413
4679 4067
5013 3247
16013 13699
2304 6286
15662 956
18993 991
11656 11850
12498 16268
19064 14107
8719 11152
13371 4193
18583 2709
7050 8427
694 6056
17133 2501
14595 790
8143 13176
5614 15288
16073 18906
1645 13396
7582 6840
16655 18713
15072 4665
12719 19320
12531 10396
17743 16669
14027 17771
3622 7321
3577 17826
16221 7144
13467 12157
7951 18482
17045 5343
18573 14426
4243 4463
18956 12209
14616 14512
11555 5740
1791 9913
17367 6124
17058 12583
4271 18809
13532 11814
4679 6279
9107 19488
3374 12896
8714 6110
11388 16985
3098 11685
7429 3624
18128 10804
10214 13539
9601 12122
16510 8525
14260 14567
12796 5065
10846 18837
11600 2767
16437 11327
13277 2759
8479 10325
18481 1136
14270 7538
7310 255
4708 8476
18752 68
14654 2106
3775 515
16411 5981
7227 12368
13667 13788
3490 12
6933 17947
337 18996
772 7423
12491 3473
6643 5083
11765 15004
9062 15982
17078 6567
4101 1993
10604 15628
12533 7725
3417 8302
9321 4947
11080 9885
17829 13353
229 16777
7283 16310
6273 18465
4824 19010
18455 12679
12309 18420
16212 9408
12364 4280
18506 18945
9870 17365
11866 17355
10676 4191
11157 12906
4780 15857
11123 13846
9907 5865
6336 10257
5605 6942
14587 1095
16918 222
19388 1724
2207 14699
10684 18887
9353 12336
11108 4907
7463 11922
4321 15257
16233 4813
5611 2610
17979 2125
1149 17142
15811 4740
4367 16113
3654 18519
901 6601
18061 13163
11518 1171
7328 7723
12344 14259
2055 18200
11928 13420
3294 3047
12885 1881
7711 4591
19165 1148
16294 8124
2795 9756
7615 18126
2761 9793
14686 11789
4101 3693
11676 5801
10402 5227
3208 1296
14125 10299
8858 454
6125 4422
2728 7844
18611 13564
308 2120
17184 4489
17469 81
2919 8651
2741 10824
7150 12848
14172 17412
17058 18834
5232 7232
7040 4936
5571 14258
17603 4792
4371 12785
5535 1941
13147 14942
8329 15340
10506 13408
1084 5233
13708 1560
6456 6551
14359 716
15365 17857
16366 13811
14289 11516
13609 12064
4337 8643
6342 12769
3817 7259
15158 5822
928 4425
3466 4289
6320 2662
12204 18879
15457 10296
13384 13171
15296 7505
2212 18232
2580 5197
9658 15310
5201 8960
4460 2105
4378 12217
672 6026
13489 7546
3195 2464
4071 17906
17155 5922
17531 5630
14764 14196
13303 2213
864 14454
360 10320
15636 19662
7725 17035
15563 5230
3549 1012
10505 18
16127 16164
9933 13427
11200 14413
3088 16789
2834 17600
3367 8519
17969 15726
13537 1871
16306 18715
2037 12361
8147 7374
269 3469
19702 17419
7028 14398
8215 16785
14720 3722
17798 10163
7269 1502
1107 11728
148 10030
4058 12665
14416 14999
4006 11137
13577 6434
16083 8405
4262 5464
5358 18531
6408 17872
19029 13322
974 2963
15628 606
16520 6316
4547 4761
1245 4057
19230 11781
3955 3904
3234 10044
12413 8753
662 16139
2474 12028
19267 6588
19405 19511
13721 4483
15735 5829
12342 1857
7962 17959
3184 16070
11811 8078
7026 12642
9467 636
7842 11002
4313 15367
5796 1793
7263 17000
15919 2163
6970 2333
1551 18236
15093 353
9304 10079
9189 7005
6751 16903
7051 19526
12712 10202
4286 11463
11648 7209
15055 4244
7136 1789
16195 10767
18889 17219
19080 4536
5941 1303
13319 18677
428 5646
81 7208
8371 12678
15969 15030
14278 12799
14670 18578
13921 10078
19676 1948
12543 12098
17440 11833
3998 19452
10894 15008
8530 3721
4944 3110
5017 13325
13072 3551
4714 18420
9891 4953
16775 7870
9436 3728
4709 15770
17446 9520
16074 17518
811 15496
5893 16897
3851 7733
7632 13102
1500 914
11613 3601
6604 15647
16817 15620
26 11669
7092 6627
4106 5375
14953 347
17074 11295
8878 7807
4377 7798
16882 12695
12180 5877
18537 5705
7732 16816
6053 11369
7498 5513
14453 6626
12056 7058
18994 13097
278 3829
1314 1807
3019 12684
11863 12986
10187 9071
9720 7280
2615 3868
13699 10102
4238 10267
1090 17437
14480 14738
8048 5736
14729 10062
2829 6578
14226 7630
7731 9850
7341 8167
10939 19304
4575 2319
12908 17299
197 8579
8498 17330
16571 4006
4489 17692
12882 12598
1135 10798
2446 16695
777 12191
555 6293
7289 16959
19147 5592
13964 12420
12084 11909
17421 5411
1361 13084
11057 2960
14633 4169
7385 4507
19070 11852
13544 18635
10 13101
1604 6266
10392 14007
14629 3594
1259 11577
66 10889
9700 16806
1929 2327
7514 16306
6958 3343
3055 16951
15802 11849
17518 15583
3962 9084
11502 17338
6165 1669
12748 14667
16319 17250
18165 12171
10773 9302
12900 13523
12790 16839
6334 15284
4062 2961
14161 9441
5849 1901
8380 7496
6771 11517
1251 732
13911 3563
7264 6385
12482 17819
13364 9175
1771 12041
19680 17209
17664 5654
14193 3648
7779 5629
19545 4049
5316 12552
14938 8322
15372 5161
13052 11939
13298 437
18475 6310
13332 9542
13556 2759
16747 6688
14591 17883
3161 3295
7989 6239
15016 11408
6795 6096
19239 7691
3708 7245
4384 18586
17969 5860
4542 12284
1162 19
11747 13947
10705 18106
4708 3545
6 2277
17064 7850
10857 16734
1549 16253
11986 18486
11427 15826
4213 896
11927 14530
15589 2817
2743 13614
891 9743
4813 14434
19081 12494
6405 19687
16732 11438
9378 13446
7062 12307
16449 15702
4528 13787
11381 829
4172 9355
5886 5296
1399 14927
19575 10295
4329 488
959 6168
10314 15659
14423 1946
18083 6910
14503 18117
19558 19473
4975 3124
3624 12218
18437 16344
15321 4806
354 16072
18358 19181
3256 11337
19353 10873
6028 12174
9011 19250
18074 14221
10571 10733
12597 2181
3493 7399
17567 15373
7201 15155
7703 11219
10110 16425
13946 13830
13392 8385
7753 1486
10100 3476
7619 15521
11287 1684
11460 4782
145 16062
8230 17498
2045 16064
14491 6173
10550 1707
5345 384
11533 14262
3038 13666
10229 12120
19497 4035
7312 16640
890 13015
14465 18096
1738 635
15817 4334
4741 4586
17221 19635
13576 1921
9873 51
3669 11980
17879 17009
1131 16381
11269 4518
986 2904
17625 16668
6949 9624
3652 14226
11342 18369
7952 3169
3671 4186
15584 7393
6964 12500
11913 17152
16021 5402
2604 7350
8914 17029
15947 14887
1994 7200
14783 511
14827 18745
17008 18876
14116 15661
15721 4978
5070 1992
6067 7805
8248 15958
735 16429
12900 3107
5519 14047
8965 7113
17311 3851
13411 5053
3733 18888
10482 10528
1672 17737
17349 1476
1586 16054
13752 12843
16226 7870
12791 11428
13882 9387
12879 5150
15009 5753
6009 9115
2623 8257
17589 4924
7234 14092
14429 4161
10009 8730
7680 12958
261 10042
11447 15935
11266 12259
10605 13541
14555 7500
7393 15029
1422 7506
13087 6010
12469 1970
4972 16421
14989 13549
7604 14628
15791 19582
799 7879
2860 14673
13942 6158
19316 14277
18760 12514
17914 3542
17103 16834
10445 7730
15241 3793
10645 1734
4220 18600
13673 10122
19634 16376
17387 2182
13402 11940
11730 11461
1625 15170
16458 18964
17180 10690
19261 14933
6765 9907
3945 4329
7020 18697
3769 6014
12356 10957
6117 16198
16360 18940
13089 7077
12194 16264
16531 14307
15179 8050
13910 12895
9469 1957
19544 16306
12131 10963
2528 233
8226 8819
17126 1153
7918 85
3818 7419
9636 14022
12578 794
1936 7243
11110 12151
12056 8809
14251 6008
10316 19616
3074 3851
10843 14427
19418 1360
17315 17702
5745 13529
1852 14950
9004 14779
120 10369
7496 18520
19151 14229
2886 4384
9613 18823
1624 2996
11183 5306
730 12908
12733 877
897 18548
2070 7142
13941 15521
2182 2622
15615 8238
9109 15796
11698 12147
13761 11436
3270 331
15531 14983
6217 3628
10664 8199
2126 13730
5196 16885
13987 16
13169 15116
10623 12022
11004 11351
13837 12067
12148 11843
2417 8263
1766 19533
18469 18326
4707 8502
12764 16957
15379 12915
9901 11299
17500 2871
9492 7019
12303 4005
3015 1205
1226 5387
17840 15359
12422 18211
3262 19272
15596 14388
14921 6134
10382 7794
4847 12608
6131 12554
3865 4677
8052 14078
1066 18757
8929 6545
863 16759
5149 2369
1618 11139
3309 16371
2502 5416
4457 19166
13985 7486
14813 3164
6757 5109
18623 4700
6975 8409
19345 9768
11382 11926
5735 4192
8132 11004
15364 17364
13735 4412
12598 6997
12278 3531
2242 2517
16065 2331
8760 18432
11977 13380
6593 15858
18386 7836
1740 7935
629 11793
11423 14106
15511 17274
15192 8828
6787 1229
14667 11647
11266 18823
6976 6599
19174 683
12070 1538
11758 14652
16014 2430
2888 191
4541 6805
16219 10379
19648 66
7731 3245
17063 1781
2769 7611
8316 1060
15605 12702
9074 697
15327 6331
11132 9186
3782 8508
11207 11034
7727 18583
18881 18107
4267 19475
8789 15227
10558 8242
9942 8609
14834 12082
10519 64
3139 19577
9576 13929
12831 14177
1692 4065
14189 1679
4159 16813
4116 7073
16747 15688
7172 1731
6039 17811
5512 15877
10873 5420
18761 8117
3225 11907
9069 13124
4166 18418
8505 18175
4533 11675
4859 11122
9414 16525
7321 13442
11297 9562
1784 8971
10099 1319
13949 19401
13184 13350
1360 9564
9274 15964
16190 3155
4841 10069
15166 12299
10434 13950
9187 3107
903 15422
3572 3203
19515 9173
6925 8289
5925 9430
2265 12707
19486 2182
10747 4392
14705 18491
15952 15635
2755 1651
2958 6242
3618 7601
8631 2633
14812 10444
111 7595
354 19691
1814 17967
6679 11912
4842 15405
14216 16749
14731 8973
6468 18943
9929 4077
17243 13191
2675 1788
18082 2446
2374 689
17893 18828
5563 14429
1406 9306
4413 19154
2207 1057
13209 17135
1355 15730
5758 9162
6581 10275
9219 11321
6073 3657
19687 9213
8903 7200
7728 18321
10050 17977
16216 16009
1274 8976
6218 2048
16403 426
17413 7208
12895 429
9313 990
5582 18559
18594 17752
8002 3214
15973 11824
4246 15389
18817 4159
11002 2647
13045 17485
2675 6823
6139 1125
799 18015
3461 12644
14386 6781
2014 11766
11058 18383
11493 14071
17056 15001
11907 7421
888 19183
7756 3495
6576 10759
16145 11742
2161 8944
18464 10426
2169 16063
17200 14095
464 5854
6551 6991
17597 17203
15156 19254
3170 4981
6462 11467
10951 9147
10989 16360
10618 18761
1091 9025
7810 419
10448 2278
1515 9863
2586 19554
19559 14825
13418 12629
6631 10888
5607 11872
12024 2581
3685 11535
8682 17430
18376 17527
18658 12968
7752 14935
2698 11618
18440 14907
10538 19617
7114 3786
6746 9012
5638 12946
18600 16345
548 3768
5586 5671
4398 17551
14250 6784
2736 11282
6846 18395
9000 2357
11089 7324
17610 12719
197 7175
15491 7785
11490 19692
13648 10590
12298 7280
15252 3819
2112 6620
4980 5899
1337 8375
9801 8127
12807 12642
9493 10708
10206 3162
14508 773
4353 14389
5838 17966
4554 11352
17127 17907
7197 14243
10080 3041
12135 4286
6547 5916
13236 13872
2224 8945
2195 16165
16566 18225
14742 15131
13286 17289
11370 10845
14245 423
2850 9111
14683 12941
1241 18098
13538 2817
781 12191
11663 6713
14375 4181
4924 276
4153 5618
19087 8025
17189 8745
11466 2242
16063 5366
5922 11129
16900 5410
13376 5883
13865 2699
18575 7197
19005 8838
11775 11553
1490 2790
7860 3836
6443 3844
4967 4883
18183 15980
2595 9332
9071 14599
17909 11452
13802 8919
8632 5326
18078 3733
9121 2935
3120 19089
14767 9920
3580 10684
8279 3893
19563 6728
6972 14856
9340 12758
8459 3444
12163 15862
11112 10295
19134 15355
14339 5269
7686 19646
15247 5107
4546 15317
5419 1377
12223 6980
14530 13352
1262 3861
5655 8067
14143 19003
3160 11905
849 5653
14843 1172
11188 18812
19256 407
2826 7934
4046 6411
5269 7524
3694 16459
6015 6252
9242 12667
4862 14791
2624 12523
696 3003
14247 17354
3746 5599
9044 3525
16087 17025
1499 3366
15081 8390
740 8747
5568 17545
15956 374
15187 15615
3595 2190
16804 16351
12220 13074
12184 15587
7100 8408
4465 2232
6003 15575
16802 18269
242 12497
8454 4669
18574 11027
16659 5816
13138 17125
18532 737
5555 16209
17163 15059
3907 3905
3242 3118
13073 12268
18208 16865
1226 3324
13519 846
2522 3581
11960 2863
6891 19179
6799 5319
7767 8324
7489 2941
13217 16132
17382 15942
14853 4725
15966 17405
9511 4015
9551 12069
12854 974
10621 18431
10104 1886
8609 6478
873 11350
11630 13916
19196 3186
1134 10290
5092 10144
1868 5440
2870 10934
16884 17619
7461 4411
15285 11926
13901 17778
7035 5936
1659 4908
12892 2548
11560 8829
14157 13483
103 7353
6114 16753
2018 9396
5944 9869
9503 3691
4173 19325
3335 13007
17452 652
2098 11063
12104 1776
8024 15156
1309 19585
3960 16287
19319 6439
16839 11605
10502 185
11159 19660
11192 7585
6395 4125
15965 2787
9531 13837
14772 5141
3751 17828
18135 5689
4674 18523
14604 10193
18930 11053
17238 9005
5311 3108
7347 4068
3215 9572
8165 3499
2824 11543
10404 7099
16409 15634
200 14030
10711 6799
14878 10818
332 19227
9633 4705
13606 10599
13226 8715
4807 16218
7160 5593
17728 13190
18412 14112
2926 4500
13081 17561
17788 16427
16006 19249
18657 12430
17873 6100
18042 8372
1359 19299
10440 6843
11304 2167
3445 18856
5723 8596
14382 14509
18109 5639
1976 8125
7379 2302
16304 11052
8762 5912
15040 10762
2756 16600
3922 2181
15509 1527
11868 15807
13622 1583
15357 2079
9456 6071
12648 17646
2922 5223
18370 3167
12874 2392
43 4346
17408 10021
783 18626
2137 591
7524 12832
8174 9455
6996 5043
6418 4471
4685 5434
11765 1605
152 266
13631 2040
7954 11256
15214 8046
12264 7041
7366 40
18462 4005
17573 1405
12868 12463
1963 1896
17744 10582
2834 18531
2677 14164
19050 13077
12602 4417
1694 12681
10608 14891
4072 3211
10705 10731
1784 14569
8624 1099
9181 19366
13638 7835
9165 18360
16091 13159
3722 13051
14664 805
6046 15637
17302 5170
9704 4133
11266 15838
3191 13072
16727 14021
3787 10032
12715 19460
13582 13911
11414 6525
3616 13195
11641 2527
2459 19184
19089 8527
7433 19248
9859 15157
2638 10443
18251 18547
12688 3989
4730 13480
3325 4415
5797 17756
10732 4745
5869 519
5706 10907
14219 14002
3647 11369
8467 2070
18237 10747
106 5073
9658 15318
2062 12130
14505 14538
17689 9992
2716 19307
14366 3289
15445 14436
3579 6394
16700 16604
9327 3691
4662 4574
10647 19161
19213 16873
560 6868
11763 4352
10009 19465
10440 19484
2961 7407
5334 16793
13372 8930
2678 17193
14064 4520
935 19016
15564 6011
19100 926
11217 10449
15607 1452
1373 13681
1057 14596
3016 9135
7276 12176
13183 10449
14898 8385
5324 6217
6097 11960
3452 7176
13941 7099
9265 19677
2911 13828
7011 8814
5636 16217
17277 18299
19221 15512
11065 4989
1544 10227
855 888
16869 1365
8552 10995
18840 7935
4505 11160
18068 16166
138 4353
3580 11048
12965 6317
2588 10073
3474 14965
1476 16561
3004 14499
13174 18430
6819 3443
16239 19702
8783 4924
3784 2758
11396 16669
5781 6332
8675 13246
19422 10981
18718 7772
8946 10870
17034 16136
19302 5984
2408 5321
1462 8842
16430 8782
11809 7785
404 1110
4814 4653
7202 5739
11760 15459
10282 13128
1305 9584
4992 18671
16052 311
689 6247
14693 2585
8778 4118
8099 17915
1827 6365
6203 3223
8539 19668
2494 4014
1299 15087
14397 19161
12963 14583
3738 15709
7038 18017
1176 11264
12558 1543
5842 16392
2606 13502
180 15841
14415 10590
1239 17532
12560 17083
2130 10738
14481 18927
7911 18101
5496 9261
15142 16492
13087 2822
13889 6769
14848 7677
17796 4252
12754 13228
8019 14668
17534 17502
19059 15006
5915 1552
19533 14869
12115 6427
6541 2405
18831 11407
986 17350
16548 17332
7228 13695
16034 8245
12100 17833
2293 15643
4281 1965
10644 4994
11165 2844
14368 19017
11479 7994
11789 8895
12555 18534
15895 14318
1101 17831
4002 171
14841 16932
10452 4554
6284 15135
18076 10300
1542 14053
15417 10784
17450 16896
7322 10269
18007 8796
11345 15821
17351 9087
9501 15676
18426 15278
7793 14575
6045 11215
11453 12019
17372 11103
5196 13207
6576 1370
17606 12767
11986 7204
12815 14480
16083 16889
12083 12301
14667 11510
11286 7509
16787 2301
18780 19665
5255 6556
10987 8539
11271 16167
11987 9718
14878 15703
2961 18616
778 8620
13482 1617
18244 9207
15235 8478
14556 1963
7944 11658
14199 8498
18364 163
7848 9252
4518 3794
8652 18692
15627 9128
12735 17043
14961 4122
15529 2481
10016 9752
7502 4732
1499 7949
7708 7986
4703 12611
13467 5765
2545 5967
18303 2563
5541 10001
15840 17446
8521 2583
9868 1564
7454 17711
5419 14238
13149 4421
10312 1465
3916 15660
16932 7053
11210 13523
18210 5209
16467 13198
16818 13096
4042 15466
4877 6245
9094 13323
17353 2769
11163 13401
10545 12819
13384 227
9626 438
14959 1529
3938 13289
9151 14689
9136 8431
2769 19441
4505 12078
5135 4786
8048 17384
11529 17060
9715 16511
6935 19627
5913 10649
7070 16098
3411 16802
14931 11042
16586 18104
2917 11140
10506 15528
9790 230
13648 3036
18926 10819
3390 3008
3040 12141
16597 16886
4515 1628
6155 6952
8184 3977
15929 8925
10723 15633
17254 8869
5369 10233
13739 17421
14746 12855
19373 6486
16356 8106
6777 14309
9164 18234
4079 15056
10874 15800
3764 15015
11521 10011
3491 10204
5869 8857
7478 15930
2342 10865
10818 9351
17850 7250
601 10904
2358 6238
2268 13247
16249 9895
5421 10277
4474 9612
16141 6745
17307 19014
1180 4989
12707 16417
15798 10379
1997 3970
16769 6754
14000 16167
17876 221
13368 14532
10703 3057
493 9879
14782 6198
2062 4773
12394 12989
3907 10989
2894 12405
1904 16261
14771 5870
11163 3642
2317 9683
245 16484
18605 14525
16788 10037
1781 10991
12047 6693
6960 5066
7438 19598
3 5314
18712 3012
2535 13964
2180 12904
17654 10940
7144 16105
4133 19075
13064 7993
2546 12363
15465 471
18722 19453
15990 10481
6079 3780
12613 20
4138 9338
16981 12488
5799 721
8132 5761
5461 8045
18778 19573
13951 19362
7436 17834
19700 16069
14215 4882
9449 13763
15248 3361
14636 775
4990 2108
4893 6842
12908 9931
6830 8567
2147 10367
9426 7384
10993 10651
9296 3125
10293 12279
12773 4199
15501 1697
3594 6101
1596 2751
14711 11229
6581 5970
17953 14870
2152 11872
3860 11111
9208 18776
11754 5634
2472 3087
15364 9587
17104 3557
754 9171
4576 19594
14087 12335
7539 12095
6250 2054
3140 12266
59 5657
17171 12123
1238 15195
14041 7229
10081 19704
2020 256
7582 14618
12089 447
18256 12015
997 5367
14128 8407
5026 2754
7553 7719
17973 8319
10614 17977
13092 16198
13449 8239
8403 4097
8150 14824
11683 4240
4079 10069
14541 11461
14176 4642
18551 18894
5156 2234
4460 14538
2421 13734
19560 5292
17863 15671
16523 9318
4729 17019
6647 15599
17915 6286
16205 7785
3594 5744
4973 9631
14307 19230
14361 5405
16453 13540
1549 7683
6247 11066
7026 4374
194 14311
14350 7786
19438 3370
15957 1198
9760 15353
9060 19273
6933 18903
9135 4149
12265 12199
14335 16329
14592 15044
2219 7277
6338 3516
5164 7048
10089 12896
9970 14824
2264 680
3599 10963
12567 12026
14420 2692
18115 15587
4214 12964
13923 34
491 5054
7176 2567
11858 17335
10725 3829
16054 12025
13811 15012
3938 18261
12061 10212
12625 7032
15330 11879
4007 10040
5495 15010
15346 16068
15699 17156
7289 1252
4769 12239
4218 589
4929 6611
19444 5957
18606 5914
5446 6002
3703 7793
17605 3649
501 15172
9606 15937
259 9491
13207 13125
16140 10916
16011 7922
1751 4423
16471 16647
19025 13071
1497 17549
14517 10073
10303 8802
1203 13177
2419 4012
4055 9864
5605 15808
303 2938
2523 18298
16321 13674
10461 3269
8420 4201
16010 16232
12794 16124
7597 588
4685 16872
11040 2128
5117 7928
10871 10500
18910 5659
18475 1380
13550 15695
3922 18661
9053 4092
2569 1482
12365 7389
11576 8926
4626 5661
15981 15476
17111 17620
13283 3311
1584 6851
8807 4143
18555 3067
14935 15884
16338 19038
19264 16092
13256 11934
7503 12040
6509 1748
11868 3766
9014 6431
8928 15560
730 6970
4844 11569
3817 6032
1183 4402
1763 2266
11230 18060
15350 235
12814 12594
870 9152
7235 10082
16548 15250
9425 11041
19461 17872
299 9543
4520 8250
9943 7847
13183 3293
18441 7497
14451 4127
17946 10723
10690 12196
13437 10936
2213 13085
9456 13239
9384 4374
15256 10033
9980 13949
6723 2215
444 2583
17792 18854
8030 8715
18031 4471
7516 9763
9941 4516
3804 11627
3089 2902
495 13155
1684 11982
1795 17669
10126 8030
3224 9738
12229 1991
18785 7966
5202 17563
4169 18572
11103 14400
13322 17419
3376 17013
12603 11976
9398 10416
12456 13099
10650 16495
1557 8754
3556 10609
10498 16434
5519 7867
10928 84
8145 1704
14498 4936
956 3811
6452 3081
16805 2846
15078 13957
5508 15112
14028 4830
57 12112
8660 12002
3399 3459
3288 12044
17174 5904
16604 313
16692 6655
7820 9453
10934 6337
19441 19450
234 5565
2834 14786
17712 9650
2772 12280
2658 2513
6829 1253
174 15272
5911 18113
15629 10835
12001 18685
15088 6351
18872 13906
2907 7138
14017 7699
9941 14542
7175 17089
7325 14777
10244 19172
12380 11482
11956 12730
10810 14286
4780 6507
6774 10282
17987 13278
372 2090
4027 13993
13649 1796
18625 15434
6317 3464
1849 15763
2997 7431
5953 970
5465 8705
3799 6700
13472 14585
11237 1634
11060 12771
5339 3609
7470 9642
18438 18670
13772 3684
9799 16717
16083 11563
6921 671
14270 7559
4590 18366
19586 14403
18141 18254
16747 10442
7897 619
11364 19612
17416 3111
10477 1511
1884 16018
10613 13534
14131 6493
10065 10500
17383 19192
6663 12919
19706 19238
14384 5989
12253 9862
18150 4349
6829 15201
4533 3750
8303 6643
1225 18262
4328 3752
13540 11156
11717 11703
6722 10362
10674 16741
18427 5084
13718 9607
8058 9120
11855 14475
18753 12461
3949 15427
4214 14342
17061 11738
17385 12131
19276 4343
18729 11358
2723 7633
9546 18728
10065 7471
6769 16368
10039 18991
3899 7487
8161 4044
8862 18593
8154 7959
2536 13479
16515 7855
7981 10298
11580 11102
17781 7657
18073 3156
1368 19379
19210 13452
16678 1736
9447 12251
5483 19057
7971 6803
19266 19240
13470 7766
8343 9760
16509 1491
1364 9812
18680 10393
18763 16381
8734 1119
4645 17370
1670 1012
12145 9292
657 6592
1395 7293
7188 7646
3751 18154
4910 551
4504 14741
6781 11096
5272 8642
12039 1269
14377 8709
15812 2401
4845 17149
4634 686
17688 12497
18634 15614
14553 13299
19606 15370
16933 1828
8560 13888
10704 14586
16783 16381
5300 5620
15874 19417
3058 13889
15138 14473
16242 19574
18806 19633
16211 18775
2241 2789
13631 18430
8458 7185
1961 1206
1763 13864
7625 2127
18810 10758
16402 4451
17158 14251
16293 5566
5221 4193
14540 5305
10035 15890
15867 11896
984 8136
15747 8486
18359 2617
750 6767
10374 2091
979 14765
13670 5086
17971 3303
9920 9236
3639 15899
4934 17732
6749 13769
11654 19046
2041 7866
6239 15047
5727 14382
11519 12914
4048 5820
3429 7027
5573 13988
610 13973
261 6050
11167 7071
18867 3256
15552 13952
2573 1509
8289 5374
12911 5336
19639 1376
18558 1209
16658 18371
5352 17006
10940 2232
17215 10483
19459 14742
2272 19318
15129 7112
2776 16785
12019 8923
12302 4908
18989 4742
5393 344
12557 13037
639 1296
14966 18253
8135 1914
8695 5536
9132 9748
17869 16006
2581 10079
4178 19289
9608 11996
1124 4120
8554 9692
12129 1384
7171 6619
12502 3169
6251 7848
9563 6719
16946 8532
7541 1956
17860 10249
9359 8283
2983 16957
10321 6368
7490 2209
919 6842
14097 17706
18369 13989
3822 6816
1448 14571
3478 12618
3740 5910
11920 16066
2440 11715
691 16970
16555 8804
1335 5397
2029 12772
16316 11785
2292 8437
12948 593
5323 5034
14478 1002
12895 11009
13272 998
17550 15149
14449 2335
9446 14993
1257 19366
1650 6553
9420 3554
7332 12771
11363 14487
11441 16216
12508 15019
14357 10476
12761 8296
8845 16623
8943 1
1886 8501
10160 9339
14077 15075
15741 15090
4922 12641
10135 16707
14849 2745
12126 517
11506 2600
9843 19486
18720 13010
488 16733
1501 9967
5702 2120
18873 7283
18823 10236
35 11010
15300 7467
7936 9865
18872 1775
18093 17539
3586 9614
14536 12052
17244 15404
8206 7874
8235 16635
19477 3107
3114 14134
11030 15293
19025 18044
14806 1402
14718 17966
5597 14934
16424 19292
12439 12196
10835 5305
8149 13489
18236 17097
11446 3597
5727 16332
14068 3809
3715 9414
18963 8444
16108 9346
15496 18530
8280 5382
8746 263
8205 596
15825 7696
5684 15561
5892 17309
6302 17686
19501 2722
1783 4201
8138 1639
3807 16112
1015 19032
12708 10982
15186 16940
2694 1568
1363 17282
15900 9589
15177 72
8984 2422
13422 19614
8530 19073
10854 13444
12713 5507
12484 18122
2525 19597
14128 12982
13850 291
10770 16462
680 18291
1724 6974
8518 14933
17817 13835
16474 15212
17913 14893
9056 9775
12134 2447
1270 4449
15671 14048
15063 19612
1461 5635
7666 4076
17118 11389
410 17189
19076 13470
8523 12108
8314 5179
951 8561
7745 19364
4539 15123
8053 2333
6778 3973
7443 18125
14763 14990
15917 6988
5690 15
17001 7289
14829 15169
3290 3825
16917 17352
2409 12813
1239 2953
5232 15797
16789 19569
2200 4507
407 7437
17073 5709
408 5253
18243 18367
19653 18310
2023 19067
13805 19632
12668 5405
12481 8691
18431 16568
4659 8135
15537 478
1130 17185
9677 7399
11820 7122
19592 9424
10621 15273
212 18561
4593 18713
14646 16640
3654 6525
10767 11007
1977 19148
16710 11231
15836 15900
13009 5854
19312 16796
11663 1477
13807 7841
19286 862
18828 9890
1632 9647
13662 18159
18171 2242
3557 12572
18206 5576
9736 18093
557 1065
3355 6303
12579 16346
12667 3575
6068 12808
8491 19081
19437 10842
3968 1450
3217 118
5307 6632
14307 17241
9875 16754
10243 8596
10673 10258
14107 12164
243 14711
3840 6859
447 881
6475 13074
3043 3409
2111 5207
16499 3433
3989 3399
8864 1485
15425 5539
10140 17839
19185 2407
14506 10326
9243 7687
8982 13791
10788 4471
7075 2380
6163 4514
15465 4661
9681 13182
17490 9447
14962 7732
18666 15224
5688 17299
1669 3372
1110 9732
9020 14131
7914 18312
706 11348
14552 6687
6945 7576
2184 4906
4418 9226
3879 17865
1745 1470
12339 1362
328 15737
16968 17625
13557 7948
3363 17574
18204 14104
9395 17567
18844 12370
15917 12308
5411 4901
11787 14289
8971 10249
13543 11434
7806 5153
2509 10864
16304 12902
4389 18134
13194 3764
14264 15957
6283 8400
16628 12630
5404 11727
14875 647
2688 14045
6377 14748
4267 13137
4131 18316
688 3180
14948 14473
12195 7800
18300 15605
19497 3312
8183 2577
15692 5149
11486 16575
14669 17770
18296 13199
1059 17049
8813 7050
1344 19030
12415 16858
14079 10733
2801 14705
9136 6077
936 15458
18400 18649
13586 11240
11689 5172
10821 6563
938 9641
3313 3183
11665 14516
16798 11821
1624 14256
3716 765
18319 13472
11432 17388
12177 8189
9258 31
12907 4080
9472 12205
4104 6953
7405 4887
11985 10114
15482 19000
11956 16648
13966 9325
8060 11091
4036 19065
16713 160
11622 308
15993 375
15573 3440
6312 7876
19229 8707
7983 1035
2773 19429
12404 5059
14971 4037
12606 2329
14777 6124
15076 3447
13806 15925
14712 14320
8657 10877
11561 8002
9757 6644
2239 4879
6445 17602
14967 19340
16145 10731
11048 17234
3852 14021
14359 3754
12147 4806
19689 2748
9997 13529
18938 2252
11026 1023
7743 207
10861 19539
9668 5039
14869 13479
7982 15801
5009 8253
12509 9891
14453 4954
5752 4196
11262 5694
2762 10702
14582 4045
19431 1172
7504 10230
17140 19195
2497 14577
808 3508
6609 11544
13062 15142
7632 17470
1861 10121
14362 10713
3952 11972
14896 2326
7689 13258
14402 988
13550 2636
1422 5834
13510 11571
15939 7130
19401 849
15623 3450
12107 10291
19480 18277
15955 1631
14917 6586
9584 8980
16077 3686
12679 6218
15655 15261
14362 2673
2228 19094
4079 5690
15279 12157
9692 12769
14687 17914
7190 9295
10786 4134
4436 19008
6492 18160
15650 4572
867 10137
16572 18466
14930 18087
13059 8120
3451 13345
11877 2688
50 18066
16174 4467
8578 11812
10679 1472
11500 4621
10339 674
15076 14310
13005 12353
5012 4886
1008 10475
19676 18465
2240 3619
15725 13473
6531 18919
453 10784
5937 6235
19631 5173
977 503
3230 7693
17361 13351
13961 12120
19161 13759
3167 10460
11471 617
13507 16533
4013 9064
2461 10777
3484 8844
5993 9361
9170 9464
2344 2942
3507 12436
13391 14550
16046 9046
3104 15914
18314 17403
17879 10242
16780 13535
10071 13483
19673 11258
15370 13552
7185 18270
18126 14454
18962 12747
7831 375
6743 1926
9732 10586
7423 15034
12185 10275
18422 17479
17934 10389
19324 2528
15608 12321
2587 3929
2994 9418
12910 13853
11583 8489
15351 4865
11486 19055
6763 2450
14355 17123
15564 4841
8915 15524
996 19484
18879 8904
1951 15341
4366 9609
7116 19421
17154 14204
13928 14744
169 16512
5069 10552
13759 3625
19449 14194
8901 8459
3244 6786
18707 11865
17271 19247
5219 9527
14463 15049
12517 5881
19063 7296
17508 1390
703 9723
16118 14304
3299 16622
15222 16853
9017 14587
3264 18302
6235 13463
15743 18901
1595 1307
19596 10386
14522 13206
16023 1659
17858 10321
16982 14444
19416 4212
17345 6004
748 6549
3420 10361
9841 9191
13232 10629
5033 9202
15616 19547
14588 16298
342 16078
3341 16656
18497 19587
15766 12582
613 9911
16279 11477
10729 14021
9090 1905
2050 8234
17658 10125
9098 16158
8626 4397
16908 10834
16998 484
1809 17826
10278 791
11970 17921
5569 2304
11807 11283
13066 6531
4964 2832
19078 11721
9110 3866
16899 17967
15872 8066
1503 12053
1714 6105
14106 5550
19465 8071
7671 6976
17176 13315
17310 4990
7184 970
12206 18061
19187 14383
1596 2812
17595 8318
10053 11603
10977 11728
8104 2688
8308 402
12551 8000
3823 18129
9178 2630
11873 9226
17057 7621
1896 19219
4409 4224
18427 5051
14672 9330
14338 8122
19007 5937
4863 19454
17121 19031
18181 10441
8712 4641
6972 16347
1358 16104
7340 2719
12164 15825
17127 2738
7016 19495
8743 10055
17678 12402
8771 630
17958 6996
6742 2119
17285 8669
14668 15755
14052 16511
14233 861
7158 9529
5817 14838
6882 13442
2379 11979
19685 1918
6223 1726
7085 13522
9356 15986
4671 6493
18900 17719
13088 16500
11982 17570
8845 5393
8559 5962
4616 18801
13252 16768
11716 18854
9765 11388
15858 5047
6669 8331
17221 5766
18713 2214
6005 18988
8058 716
6386 9042
8889 9545
17533 8889
18307 13049
18912 17246
5802 1776
2994 6430
8031 16140
16041 10002
7229 12361
547 15387
13805 13832
9973 8974
8080 4574
5966 9958
10430 2505
8306 111
6214 5922
13040 4403
190 8270
155 14588
16406 7951
13767 19473
3671 6931
17784 17139
17273 14744
7633 9374
7501 13424
19380 18272
9019 14365
1741 9763
2561 4837
6633 12855
18181 19588
9780 16736
2363 9538
7011 14562
14656 15978
2557 13683
8192 14632
1245 10381
466 13845
6520 16178
3417 7098
7804 3260
12011 2827
4336 4652
17890 13926
11340 15629
17542 14285
815 3280
7666 10376
11942 10646
11824 6637
7323 16954
5429 3233
19298 11178
1321 19024
13235 17195
12640 3846
11386 8836
17278 17374
4975 3635
1095 14524
5793 13050
19260 7946
1032 10447
11813 3990
15569 2715
5757 11792
11343 3138
18451 11319
6589 7670
492 10536
13520 9566
5610 12555
5176 4701
5624 1163
10179 7748
8773 15187
12439 11098
1512 69
14358 14375
5004 9817
2981 1162
18447 4569
14908 13786
6064 19458
16396 11919
10274 6123
13465 19477
12106 10401
7540 18362
17191 19689
3356 16887
16810 18005
9239 16147
12411 8545
15728 8144
11749 7645
891 15495
11845 6142
10397 4103
12357 3003
19170 15055
15617 12737
7600 4083
14477 6834
9707 9899
3947 4573
1557 2781
18195 7523
2347 18903
9242 14470
9822 5565
18489 1427
5521 1244
2466 16837
14649 11150
8382 7709
19273 9254
13449 13815
3483 7722
19258 19018
2345 11903
4064 12063
13855 12772
17689 8734
1893 16179
12068 14690
16831 6988
3420 11797
15268 689
11380 19040
16737 16993
8764 4789
8896 6861
3630 19455
12837 4942
6573 10005
16861 8513
638 18515
1863 10696
12364 2841
15717 11767
4461 7084
4554 1280
9153 17485
7635 4699
3090 15453
8764 8729
18999 14571
5341 4447
8447 8206
2126 16005
16630 16765
11031 15774
16270 10667
7583 3932
8138 13759
11196 9822
1671 16338
8273 9703
12219 10172
16111 7634
15868 3119
10583 16310
7088 15767
3849 16053
11477 13477
16827 17211
18666 11602
664 4685
874 8623
7368 15176
11687 3363
6148 13006
13056 19007
332 254
5602 7705
14296 5828
393 11468
11307 7394
19567 15146
476 7839
9100 8671
10557 13316
6324 17059
18668 3759
2107 18026
455 11759
645 2603
18943 18167
19672 7226
17546 11416
10498 1953
4169 9421
16873 4239
14521 4587
3057 1629
12414 9739
1807 14421
11870 16429
4 167
16865 15197
4357 12457
17899 9434
7287 4347
18496 19649
8588 17377
7466 7564
535 7628
4471 6957
14615 15661
13231 1308
15771 12451
18064 8079
16141 19208
14501 5795
4091 2902
17878 9244
8805 8190
11503 12638
19180 2694
12342 9800
4183 1706
10397 6607
9655 3240
14845 13777
6018 12152
19157 12843
258 15216
2219 14528
17636 638
18151 4042
5122 13001
5774 1969
6147 2131
13038 18302
5186 19649
13184 13942
3719 9016
19047 7428
9131 16004
6894 18332
17076 3322
8367 15941
2179 15899
16055 9731
13253 1298
4350 18826
279 10720
6253 6244
7392 18543
15742 17411
13887 8386
12752 13355
17932 19602
8243 12418
18347 8480
471 2834
7985 12780
19267 1279
14707 4507
10770 7896
6886 10392
15078 6579
8038 14558
6569 3699
12861 16925
6907 16793
18714 15021
4325 10965
10272 16538
5532 10828
13458 4275
16018 8045
16879 1524
1150 16952
3837 12170
17360 17366
13758 2069
13683 6977
598 11685
4791 12132
11722 11447
4731 12836
10858 3119
6957 4545
6191 14705
17278 18614
11130 17994
7563 16789
8406 760
2120 12618
8215 15675
1819 8431
13119 15079
1108 7834
17358 7487
5395 15955
7171 17097
9169 10173
2472 16246
18473 18934
7796 1758
8353 12446
18669 4053
19275 10876
8049 12550
13909 13752
16431 79
1900 12142
8581 17147
3905 3621
337 2827
3798 10750
6539 694
12687 14444
10363 15332
14650 1587
10320 14806
1604 18953
17944 2660
8115 1466
12198 6199
7212 333
6450 9911
18644 7350
9703 1160
2349 7229
18031 6350
18407 9913
6674 14740
15609 2189
19359 7635
6329 9008
406 3401
13072 9166
5173 17688
1461 4390
7129 11217
13784 16117
10012 18858
13250 435
6413 13040
12654 4602
5654 12501
12995 1477
4275 17774
10625 12574
2478 10955
10107 1601
11323 10633
18349 7940
9830 14861
4583 16698
5603 19367
7515 15725
8369 17611
16153 18573
15133 14766
7900 6584
12532 18241
16380 6174
752 816
8475 9774
18257 8068
16229 10068
1106 10167
3292 18848
12050 16978
15730 2727
7658 952
17126 5961
12850 2368
11248 5570
19164 14471
6301 7913
10992 17506
9202 5629
3801 9413
11596 15064
10520 1344
15832 13195
14653 18815
17279 5326
13344 13837
8899 15274
3020 10523
4052 9490
768 7843
12727 514
8659 13480
14963 13816
727 1199
9288 18679
10345 7947
11039 12706
6022 6734
10224 19385
16476 18807
13351 4783
7223 13561
3175 688
14568 15890
5493 8664
1411 6337
8673 8464
14484 16370
546 10294
14160 7176
1933 14066
15288 8109
18658 9836
9465 3493
6269 4831
19349 17316
18378 5973
17876 5528
11749 14117
9390 11203
3343 4782
2210 16506
9641 14303
13785 11798
17616 3005
15168 3241
14205 9056
14692 902
12408 15690
10059 2860
15530 9097
15244 12169
17336 7255
13848 491
6804 1968
9989 2937
16149 7501
5436 15641
13646 6207
7865 2678
11338 18167
6993 8054
7089 10493
8498 9084
8116 13609
3921 18950
5269 2608
15022 14904
13657 9206
6285 18226
12509 18811
4469 3975
1116 15888
2036 4880
16339 8549
9404 9698
12162 11932
19496 7584
4099 15095
4103 10575
4664 7481
1849 1887
3172 15895
4227 19336
1536 5561
5677 18597
3276 16851
8410 7121
3950 19068
6063 4144
13306 5521
7398 1102
14987 15132
1790 7265
6768 16101
12130 6149
907 8737
16732 3683
14103 19559
7696 13258
7732 18665
13900 4797
10468 7665
4357 13289
17401 18091
2019 11689
1892 10661
4468 12125
16522 1310
15408 10233
2066 3322
2820 3399
17724 17411
11607 11900
9326 17590
7254 17372
1771 15615
6470 12333
18492 9565
17162 12653
12320 10097
16671 16429
7909 13799
3971 7209
2053 10931
540 1398
2442 4240
7097 160
11007 13413
19597 7608
5372 4005
13522 5771
13421 3789
1779 12144
6747 2431
12021 16536
13308 16975
14393 13426
13351 4446
15188 17166
2910 5557
16540 141
19487 6507
9210 6903
2054 17428
4979 2708
16957 7161
2635 19313
11736 394
10710 8419
2248 9527
10457 8096
5767 6620
7784 1488
14655 18223
10845 3383
15486 15046
350 1388
10929 11817
946 11346
8554 3508
298 17903
18565 4942
15406 15091
5530 16194
15775 19270
16670 17979
13302 16751
7074 19459
15961 11766
10793 11237
19262 3821
9080 10078
5335 8517
9149 14418
8803 7715
9307 8130
15134 3465
5918 18713
18894 5900
5407 10213
17813 108
1731 8772
15126 8171
19035 8889
15911 18538
16303 11193
5675 11884
18984 5967
9311 4534
14742 18197
14447 3596
5976 5966
12006 2640
13225 12071
15659 15966
5554 6922
9040 12464
16653 16891
11141 7978
537 17596
7225 17364
1745 4766
1652 13661
948 16127
15855 14751
14336 7456
6396 9361
12034 17804
15739 7547
17024 10763
1976 8118
3308 13011
6899 5554
7996 2455
7065 6833
13640 774
18510 2436
13470 15980
11594 10378
17829 13476
9876 17224
4451 1165
9059 8646
11576 4004
2914 19512
17765 5291
14557 2861
18071 10246
8445 14497
7812 5783
1586 4916
18136 4234
14537 6175
465 12619
15404 3744
375 18460
6577 14078
1655 15306
13905 8039
15681 12875
3590 8774
17122 5668
11412 15436
2979 11125
5408 3684
16537 17942
12599 5926
5298 13857
5249 4341
1839 12643
4938 5133
10823 14065
19407 4027
12457 18881
2154 3241
5012 2132
18748 2626
11937 16026
1562 15248
919 8190
18982 9457
11227 11226
13420 10158
14638 15985
5759 3948
19249 15331
2144 4999
10886 7335
4065 14090
4706 2858
19454 3534
16912 3363
6814 18133
8026 4419
15734 4142
14276 3063
12010 6674
18092 19459
6920 8933
16709 17820
14181 15587
9499 1796
15132 15727
12522 16624
6814 12553
449 11103
11726 2540
890 12057
587 377
17156 18434
4250 4787
17142 2813
2761 4061
15785 16097
10169 15942
16017 15201
5270 13658
4242 15151
3051 10483
4697 2908
16078 10513
8724 12273
9117 17674
6305 733
1637 10851
2173 12087
13485 16712
6729 12388
8485 17662
8999 15885
15094 6563
3273 3656
418 18146
12870 14087
2632 10659
10040 9651
6229 7574
18788 10016
17166 442
3370 3896
4577 12371
1449 4682
7352 12795
15959 18026
572 34
13992 16969
14704 15563
6645 1619
18434 18383
8731 6088
656 13104
9205 14178
16827 16471
12939 14464
3390 9055
2584 6626
4668 18858
4441 9560
9717 16518
9165 10717
169 10031
5056 84
6623 17697
2035 12717
4858 8425
10797 11029
16153 4788
5004 1049
13966 12938
12633 10591
13358 10907
14067 19582
2488 5259
7533 11131
13164 6671
5789 18813
16472 4427
4833 10257
5714 11332
9391 10359
2923 15270
7261 8802
930 17372
19259 4060
11441 13223
10327 5126
640 282
7170 14850
10554 18915
3279 19658
2707 13860
19589 15728
17036 9564
182 358
13436 17918
10433 3319
18687 14326
13318 11614
12449 10869
5402 7952
4425 7440
15505 8265
1077 9179
6516 6193
13195 4119
7602 9883
1649 6478
3138 3997
14762 10266
10232 5562
11022 19608
10727 2973
13020 11952
6999 15260
12171 16806
2383 9036
2361 15374
10353 18512
18140 10046
15570 1675
1857 6464
2189 3194
4779 19550
13492 5497
10003 10089
1202 3574
2646 10667
9803 9257
14612 3866
19083 2539
19094 6232
11298 7513
14061 18081
5224 19391
2075 4491
11560 14648
19183 18660
15316 19501
17620 1721
8969 5557
371 8976
8706 2384
19395 17905
15880 9924
2178 9711
17172 11122
13287 5553
15189 8650
18292 828
18657 16821
8855 559
16906 4552
759 9130
10419 5220
10662 13409
9568 12867
22 3703
4162 18386
8678 9124
13220 5940
3735 8072
1170 13659
18751 5964
18226 13179
11832 5362
13100 18041
10168 10280
16912 13731
9978 12383
16107 4595
18867 2162
14744 14696
18065 6800
935 6439
4258 16521
2470 15947
3910 7687
3747 18376
8348 549
1435 18419
2167 1985
8714 14671
6261 5604
288 19656
16321 19533
7538 14565
8344 19470
5277 11157
17659 1963
15232 18392
13111 12179
14209 17178
19270 16385
16183 5595
18449 6545
9491 994
3882 13274
11080 8655
7457 8891
11066 7431
17822 17669
9558 10036
2071 6813
10747 7322
3467 2963
13665 16103
19027 14039
16390 18289
1513 1747
10656 4424
883 12134
12618 13200
7546 250
10365 9470
19 1566
16075 3209
9741 15363
18453 3436
1083 809
16374 12334
9913 12919
16940 8549
12253 16003
9064 11208
12241 13592
4930 15689
18851 10226
1787 16779
17995 10548
15074 1333
9192 15600
11999 789
7986 910
14251 3758
904 15065
16620 5257
3918 1663
10763 6366
1688 19519
13933 17526
14844 1516
6719 2955
6265 15881
3466 14764
10810 17592
12470 7827
17156 5311
2754 14543
18736 3318
14657 2687
301 16390
2700 16388
1873 8289
15764 8129
1409 12005
13998 13672
570 17564
10171 13741
13769 8713
16547 13890
14373 9966
2537 17083
2290 2999
18576 894
10833 7033
7807 13626
2023 2353
14312 4054
3017 1002
2932 4729
15007 6542
12942 13241
17392 5335
653 7781
6703 517
11462 10270
16269 15871
9175 14662
5983 10497
16492 4662
11883 11842
16785 15769
10702 8132
11456 11195
6535 8433
19536 18639
16193 14498
6272 8081
16517 703
13444 7345
8360 373
5599 7378
2508 5723
8629 13498
1980 8684
11936 14946
11841 13893
1248 16022
2173 1417
16482 556
4143 9690
7899 12697
14066 8654
17485 12293
6849 3176
1116 2379
18164 951
2490 5984
2511 11753
14315 3856
7609 2244
14175 1245
7758 18272
13365 5425
10824 17957
15611 5671
6017 18670
17820 7244
10876 2160
4647 12316
11062 2782
3179 16081
5821 2525
16641 13122
9089 9247
8076 16156
9365 8809
16938 17211
7808 15653
3510 13288
10341 6656
2303 9443
358 1770
8397 8687
2788 3770
4094 8064
19087 16711
12959 8985
7548 3640
16905 18574
7689 7175
9619 4919
15176 16392
61 12572
2175 19207
18003 1246
2275 14214
5180 2006
10824 397
10795 15921
6249 5693
6858 12245
9834 17209
13679 6262
9452 13601
15689 13275
725 5121
10258 9846
18970 10260
7175 14914
5281 5827
5562 11834
11250 12822
7908 18037
7777 14377
14724 10237
9689 3893
19160 14949
12499 10386
18034 18113
1498 9183
1939 15655
2353 6162
1484 10189
11748 8409
8902 7959
18279 1005
6080 2911
11442 7754
11327 13861
1526 4084
8787 15528
522 1006
9324 14219
9927 16962
1006 11669
13560 3009
9280 14046
2343 13817
12508 11313
12927 10012
11856 7706
12787 14909
5777 17417
4536 8925
2494 10381
19540 844
6132 13728
10826 6730
19383 11834
3738 3941
9725 11311
1155 11496
8688 6508
17836 3375
1063 19587
18871 10552
12617 14677
7014 6785
19499 4743
3815 8424
16340 15750
1811 12749
8540 2625
14607 6030
18978 6012
720 8542
824 14785
13640 15585
16688 7717
6529 9267
10542 3619
13826 9225
16860 1780
14208 7567
11894 8156
19094 3482
1520 19236
11628 3127
6090 17021
18647 16926
5488 469
6803 11454
11131 3263
5417 8585
4795 7989
3239 18590
10434 3276
13677 10595
6164 17578
16385 2098
2066 10633
14620 18379
6998 3674
16265 2086
10592 17609
6006 11052
15272 17344
15914 14302
15440 9031
7760 11356
2110 4423
14728 8682
4978 19662
13518 3984
8010 16082
15075 16803
1145 10370
4013 16438
18822 12261
4039 852
6034 7822
19276 132
5580 16350
1563 19153
3833 6916
17354 9484
6324 14622
12762 16349
2920 9357
13909 13789
12159 12058
5331 2792
16328 13583
7145 9183
9506 4570
1892 11844
919 319
9837 864
7529 10877
3725 4688
8082 6406
19638 710
2121 4686
19075 1935
5348 10904
9859 12673
1673 8488
861 3995
15604 15507
11481 9268
12345 13279
4124 879
12413 4658
16115 6941
3197 18080
6288 17890
4268 1778
16128 868
385 7029
12341 797
11171 1789
8265 16297
17691 5833
913 7421
15791 15628
6722 6217
15314 3545
18000 7649
11719 1676
6365 8552
4419 18332
19410 4059
9547 14986
8053 5542
1731 12535
2313 14838
9293 15723
11406 19357
9998 13852
1725 5512
7065 3573
19460 775
2629 17032
10783 5296
15728 14588
1616 10786
7065 2866
10337 16169
5964 19296
17720 1056
1716 10217
13174 5154
17460 4226
16168 16892
15719 10073
6197 4974
7512 13946
9825 3210
1765 956
131 18970
15887 11273
13166 13718
11854 747
2229 83
1851 18956
1322 18824
8454 14775
11009 423
14333 3263
6115 12023
17347 9240
5510 177
8357 2759
4017 15973
13610 4703
2657 6731
9134 10122
19496 17334
1383 17451
5291 6041
11249 3292
16733 12731
2394 14070
5452 608
15340 15663
3656 16423
16224 14197
3707 8362
4445 19444
3827 16644
5444 2218
12420 10492
2545 13244
8736 19070
15722 18957
9933 1062
13778 9097
4974 10938
8441 7613
9127 17790
5723 7803
8324 18022
7269 12586
8595 11114
14286 13026
2892 19591
19061 8313
10181 18505
2652 11381
3926 17443
1580 16271
18883 10984
13891 14428
14340 9909
14883 7955
15988 18434
6170 10314
4053 15377
10933 7111
3295 16246
13817 9853
10774 18264
18580 9632
2413 18175
9774 1666
14917 909
14813 4199
297 15948
15899 2862
13864 4756
14698 11106
6046 5165
308 12893
14699 1730
10854 6322
10487 5400
4349 15820
17532 3059
2821 14617
3286 841
7211 15053
12566 2803
3667 17706
155 5373
8985 10592
15593 9264
5166 13233
10574 839
7591 13074
12903 16595
13398 10739
17833 14878
4926 7255
8724 532
17635 6034
17156 17131
18239 19327
16485 3248
10709 1634
19048 3454
2949 19019
9533 4913
16467 13661
4146 88
10117 3611
12914 10375
3599 15398
9894 15070
13989 14724
6552 19042
2208 15881
2954 8726
2131 12045
12445 10313
7286 7875
10388 13348
958 2224
12350 7466
9387 13178
778 18775
11519 2946
17516 15251
4376 8254
12750 13820
9436 8940
2507 14485
13296 19293
15383 13458
17233 18968
1031 4326
3180 12897
9794 9190
7279 2938
7904 12264
3609 4209
12640 11021
3135 1287
7894 6127
17259 3366
4019 10625
17891 17160
18784 12697
4740 4205
5780 16493
14559 19193
18269 7499
6767 16481
13053 8158
18424 98
12250 9028
12899 3726
4290 18489
669 17619
5713 13672
2383 5896
14590 15295
2918 3796
1907 9544
3402 5825
17710 6333
6368 15626
1353 311
5147 3559
14837 13955
8453 9879
11392 9152
7910 11770
11184 15885
3081 14023
10115 3361
1821 2390
12721 13269
16746 1546
8800 13740
17240 19123
8555 4746
13654 10198
14273 3749
8082 17710
10219 14615
9081 2566
13354 17684
16547 5813
17285 17119
13919 443
11117 6902
7435 16039
5835 13441
3060 10698
6328 12447
14627 9635
3316 4952
990 10127
10988 1319
5824 19618
6781 3532
6818 13303
7078 6640
6335 19608
6026 18196
12790 19511
3196 16577
19395 6347
9713 1980
2892 15361
11233 534
7831 15205
6631 6600
9230 7241
17953 9955
16540 14497
1022 18809
12382 7542
18299 8194
17858 14884
7014 9160
15742 9725
15011 17757
15141 2729
3761 8365
9179 5297
18406 9927
16336 3220
7737 14318
12019 5920
11995 16963
8336 332
8462 11480
14653 12501
8140 8000
9003 3872
5101 6377
4165 4027
14503 6270
6085 1378
15198 16904
9767 8288
15420 152
16067 6056
8059 978
19321 1917
9642 17721
15855 147
7759 5969
9026 9226
8350 5551
10650 11405
9278 2347
4839 10005
3776 7219
5566 8569
17544 16522
18827 12258
3324 48
3543 5855
9936 6574
6483 2100
9584 1541
10750 17200
9214 19416
19101 12051
5130 9556
14749 18593
19005 7163
15242 3577
19269 9981
19143 17448
2199 12112
13832 15986
432 9785
2366 5907
508 16185
18505 1460
1604 2406
10441 9341
15946 16104
19084 11833
725 17647
6872 10189
14658 2600
18999 16522
10783 9393
17844 14252
17095 4816
13271 15457
10625 17809
9954 1608
1977 11215
2352 11179
3077 7314
540 5128
17619 11318
14789 15016
7932 1338
19122 13796
3890 11838
1485 3700
14367 7077
17789 15365
13827 9382
8074 13726
2300 5922
11362 4413
7514 2860
10431 9083
12189 5722
4457 18051
16440 10523
2970 10109
13358 1420
10521 100
7199 18834
17575 9974
2700 5481
4183 10917
5815 13116
9492 13554
13207 3230
18042 17651
17005 7988
8592 8662
2367 18906
9722 2031
12158 17813
5106 11181
10970 18772
5278 19117
13454 16537
3054 15259
14940 194
1672 854
38 7311
15571 2069
2387 14517
6559 14773
2222 6743
18519 14910
1427 14241
7665 10402
16516 1592
1061 17213
16988 10798
11671 10811
3468 2008
6373 10570
1374 10950
9225 1383
14465 217
12337 19090
16577 10363
15463 8779
195 9829
6506 10129
15111 11150
19356 15582
17805 13257
2721 3912
19140 1559
11366 12350
4615 9057
19462 1017
15978 10149
16384 5294
4435 17600
7927 441
14848 14372
12516 14437
208 3079
19177 15507
915 972
2220 1055
14283 12792
4684 4082
110 2998
349 7054
16189 2473
17689 15390
6549 10600
17287 16233
16011 759
3972 6726
2225 16050
14318 7756
17010 8702
4347 2931
12787 4882
7743 3289
16556 4822
1433 8169
13372 3260
17415 16116
15065 8721
3826 1103
18735 4184
16869 16637
5868 13066
14101 7004
11186 2607
851 10308
5131 14984
14811 965
13065 15879
19610 14459
19230 12665
19375 6356
16880 10780
12111 16852
7965 10235
16602 2842
11822 1011
18388 17479
16940 19109
8115 14474
11523 3745
18435 19650
12682 5563
5929 2596
5986 15280
16942 10735
16714 9292
4125 14158
15228 1539
3089 414
17601 13997
1711 2753
5886 14183
3153 15665
13241 7880
12742 9486
1878 10958
9770 15625
3559 9685
14125 5315
2801 101
6098 14921
12645 7833
9820 1348
3027 5132
13834 5178
9177 19651
17205 5320
16495 12037
1750 8453
18179 17843
9975 17649
1774 13259
2257 17145
10614 10264
10905 6280
10821 2488
9160 12515
14894 17662
12352 10669
1583 18805
17055 17715
1207 10903
5245 3362
174 9827
1245 3582
5994 8273
4826 7406
11735 19159
4793 1531
10165 10814
1508 9695
9525 15776
5849 9215
7943 17468
11145 10822
5607 14124
4850 11305
598 10567
13519 6044
13288 19672
5443 19335
12087 15977
1884 17636
10769 5356
7553 10735
3381 2851
14227 14594
10140 18062
184 14234
18944 56
16432 15732
7380 3960
12643 15037
15974 18097
2207 2263
14153 5505
9054 12175
15967 15037
6040 11876
13736 15711
8013 14568
4069 13894
13069 18337
5534 15522
647 16052
12320 16407
6167 9930
13196 13592
16137 10328
10450 12365
15113 14539
13801 9996
12672 14142
6679 3867
1644 1981
11024 15684
17315 6503
16781 10125
15278 16507
8398 19604
11069 7373
9122 11322
2643 10138
12562 5589
17089 16214
243 8650
15416 5367
13252 10005
6618 3729
4764 7691
7597 15936
17511 16316
9688 5049
868 14452
19157 18441
1377 11709
10701 17153
5185 8169
8405 13359
16253 6733
15850 15514
17440 11799
6882 1170
15805 8121
6449 3440
17976 17934
4595 1140
2717 8047
951 19641
14608 1000
6343 19503
2210 13573
13350 127
14709 5215
10057 16322
18272 10642
5030 11981
18570 13461
19288 9701
14144 12489
15477 6748
6822 3548
13484 16846
16413 10221
4659 10111
4526 15652
6000 3981
10532 8565
17229 12606
407 942
2613 14692
3372 6706
15492 14674
7717 18054
1263 7415
5591 1638
3748 16404
12873 3842
2360 663
18200 2955
8446 2421
1052 6560
15035 11444
17336 673
5604 21
12119 12672
5466 1
18074 14184
7882 14821
12473 18025
16250 19365
3552 19552
19613 14119
569 6561
10211 14386
4610 1688
6837 11505
16464 14120
16039 18702
5095 8103
5825 18803
6758 4454
14471 17579
6950 8604
7281 19480
3116 16317
15283 925
11018 4654
15060 1261
5972 13765
17906 7352
11593 5331
7967 8824
9383 18901
17292 17324
17359 938
4909 16070
16012 16994
8240 8966
9442 15765
132 1219
13594 7881
6128 1123
16494 18733
6801 12151
3455 9853
19640 1259
9426 15628
17236 12444
14660 14704
737 13542
7958 11433
12611 7833
4111 10427
19524 10116
17244 19334
16750 15299
4415 7823
2336 8754
16934 651
2469 2737
1573 5364
7554 13015
12578 5231
8845 3043
17804 19585
13424 10172
2692 10458
9597 3294
9111 9892
12945 4425
8123 13455
4582 10322
18297 6289
3586 7415
11629 13256
7430 7589
16920 886
13646 12432
5113 12168
10496 16567
5083 7017
17680 5469
1219 13935
1786 17482
1694 8269
10789 18214
8479 18926
617 4278
3653 5976
19678 19261
9896 19135
1695 17017
16546 1854
13291 14708
5565 1283
13996 1605
1166 11906
12657 10502
4401 17843
8779 7717
11780 1203
2205 1107
7669 18170
8617 10141
17986 12853
15379 551
17813 16535
6030 17132
11479 2001
4954 4993
10632 1187
15290 3132
18550 17140
17424 8803
13955 9694
1244 13571
2463 8093
8514 12770
17386 1064
3951 7767
11308 480
18860 15289
10883 15893
13655 13376
7456 13988
3645 5359
18118 814
12312 12866
2358 5383
18493 1899
14586 13869
17588 16788
13423 13199
12970 10592
2627 11034
2058 916
18559 17623
2944 13807
2025 12621
15183 10898
4397 16332
9061 5769
16756 3296
7695 5965
8306 6625
18891 10452
10909 4275
575 2247
4436 19624
13338 19370
8562 1677
13108 1890
2623 15995
14252 18814
15192 12514
11815 14605
11190 9622
3114 14762
9781 12188
6575 13292
9638 19561
3311 6650
12803 3113
1419 18229
8837 18519
4336 17294
9025 14545
13780 1354
5939 3045
7294 4546
10425 9226
16634 18421
18987 18525
15254 9418
17220 3185
8776 2258
9810 17158
12282 18941
1428 4341
17215 3130
15782 18793
15622 7578
15683 2973
7059 4124
4405 9256
16176 2143
12474 12126
3350 10041
15326 2057
4661 683
3562 6838
6807 10835
17111 3323
6909 6712
1534 3864
11158 2767
6502 3398
17480 19321
4524 17485
13552 1150
1815 10383
1501 17435
19060 14210
10814 6474
18718 13766
16051 841
11961 11861
16028 8709
3505 6393
13196 14360
17746 18238
4011 13319
15820 2867
17999 6677
7476 6397
9958 12065
19166 11748
16876 14237
4570 17527
6296 15447
16408 10870
7610 19334
17736 17585
7276 16583
12703 19351
13660 12588
1051 4924
1868 5924
3215 2987
2204 9740
11755 4152
2945 12488
13751 19148
13367 6320
12557 8873
6562 746
3631 1925
11874 288
1431 10196
5568 2791
12066 2513
13491 15684
7054 6575
17417 5985
18930 15028
16586 10739
3183 4248
7011 18706
11799 13924
42 7316
1950 2365
12200 16134
1678 10877
6022 6856
17886 17850
16252 12560
14213 17910
12785 17929
6437 17904
15227 3496
15312 7512
5977 10811
11855 4271
17226 10918
5076 3429
8766 15141
8292 5606
18678 763
14290 3924
4410 18668
8075 11333
10770 4563
4656 2585
3628 18020
8072 7757
729 14853
14710 10239
7355 1574
2964 10628
6598 13413
18528 16424
13511 7731
1463 534
7550 2244
17560 16032
17599 12253
4747 15177
15647 2286
119 3801
16598 17535
5006 8669
4617 11858
12622 2339
6246 19588
12741 18949
5171 18480
6339 11659
3785 11254
365 10919
18163 1517
6642 18655
2642 16338
1841 17227
5868 3920
2916 16759
9283 14534
11509 568
3335 13497
17407 6745
10137 14862
6255 19263
4600 4967
7287 10954
2555 10965
14916 13019
9145 204
17512 11093
13 489
18980 12310
397 4667
11475 14169
9946 10754
17983 2406
2554 7812
4199 4820
3760 16373
12090 10855
6476 19347
1962 14961
16148 12753
15193 19518
12322 12785
515 12548
19153 15302
2688 1336
14925 7652
9479 11570
15299 10932
1721 1661
15711 3274
16105 6474
10301 1805
4986 2752
14880 8556
17603 9477
17087 18050
15041 3523
11263 9574
6448 4221
901 6182
8008 8002
9680 13200
18463 3387
9055 9373
9169 10921
2018 92
14119 12108
17505 11547
18987 8777
1937 14961
1927 19088
3301 4118
15564 18372
12967 1238
8107 1430
19015 16772
18457 15711
16808 11484
7125 15480
3457 2358
590 18418
7001 9326
12911 15933
10625 18256
15144 11170
19226 12839
2011 8255
6427 19054
8762 1048
11075 16448
2038 5655
19555 17597
4482 5233
10486 6441
10742 18320
19449 6372
5567 4887
10155 15063
11043 7628
8136 9552
4394 5086
11742 6281
17495 9857
2696 6354
6772 14729
19609 373
14344 8281
12619 8973
6858 5309
1623 7889
3854 18215
6350 9921
11181 17322
6954 7354
940 14385
13505 14507
8660 4416
17289 8194
15214 8818
9916 13178
19089 9655
16636 5579
7465 6460
6478 813
6558 15799
6357 278
10696 5178
16345 3321
10893 8128
18666 9525
14558 2683
17237 9437
15197 4081
11680 240
3269 14952
5996 15088
19429 18628
9912 12519
14151 16597
1614 13031
15525 8601
11408 505
5199 7416
7846 12048
1007 18228
19282 7638
17684 3526
11067 6410
18032 4393
12162 12272
162 5873
5720 1753
13681 8247
11208 12243
7780 5330
1317 18207
2138 4844
15058 4634
13881 9289
7139 2140
16215 8291
7402 13293
15525 13948
17231 17197
16724 5369
13596 16442
6965 13441
1066 19445
9029 17693
4994 8817
16589 5
11562 9506
12692 2061
14803 1218
14499 18108
9521 1653
8620 4194
15483 642
9149 3833
8461 2841
10917 19066
3297 9430
3677 10841
7604 8113
3870 19128
4555 966
1894 660
5549 4075
17457 9895
12833 14244
5143 13262
2189 10193
15695 11293
3124 7072
14566 5711
2939 3849
169 7991
9331 10194
19654 11812
5455 16015
6459 3745
14019 9093
11980 10224
16972 18361
1483 1902
8229 6147
11466 9972
6499 5550
3738 6856
8948 16860
5340 9128
5843 121
2381 14857
12623 11328
7895 15815
11467 425
17855 13633
11778 66
5354 19100
5842 11103
12649 7837
4404 7189
4951 1558
11510 19635
16966 12066
18023 11766
16829 6432
14267 810
18329 9957
3582 3621
14542 365
6141 2128
10862 14554
2370 19436
104 14837
16468 16563
2663 6872
18485 5250
11601 12672
1570 5849
6993 16591
5654 3045
11465 203
15243 15909
3110 8985
4422 1250
315 7904
12282 9439
8276 4400
13587 2940
11435 7537
7583 11373
7712 18638
6383 17742
7141 3292
329 3281
3235 2680
16162 1318
18066 18643
14510 11326
444 8155
885 6067
4002 16468
6291 10691
6254 19378
17758 16853
7974 14618
5119 10192
8142 12453
2766 13867
17670 3994
10633 17992
13367 9785
7026 7803
16566 3204
6260 7522
871 2355
18153 16606
13219 2576
4034 2866
2075 13338
510 7801
10409 17071
17609 4482
2447 17606
12844 12105
12306 4504
18442 1027
3413 7307
79 3643
4722 5802
12712 17307
17170 5943
15429 12686
17826 2129
14835 14163
14960 12128
12358 18902
6960 12396
13773 9319
3033 18248
17941 6537
3146 2299
13365 6580
6200 14804
10915 18500
17195 14288
13951 8786
18820 17017
17214 7924
3546 16626
17778 2725
4556 13531
8921 15020
9907 10746
8745 18561
9145 18441
2072 11206
16661 8906
11166 16840
9509 10683
952 15080
5736 16015
4758 19205
7035 9598
573 16341
14061 2890
19211 345
632 2924
17435 18663
5479 19467
11192 7073
15319 11853
11195 6318
12424 2435
6663 9856
2152 12739
18939 12563
11971 10431
19051 3812
9198 1504
8527 1749
157 17913
3459 10707
11162 12823
6259 12947
6100 19507
6735 6908
10528 3328
1276 6915
13495 6896
445 13309
4808 2250
7562 14965
9916 7568
10522 8645
18458 16056
8272 17390
2572 13168
9921 11402
10808 4736
3362 4276
15109 10494
17985 14689
14093 8937
12512 10355
5203 13902
14890 10344
12487 6452
15258 6517
1838 3569
4914 15389
7600 11539
6489 8524
3096 8615
15049 2338
11673 15450
18283 19701
3907 3550
6003 12975
8712 19167
16120 4495
11264 8785
8321 7248
17750 509
10511 17340
12113 13585
11921 18559
2076 9849
18088 3419
14287 19269
4379 14425
13979 13564
18546 3055
17626 17883
2312 6431
10870 6025
16498 4935
3497 17015
3638 1530
12175 19693
7970 2044
12683 14371
3974 10045
10522 18253
19308 9299
119 10017
17834 4555
9750 8515
17768 16934
11070 13997
5945 778
171 11353
1855 11724
2560 5609
16515 10499
17001 10655
15255 13680
12579 12953
13984 4005
10987 4480
12816 496
16546 14092
5683 9427
5109 16876
13977 11459
15336 567
8933 5211
12242 8088
11670 9147
7389 3262
6205 18120
6086 18744
16569 11078
18969 13365
13157 9173
2749 7679
2058 2233
12150 15865
2095 7528
2155 2965
18061 9965
15715 9566
13312 4382
19026 13910
2487 7297
17617 8665
13295 10518
3598 6489
13832 10539
3762 2988
16433 19267
810 6308
11345 7215
17094 18435
10116 1237
11405 1347
15158 15729
14442 2078
18077 3255
19610 11695
11111 10615
8997 7074
5440 3880
11097 366
2443 1988
1256 10402
13701 19204
15813 10495
9362 17268
7266 7305
7556 16977
8333 14132
13422 12186
12914 18788
17503 2301
4749 3534
150 327
4271 10667
10568 12190
10803 8486
18345 2555
8728 6216
14789 1513
2342 4302
5894 9045
15962 11814
13736 13842
12040 5180
18516 10979
9969 4141
17067 17964
11803 12978
14042 17839
4764 830
3417 16801
15001 12340
18327 4245
14393 17528
1856 191
16483 3441
17286 8902
1853 19529
13635 15913
7963 4273
14096 10233
15114 6104
1377 9643
15246 14812
10090 3873
11963 11994
393 4813
4390 17820
6211 2891
3056 4496
14897 17803
12589 17714
11626 1904
12368 5802
3464 10311
8083 7983
5184 16979
12011 18562
3669 19616
19620 19056
19629 18914
13490 18806
467 16383
1489 3037
7843 3176
12755 12139
12377 7167
694 8504
10813 18708
18530 8418
5863 19506
9626 5803
3229 10217
11690 2239
5600 5708
11223 17724
2106 11470
9674 10318
6177 2704
2674 19477
3037 5096
15114 9704
16735 12787
18704 9857
13161 12249
13768 17249
15712 18637
3207 12154
9579 18351
16277 14084
14306 17137
10322 1451
16554 14663
1141 19230
13112 9204
7716 16387
2242 16508
13881 19168
6724 11066
16138 17143
17450 11951
14808 17289
2642 6893
11889 1509
14345 14288
8196 14214
7722 9750
1966 8389
15190 7150
13642 14458
19156 12906
13309 16929
18690 10628
9476 3809
2109 4704
13945 9280
7079 206
9048 8284
9492 19113
3064 15392
17733 5078
13118 18884
18681 13440
7596 18454
5736 5327
6290 18982
19138 16293
9269 15375
5865 14854
16171 2658
905 10936
14810 7333
17188 11013
13953 15003
6659 13273
16263 1778
2500 683
15641 11865
2505 7580
16355 2771
19303 14824
11030 7068
17989 19436
7994 17025
13689 3773
4755 19284
18244 10625
2878 11697
1646 4174
4571 9168
14446 9353
2476 19655
15271 3147
2789 9498
3752 3495
19176 16606
17606 11034
10373 13244
3205 16081
14492 15927
16832 4829
10028 833
10309 6605
6504 1710
13108 17080
11545 18235
16401 5286
8800 14518
16095 1372
4736 9076
15215 9243
1152 7681
18366 1567
3011 16037
1895 15658
19572 8553
19256 7726
13617 16893
17766 1207
18398 10457
14771 4951
18320 17535
8491 1951
12453 6370
9222 750
14283 5011
2635 13987
2259 14008
2943 2640
19396 2342
19345 11668
19382 6685
16768 11660
7905 10077
3663 10760
13875 18094
10597 12338
5565 9376
11565 7819
5231 11031
18752 10689
13327 16564
13620 17330
2150 7216
12585 8516
4204 13310
7945 8203
18506 6224
16675 1964
15712 2619
3996 249
11408 11278
18883 10200
14115 11213
17335 18393
5248 7736
19156 12997
17935 16287
15893 4063
2561 13797
8649 6624
11691 8846
3911 392
16447 10185
5129 1197
14117 5403
10102 12801
14114 7165
10639 3186
16977 5472
252 11083
11186 18248
3421 11358
17672 5800
7790 4080
18733 3680
666 16230
3028 3328
394 18048
11334 7113
15590 10454
5615 5583
14330 846
16201 5647
2346 18123
4156 4572
12735 10304
19045 1862
14602 11967
7823 7916
18645 13799
6783 19211
15704 6173
14827 4845
1379 5068
17441 14860
10436 19647
1139 2800
13128 14680
15538 6942
3675 14467
17514 16367
9019 1073
1295 4479
1904 16360
16869 5518
15125 277
2475 13936
10581 15654
16403 16219
10351 9871
16594 5994
2676 12481
18435 14867
2223 12455
6291 11454
4228 2579
2664 11140
2340 5490
18004 9763
11945 12983
656 15175
11592 4136
17047 15743
215 1790
9516 15571
16188 4239
13443 13359
3978 7531
14098 1533
13296 647
7217 14387
3544 6588
4816 1330
12155 6826
1200 15178
14104 15768
15677 10003
10925 8120
743 19128
15239 2287
7675 15585
12030 18726
685 1454
168 400
134 11637
9595 10245
18324 18050
5428 1015
9402 11411
8198 5370
1589 15736
11871 18529
18027 9547
11187 17871
7838 4838
7567 15939
8894 13342
8104 4646
731 7741
14631 19659
18099 14222
4762 13265
18414 13242
17479 1442
15343 1333
7791 17065
5797 8995
5202 14084
15588 18343
19426 3371
2647 8428
7450 5757
7818 14825
425 9139
1415 5022
10127 17159
281 1604
12119 325
12315 18264
5956 7435
15256 6259
7963 1658
10424 3059
19239 11557
14530 6388
8435 14495
14861 14899
8932 7973
3679 13054
8602 2751
6690 11099
546 12063
5229 768
13416 5596
8478 2604
15950 12876
18721 12067
3502 19439
13622 15036
6555 11555
4811 13633
17208 12773
10945 7164
4754 19339
11395 8908
9704 12842
10942 13638
18322 3216
2683 6514
18293 3433
3416 13824
11169 17829
11851 7442
9279 15035
13262 6285
17707 10671
8539 16584
8773 18500
9896 7105
14971 9360
6692 10902
18290 2142
6799 2275
11938 1344
5476 16443
10264 2632
12416 11549
18177 5252
12560 13469
15003 459
10626 9434
9317 13588
2911 18391
6718 15942
15796 12821
6271 8114
831 7372
289 4920
3878 2825
16689 16695
13054 2823
3605 8720
18020 16720
3437 1071
8232 10722
2268 10323
5642 15458
16715 323
17276 13418
3881 8338
1377 15087
1807 14334
1962 16388
14097 8603
8170 8199
1125 12610
4243 6523
10071 15853
15884 5552
13462 18898
4253 9832
12039 15571
8436 8257
18500 15232
2085 11514
12226 6367
1316 18444
4562 12722
15590 5800
12850 9999
5651 5941
1079 2908
12117 9289
7327 18390
19282 9263
16911 4190
12471 4945
2147 16815
10 4847
3592 4438
17492 14273
5919 10688
13212 5205
13953 6979
21 3559
2369 837
219 3138
11498 2602
4271 18173
15987 10887
10642 11858
9348 9043
8911 13584
3710 4162
15549 2514
16898 14881
4377 11105
15978 9316
11052 19311
6387 16525
483 5642
5274 15105
12792 18142
6152 12320
3568 17012
3494 13382
2829 17092
3192 16573
7327 18332
19692 1479
7474 4545
15912 16622
17907 13203
13628 15163
1212 8191
5195 2345
6642 14982
11198 14173
12881 632
10891 14830
17002 5726
14562 12022
5049 7685
1833 15762
10395 5088
17524 14967
2257 16549
12758 7493
431 15615
786 8817
16874 16565
5880 18445
9385 16849
11656 11477
15123 4307
15358 14828
15252 4195
2409 13982
2783 18306
4179 13081
7475 12458
10102 1509
15760 5020
9348 10916
2764 2497
4325 8032
16953 2523
4045 15494
16068 10900
15499 6114
16705 4746
3369 3773
3854 4634
11658 2185
18114 13282
11639 16359
4005 14888
13015 9052
7933 11223
15315 7166
17211 16257
5391 7851
13930 6214
15646 3720
19187 2011
16578 6580
8883 15035
9961 9465
12271 7268
1391 4509
3286 8185
19317 12718
16409 886
5307 1510
15102 3829
9529 650
6809 18880
12587 16710
1523 12665
12004 12571
10873 7467
6988 3121
15164 1720
6360 14540
7966 4851
11234 16751
8637 4400
8487 9898
18937 9938
8764 16386
4242 11666
2559 11159
5520 17459
17123 4517
3477 5166
11380 835
14717 865
13594 5288
11154 18745
16665 9973
15216 6922
13820 914
15441 11240
11790 12734
3811 578
700 7870
1440 16910
7708 1952
3382 15122
8487 11731
15740 4852
11892 8141
7729 8820
18001 1339
16302 16060
981 9003
15405 12626
16016 10271
13512 9347
1813 3287
1391 18047
7953 8290
2519 19055
849 13985
6612 14560
13406 683
12389 2251
15913 3616
4540 8810
19103 14609
4430 8182
13956 4793
12249 10029
1852 9185
18002 9390
337 8853
9594 2353
8934 7234
1422 11737
13310 8907
4365 13420
18336 5219
15647 1059
8153 4714
14974 10657
17454 6937
6256 415
691 2974
9435 12424
4314 9403
8320 12355
18747 8209
6888 13682
2099 2864
19059 3834
9286 13729
19420 11949
18727 8790
13192 15399
19489 12186
18628 11486
8176 4461
2960 17335
9841 122
18363 10576
14407 12349
12124 8617
14064 2831
17411 4723
15870 9789
4982 2902
10873 15240
5874 11629
585 6515
4208 6936
8024 17508
8905 45
15108 13544
16844 6287
9796 12528
18868 11843
11885 18856
2072 11614
17381 14092
10287 15757
5930 2433
1405 7739
531 14842
19232 14993
1779 14359
17128 10128
18518 16985
4447 15451
7045 8030
17262 5995
6787 13130
15079 12759
14616 6227
17361 18557
15565 13018
6479 13557
3299 17919
1385 18419
1181 5676
11692 3848
5103 6581
15576 2182
3813 3636
3546 1456
7990 12228
7614 5612
10246 2903
169 18308
3484 3380
16438 10981
11297 18231
11017 5245
6168 11493
16806 6890
1607 13398
14194 10365
8729 16592
3109 9805
16723 12864
128 13538
2761 17738
5999 15652
5884 15580
497 15091
1203 18743
5758 12104
10761 6859
5841 15599
11922 13396
8719 9732
8254 5742
14732 2128
8544 12211
1940 19243
3923 11184
18156 16553
9632 15024
3690 10415
2907 8333
1284 11300
564 5870
6622 6170
17697 557
15362 10234
14146 1099
17137 10782
12426 6079
6268 15825
19270 5146
19048 3790
5482 2742
5290 8673
6831 19114
7263 4955
2094 15778
3623 15990
8409 16445
16011 18310
113 11879
14357 3141
9431 649
15681 16326
4227 11891
3680 3472
16035 11558
9768 16962
3470 17327
11592 10872
19647 15781
6673 13189
10679 15284
12798 2794
16397 7661
13464 11275
16731 3497
13878 10427
9922 16857
18540 4162
6914 8278
6425 19584
12941 5052
8285 14997
4996 14995
3854 7485
13921 10512
4485 17221
19686 5053
7179 1109
7095 13601
9968 330
11813 13790
5016 6466
4324 16954
16027 6748
3124 16011
416 6294
1764 8509
2894 2304
6565 2869
15122 11968
4257 9664
10864 11221
37 1234
2680 17562
4410 9952
12491 7882
14203 8915
16362 18077
8501 4630
5225 303
3171 15928
4665 2410
6048 3600
13804 5621
8238 13018
714 2869
14234 15609
726 8219
1928 12823
10317 9577
11918 6805
4925 18057
12689 6238
16372 6720
3785 7157
18951 2062
9388 12590
11106 7979
15336 19445
12156 2237
14301 3121
16196 9682
16819 12755
8282 17607
9043 17282
18124 18778
12377 13316
16315 707
6555 2480
13223 11968
7776 1799
3134 5086
9794 18233
18483 8949
16620 1875
9363 110
15138 18259
13605 210
8003 17677
6986 8622
16480 18635
1052 17051
18796 8821
19551 14791
11087 981
4955 14795
8512 16123
6012 15286
11473 6879
7359 4039
6388 9229
316 9360
6284 6485
19195 16916
18068 13808
18264 4396
19209 3640
15394 16570
15167 13818
13755 11377
10492 3102
4660 8072
2562 11051
17433 12252
5731 18340
6825 11233
2554 3587
3196 13997
76 6083
387 15859
6793 7731
12676 9528
4166 6028
9096 4292
6335 13135
7130 13793
3283 19260
18946 15734
5186 3282
3573 12375
11313 8923
18755 13582
18108 13367
975 179
8793 18719
7133 14408
14812 8751
12320 14664
9548 7186
18825 8535
714 1636
14369 598
19627 18842
5112 11656
17999 16823
3834 11260
6807 18878
16181 15676
12890 14316
17576 1826
6210 441
17100 417
2206 5592
19426 6495
1686 11323
1752 14845
12705 19678
9413 6042
6691 9119
10466 9363
4993 1577
6343 13717
14269 19701
3434 392
674 11760
4870 12333
10350 12669
6800 15711
1709 680
14502 5520
10043 9023
7912 18412
7585 1501
18229 3939
474 478
2120 1403
10730 9126
8217 14532
4420 13690
9779 462
5876 1581
19600 10187
3234 15345
4060 631
5882 11033
1738 784
189 7546
18723 16849
16777 10927
882 2766
5180 789
5536 10013
3345 7497
1601 13044
17907 3918
4621 7739
11649 9702
9845 9756
4548 15509
16228 15632
873 4300
944 4861
2447 6932
7722 7484
1459 4480
19086 7322
18209 8287
4659 4369
9881 4108
14320 15407
7513 612
13572 2792
18075 9223
15907 9256
14370 17409
13984 14772
11860 5214
15409 11661
7144 18668
1428 8488
16790 2153
14223 14422
5531 666
4712 6485
3201 10391
7816 4951
13001 11159
17598 16244
12576 9512
7984 6381
15309 4906
7730 12141
17376 3567
9833 12818
19372 1591
4776 9465
17900 18468
11924 9509
11368 17213
3487 13928
9291 6169
17175 18463
3935 1075
17239 17582
9635 2119
10954 10428
17406 5344
3199 19143
18838 9310
4369 10706
14853 3947
10824 14109
19428 15518
5535 8422
15811 15016
3913 13942
11429 4914
23 17232
17668 1714
8643 8522
405 12023
17845 8168
2814 13189
14642 1433
11467 18209
9948 17479
15004 8877
2701 1010
9159 3082
11225 2697
13043 5868
16836 11209
6473 11423
4069 1217
2929 11212
11307 16519
14352 5829
10287 6586
2595 5831
11285 18517
8387 16595
7240 2336
6678 16115
1626 4941
1911 4098
17653 5016
11813 19349
18938 19389
4553 9481
17571 2134
19040 2176
9488 13929
2197 11035
11241 13438
9645 19400
16820 13976
3569 6474
18872 4435
17206 11720
5224 15097
14013 2774
3960 11195
15032 3319
14248 1867
7386 7200
17908 6021
4124 993
2809 1894
18927 14815
16566 10744
9575 12317
8358 15931
18304 989
16262 10583
18231 10983
5439 4076
17943 7587
18578 846
9061 13370
6582 5958
16708 12214
8234 15475
619 16557
9232 9181
10079 12201
14238 513
7507 1347
18647 780
5257 7793
5200 9419
6241 12095
6137 19412
1412 14191
17101 10115
1408 16662
16469 3141
8073 4770
10349 19371
11720 1969
13970 14133
2641 15169
5418 4365
1474 5738
7307 16069
9116 5706
8223 11988
11600 9329
8836 4996
3422 13810
2588 16882
4113 14668
5771 6487
7481 6940
16934 526
12478 16211
4238 4259
18013 13269
6359 13490
225 19497
4049 16138
13805 13099
8003 1521
2838 4675
14370 6347
6664 11910
5152 17851
11120 14099
44 5425
9659 2452
14553 8477
9382 8576
15376 17366
18549 11501
7541 5921
19322 8511
10451 13264
17871 9951
8418 13753
11078 14152
13035 12539
3894 13822
12868 371
18528 15364
5326 14079
14231 1554
7656 16283
2256 2672
1027 4302
9057 14572
13742 18401
1089 19206
5698 15314
17502 14204
7004 4282
17937 7135
7681 9524
987 8776
2969 8533
19581 13821
8342 732
8121 7104
14537 9886
18141 4187
13872 18956
10453 2809
14711 13206
6216 16648
9589 5365
19042 14137
13870 71
426 2903
16471 8949
1286 4663
1324 14333
16252 11139
14655 13397
2466 5568
1536 16905
3838 11588
8217 11386
13263 4591
18228 5763
7250 376
12862 3553
17081 17973
744 11695
9405 3792
19237 15355
19052 19633
6120 5743
4757 202
2750 6093
7487 11653
8434 8524
5277 14191
2836 3385
17028 14407
12076 11713
1213 3852
9918 1671
6477 10879
2943 8954
9202 2677
14831 17497
14251 9860
712 1167
9647 1118
565 5096
12964 19546
1068 4557
7200 1932
12538 4688
19343 7401
17980 5782
12434 5908
15590 5581
13624 7894
9636 6166
16229 18604
4895 8126
17392 7189
19239 14847
14913 19191
1903 1619
10946 13613
14905 6925
16157 12246
15704 11182
8053 1958
5317 15060
5781 18910
15674 2849
3107 6754
336 5243
12664 9368
15948 11012
7099 6337
11794 18969
5792 4287
16222 3330
6283 9433
7690 2364
5040 11501
10913 251
5753 4753
8541 2790
18657 4224
6140 14741
4956 11981
5485 13071
5946 14422
9084 18205
10006 14658
8723 12050
9521 13877
11365 9520
18542 17722
8690 14275
1495 8821
1119 17471
9956 3687
7442 17353
10964 13447
3021 11585
12259 6949
11154 5651
7602 9174
4639 19652
16674 6665
12592 14747
10227 3888
9337 5764
17593 14413
9879 5788
15870 4421
15292 14011
6928 17481
15185 16449
4335 18212
8508 16832
17934 348
17507 11956
16702 3555
15003 14892
9008 7763
7049 7343
11769 11751
14102 4971
2870 17263
7174 12365
3150 2015
8212 3886
8667 6924
3572 6223
10959 6288
4511 16673
16561 5102
19247 7399
17207 13067
1268 18964
10603 14518
18973 16685
16631 15335
13362 3237
16760 2690
4606 19137
7834 8268
11810 4206
6653 12270
12921 18497
11706 3272
12364 8479
668 10412
11597 7330
7571 8068
11055 6572
11485 4836
4549 2952
12619 1045
17513 16083
12985 9511
15538 4758
8647 16794
1973 9762
5892 12726
17739 12078
2947 4827
18238 13676
1318 7510
17477 692
4198 12034
19455 1986
10582 13135
3046 7472
19200 12773
19390 1094
14304 18916
12952 16762
6757 13719
15823 919
9490 11679
13162 10879
5893 7104
12761 504
2039 15822
16594 15423
5859 8498
12956 1232
11607 15918
7304 15673
1075 8657
4796 4350
19487 9780
1983 8678
9784 16814
14944 15885
9667 11543
5381 4456
6689 19611
8172 15048
19196 2071
18966 5218
16912 8374
8260 13276
5578 5163
14645 1433
6496 15341
5242 2538
18734 2204
11106 2824
16545 8712
5343 4112
8381 9561
7688 6425
7147 2895
248 16755
8691 14807
19226 9004
17139 19690
6771 8189
11783 17244
11619 16970
5060 6253
5824 17675
573 5530
3535 14615
2378 18402
13856 7633
4296 17592
6797 762
1097 11329
970 16605
16178 8033
9966 14661
2416 15912
10462 16157
12468 3536
10820 114
15317 15558
648 5308
4648 1082
7450 2733
2549 10570
2854 3026
10023 12235
159 18542
1977 15463
19595 18085
8707 9199
8537 12291
1542 8197
10687 10025
14008 13216
6179 4640
15780 19022
17678 3839
19356 6887
11818 17883
6107 7669
15981 17926
4995 16194
8849 14948
12859 18449
18668 19095
3038 14487
13957 5921
5894 15311
3870 16687
9083 2149
3988 5690
15524 7942
4432 18855
4755 18248
4354 534
411 10254
11380 15624
3096 15236
11625 17283
17093 4330
14872 1844
9628 7182
7698 10695
4440 17642
10337 17371
12876 1854
6043 8847
12445 17440
7288 3068
7957 12885
1717 14485
2961 4068
11597 15534
5723 10315
16677 16996
9298 16612
11938 16661
554 17672
18578 11602
11119 13491
2791 4701
6267 18720
17716 16399
15956 4952
3905 12183
16118 1320
17534 9639
11405 698
5833 12495
2280 13369
10074 7748
7075 4283
10142 17480
10561 8376
12710 8648
12486 4741
16147 147
9403 6123
4275 2460
848 12842
188 12618
9875 9398
2917 381
16820 10386
5682 18071
19182 16542
3230 15443
6842 13862
15500 6736
16307 728
3931 19432
7984 1892
19414 13866
789 3925
7623 9045
11516 7180
15164 12986
7644 16061
10751 18827
12343 3331
3937 295
11962 14581
5487 4355
2717 2218
1753 4310
837 12693
14622 6969
6300 552
18233 7518
18419 10043
8718 16654
10532 4701
5927 4987
3939 875
12036 18333
4408 3171
7368 5042
8697 15704
11777 1938
14342 6066
13814 16167
10681 15339
4773 12239
16309 15343
18841 16679
1242 12358
14056 10836
6236 6368
18461 5922
17293 9728
18682 17034
7124 19303
12032 11938
1621 582
15253 8989
16426 1432
2968 12072
4433 7178
15132 16942
17673 17553
2187 334
10749 14613
15631 13922
10720 718
2053 14516
1167 17914
5886 15892
17737 17676
16808 10547
12333 6961
4696 10411
2609 12334
16921 16935
4055 12909
8811 5961
18236 17345
18443 8969
12404 10236
8470 15248
18259 1989
6085 12031
1659 14147
4809 187
16363 16275
19133 6420
18104 19510
8340 15823
11017 172
4800 10588
11739 16046
291 9510
17402 15693
12347 1580
12314 12853
3725 13152
16100 7708
19508 7517
18520 8319
11907 5038
1090 15989
6944 18554
14476 13238
12806 1119
12630 8906
16400 16831
11161 17762
12324 2260
17824 1310
16334 8012
6440 983
6772 7464
2898 16848
17237 12681
13012 4751
12420 2586
10349 15120
6546 5228
16644 672
5097 1742
17919 8108
3109 17337
19527 14502
10306 898
12046 6928
13896 3770
2633 9692
7639 6867
9636 15427
2614 2716
11451 15567
1180 1429
8577 12051
17952 5056
4947 17107
13259 4280
10146 7210
6855 5415
18946 8240
8402 9253
6155 2884
6926 13921
5587 5533
11804 17425
16292 6221
16225 16858
4386 944
10142 14156
2179 12960
5220 4710
14518 10613
16563 8703
13268 14874
11303 7411
13735 13103
8423 4508
3678 3560
2848 3614
12516 5394
6049 8823
4762 8590
11183 16350
241 10579
4692 4902
7312 14457
4884 1842
6412 4244
12323 6264
19404 12328
3957 7087
13725 5766
15949 15786
16917 12668
16870 17433
14213 17967
8122 542
13410 8546
11892 11894
16058 14895
3865 17423
13932 13799
18474 7092
11203 8201
3986 13873
498 4616
488 10145
364 13334
1892 16220
27 7387
16973 14296
19198 19433
13978 18211
13208 15085
17870 5850
14531 11847
15320 14710
3540 10467
10143 15722
1114 16025
15565 9982
10825 11222
4221 1598
3253 8920
12073 4969
765 18387
19333 9154
17305 2123
7340 4362
18544 18596
16652 13861
15972 1170
18776 11866
19237 2261
7403 6880
8217 2803
8339 251
15827 7131
6359 9037
13581 13540
6702 218
4408 16296
17061 555
17218 3421
12038 11281
8243 16893
5376 8323
5799 2059
8335 1945
5396 16593
8049 2859
2734 6490
16964 313
13210 14600
11107 4109
300 14054
4316 12614
15829 12171
8147 1662
14215 13884
9248 8481
16790 18359
7997 12446
18568 13210
12114 11594
17932 2421
7492 11530
3188 5942
10378 566
13921 161
11796 3615
10150 18442
14620 8261
16117 7692
7738 11548
7555 1667
11773 11110
3924 2909
10090 3727
7226 2285
5732 768
10624 388
14186 3538
17909 12362
17112 9580
17432 1439
12339 6567
14264 16900
17837 12213
943 7258
9801 6520
12977 2175
14692 12310
6351 9231
5629 5532
15278 12189
9807 17270
409 18465
2647 18434
15882 5770
964 1305
16300 17663
10281 2967
6818 9282
237 11834
13509 2183
14659 3301
11000 5972
7651 536
8792 6060
10123 7373
15597 16183
8916 14110
15211 8250
18039 6868
7967 6501
10599 9604
14141 8016
11328 4208
19329 15256
2425 10412
2334 7857
2900 8978
3769 14235
17488 16974
19361 16104
15515 7732
13423 6591
13927 11570
15545 8234
5395 7977
4836 573
2605 4078
17900 5422
838 4540
16384 11773
19009 4542
6281 15086
7902 13272
9238 15219
7887 2289
