1000
0 0 0 0 0 0 0 0 0 0 0 0 0 0 0 0 0 0 0 0 0 0 0 0 0 0 0 0 0 0 0 0 0 0 0 0 0 0 0 0 0 0 0 0 0 0 0 0 0 0 0 0 0 0 0 0 0 0 0 0 0 0 0 0 0 0 0 0 0 0 0 0 0 0 0 0 0 0 0 0 0 0 0 0 0 0 0 0 0 0 0 0 0 0 0 0 0 0 0 0 0 0 0 0 0 0 0 0 0 0 0 0 0 0 0 0 0 0 0 0 0 0 0 0 0 0 0 0 0 0 0 0 0 0 0 0 0 0 0 0 0 0 0 0 0 0 0 0 0 0 0 0 0 0 0 0 0 0 0 0 0 0 0 0 0 0 0 0 0 0 0 0 0 0 0 0 0 0 0 0 0 0 0 0 0 0 0 0 0 0 0 0 0 0 0 0 0 0 0 0 0 0 0 0 0 0 0 0 0 0 0 0 0 0 0 0 0 0 0 0 0 0 0 0 0 0 0 0 0 0 0 0 0 0 0 0 0 0 0 0 0 0 0 0 0 0 0 0 0 0 0 0 0 0 0 0 0 0 0 0 0 0 0 0 0 0 0 0 0 0 0 0 0 0 0 0 0 0 0 0 0 0 0 0 0 0 0 0 0 0 0 0 0 0 0 0 0 0 0 0 0 0 0 0 0 0 0 0 0 0 0 0 0 0 0 0 0 0 0 0 0 0 0 0 0 0 0 0 0 0 0 0 0 0 0 0 0 0 0 0 0 0 0 0 0 0 0 0 0 0 0 0 0 0 0 0 0 0 0 0 0 0 0 0 0 0 0 0 0 0 0 0 0 0 0 0 0 0 0 0 0 0 0 0 0 0 0 0 0 0 0 0 0 0 0 0 0 0 0 0 0 0 0 0 0 0 0 0 0 0 0 0 0 0 0 0 0 0 0 0 0 0 0 0 0 0 0 0 0 0 0 0 0 0 0 0 0 0 0 0 0 0 0 0 0 0 0 0 0 0 0 0 0 0 0 0 0 0 0 0 0 0 0 0 0 0 0 0 0 0 0 0 0 0 0 0 0 0 0 0 0 0 0 0 0 0 0 0 0 0 0 0 0 0 0 0 0 0 0 0 0 0 0 0 0 0 0 0 0 0 0 0 0 0 0 0 0 0 0 0 0 0 0 0 0 0 0 0 0 0 0 0 0 0 0 0 0 0 0 0 0 0 0 0 0 0 0 0 0 0 0 0 0 0 0 0 0 0 0 0 0 0 0 0 0 0 0 0 0 0 0 0 0 0 0 0 0 0 0 0 0 0 0 0 0 0 0 0 0 0 0 0 0 0 0 0 0 0 0 0 0 0 0 0 0 0 0 0 0 0 0 0 0 0 0 0 0 0 0 0 0 0 0 0 0 0 0 0 0 0 0 0 0 0 0 0 0 0 0 0 0 0 0 0 0 0 0 0 0 0 0 0 0 0 0 0 0 0 0 0 0 0 0 0 0 0 0 0 0 0 0 0 0 0 0 0 0 0 0 0 0 0 0 0 0 0 0 0 0 0 0 0 0 0 0 0 0 0 0 0 0 0 0 0 0 0 0 0 0 0 0 0 0 0 0 0 0 0 0 0 0 0 0 0 0 0 0 0 0 0 0 0 0 0 0 0 0 0 0 0 0 0 0 0 0 0 0 0 0 0 0 0 0 0 0 0 0 0 0 0 0 0 0 0 0 0 0 0 0 0 0 0 0 0 0 0 0 0 0 0 0 0 0 0 0 0 0 0 0 0 0 0 0 0 0 0 0 0 0 0 0 0 0 0 0 0 0 0 0 0 0 0 0 0 0 0 0 0 0 0 0 0 0 0 0 0 0 0 0 0 0 0 0 0 0 0 0 0 0 0 0 0 0 0 0 0 0 0 0 0 0 0 0 0 0 0 0 0 0 0 0 0 0 0 0 0 0 0 0 0 0 0 0 0 0 0 0 0 0 0 0 0 0 0 0 0 0 0 0 0 0 0 0 0 0 0 0 0 0 0 0 0 0 0 0 0 0 0 0 0 0 0 0 0 0 0 0 0 0 0 0 0 0 0 0 0 0 0 0 0 0 0 0 0 0 0 0 0 0 0 0 0 0 0 0 0 0 0 0 0 0 0 0 0 0 0 0 0 0 0 0 0 0 0 0 0 0 0 0 0 0 0 0 0 0 0 0 0 0 0 0 0 0 0 0 0 0 0 0 0 0 0 0 0 0 0 0 0 0 0
226 227
859 858
285 284
113 112
703 702
341 340
2 1
572 571
543 542
507 508
777 778
728 727
933 934
453 452
858 857
949 950
107 106
539 540
252 253
128 127
802 801
172 173
879 880
436 437
256 257
478 479
744 743
108 109
242 243
58 59
270 269
327 326
238 237
221 222
123 122
485 484
724 725
706 707
384 385
414 413
491 490
679 678
93 94
943 944
153 154
825 824
456 457
896 895
603 602
675 674
993 994
25 24
10 11
723 722
672 673
663 662
249 248
162 163
143 142
848 847
231 230
773 772
319 318
430 431
403 404
160 161
13 14
928 929
832 831
841 842
705 706
580 581
165 164
991 992
27 28
935 934
811 810
578 579
306 307
449 450
531 530
574 575
191 190
168 167
428 429
240 239
506 507
408 409
175 174
751 750
300 299
293 292
73 72
272 271
280 279
740 741
654 653
595 596
746 747
304 305
693 692
476 475
927 928
633 634
64 65
407 408
245 246
696 695
258 257
512 511
288 287
86 85
612 613
694 693
336 335
830 829
57 58
731 730
365 366
599 598
604 603
525 524
296 295
262 261
970 971
325 324
283 282
698 699
548 547
817 816
155 154
565 564
268 269
249 250
958 959
49 48
531 532
721 720
756 757
298 299
83 82
908 907
682 681
660 661
873 874
51 50
996 997
533 534
419 420
923 922
189 188
164 163
296 297
12 13
677 676
529 530
302 303
326 325
630 631
453 454
161 162
862 863
392 391
448 447
42 43
850 851
289 290
754 755
310 311
669 668
651 650
15 14
753 754
158 157
688 689
276 275
409 410
906 905
913 912
60 61
898 897
44 45
174 173
920 919
481 480
782 783
278 279
579 580
798 797
555 556
196 195
330 331
782 781
381 382
234 235
170 171
357 358
508 509
472 471
9 8
682 683
72 71
575 576
446 445
830 831
976 977
919 918
139 140
238 239
194 193
219 220
125 124
821 822
85 84
69 70
559 558
735 736
332 333
593 592
820 819
312 311
590 591
651 652
53 54
485 486
214 213
553 552
851 852
375 374
898 899
839 838
418 417
502 503
426 425
936 937
765 766
735 734
684 685
26 25
349 350
322 323
469 468
641 642
233 232
636 635
916 915
88 87
263 262
119 118
382 383
658 657
241 240
893 892
379 378
475 474
643 644
973 972
108 107
982 981
549 550
605 606
150 149
483 484
120 121
75 76
649 650
440 439
861 860
863 864
948 949
883 884
752 753
951 950
702 701
185 186
784 785
94 95
182 183
436 435
274 275
136 135
541 542
733 732
10 9
974 975
781 780
312 313
333 334
613 614
601 600
498 497
742 743
321 320
987 988
494 495
583 582
57 56
55 56
386 387
29 30
724 723
308 307
3 4
578 577
321 322
348 347
859 860
888 889
897 896
778 779
643 642
970 969
145 144
931 930
742 741
201 200
22 21
800 801
737 738
318 317
610 611
388 389
117 118
600 599
926 925
737 736
984 985
795 794
255 254
688 687
786 785
181 182
28 29
494 493
397 396
110 111
62 63
800 799
141 142
301 300
620 619
609 608
816 815
448 449
220 221
803 804
854 853
381 380
518 517
248 247
224 225
119 120
883 882
534 535
608 607
18 17
614 615
416 415
343 342
993 992
354 355
126 127
714 713
146 145
354 353
967 968
68 69
474 473
490 489
46 45
227 228
101 102
523 524
797 796
667 666
261 260
815 814
905 904
413 412
893 894
187 188
999 998
373 372
597 596
606 607
117 116
884 885
399 400
762 761
6 5
180 179
690 689
95 96
170 169
417 416
862 861
528 527
664 665
178 177
478 477
429 430
24 23
36 35
79 80
812 811
995 996
877 878
156 155
395 396
151 150
33 34
364 363
739 738
629 630
602 601
491 492
812 813
97 96
715 714
148 149
622 623
43 44
204 205
89 90
406 407
421 422
463 462
547 546
572 573
901 900
53 52
515 516
151 152
528 529
78 77
733 734
914 915
869 870
205 206
390 391
819 818
175 176
504 503
88 89
803 802
522 523
539 538
467 466
770 771
472 473
593 594
817 818
648 647
954 953
92 93
994 995
398 399
533 532
254 253
902 901
794 793
582 581
960 961
768 767
184 185
670 671
548 549
315 316
729 730
201 202
21 20
68 67
762 763
470 471
589 588
433 432
571 570
910 911
310 309
758 759
452 451
856 855
433 434
260 259
128 129
66 65
972 971
338 337
719 720
648 649
887 886
301 302
902 903
577 576
833 832
115 114
956 955
537 538
401 402
479 480
366 367
342 341
367 368
784 783
663 664
504 505
631 632
110 109
546 545
356 357
849 848
47 46
346 347
586 587
383 384
39 38
348 349
697 696
619 618
4 5
156 157
359 360
567 566
638 639
91 90
709 708
394 393
729 728
982 983
656 655
102 103
229 230
31 30
319 320
377 378
806 807
288 289
824 823
18 19
954 955
352 353
16 15
33 32
285 286
656 657
137 136
447 446
444 445
481 482
952 953
12 11
294 293
922 921
678 677
132 133
379 380
592 591
669 670
947 946
464 463
686 685
625 626
574 573
233 234
691 692
912 911
904 903
561 562
881 880
766 767
962 963
244 243
224 223
836 835
961 962
38 37
466 465
744 745
352 351
951 952
111 112
837 838
358 359
973 974
158 159
266 265
588 587
131 132
520 519
372 371
749 748
228 229
700 699
457 458
306 305
917 916
840 841
551 550
829 828
432 431
122 121
259 258
443 442
805 804
361 362
104 105
809 808
956 957
264 265
280 281
426 427
566 565
450 451
747 748
641 640
790 789
331 332
184 183
876 877
755 756
616 615
681 680
339 338
394 395
764 765
389 390
106 105
774 773
50 49
632 633
427 428
907 906
711 710
957 958
791 790
557 556
103 104
710 709
211 212
171 172
628 627
895 894
414 415
458 459
19 20
54 55
964 963
827 828
555 554
715 716
569 568
99 98
91 92
661 662
557 558
373 374
926 927
283 284
618 617
176 177
991 990
560 559
892 891
376 375
134 133
854 855
843 842
875 874
355 356
392 393
317 316
282 281
67 66
776 777
757 758
412 411
455 456
920 921
222 223
697 698
768 769
271 270
71 70
402 403
16 17
146 147
865 866
59 60
965 966
496 497
798 799
441 440
774 775
510 511
965 964
483 482
739 740
834 833
595 594
499 498
847 846
368 369
362 363
612 611
464 465
836 837
256 255
235 236
914 913
791 792
308 309
488 489
636 637
878 879
328 329
889 890
8 7
314 313
141 140
360 361
135 134
225 226
639 640
419 418
552 551
191 192
780 779
899 900
387 388
237 236
42 41
273 274
731 732
978 977
438 437
470 469
345 346
499 500
924 925
100 101
940 939
772 771
704 703
315 314
959 960
411 410
266 267
510 509
867 868
616 617
621 622
64 63
584 583
459 460
251 252
726 727
871 870
405 406
718 717
940 941
679 680
986 987
207 208
214 215
81 80
764 763
212 213
100 99
761 760
585 586
420 421
708 707
197 196
486 487
979 980
203 202
796 795
86 87
215 216
455 454
351 350
918 917
517 516
690 691
487 488
852 853
291 290
544 545
986 985
3 2
62 61
827 826
750 749
39 40
659 658
207 206
988 989
468 467
705 704
41 40
668 667
942 941
638 637
370 369
476 477
540 541
788 787
199 200
124 123
138 139
247 246
966 967
769 770
856 857
328 327
198 199
867 866
98 97
605 604
519 518
793 792
512 513
197 198
891 890
544 543
845 846
250 251
721 722
461 460
192 193
442 441
625 624
78 79
264 263
345 344
267 268
983 984
910 909
980 981
74 73
760 759
868 869
589 590
624 623
882 881
209 210
645 646
461 462
130 131
935 936
805 806
514 515
521 520
675 676
968 969
930 929
336 337
564 563
725 726
443 444
152 153
712 713
439 438
775 776
216 217
597 598
493 492
34 35
932 931
137 138
401 400
660 659
585 584
335 334
371 370
787 786
423 424
180 181
27 26
147 148
845 844
340 339
521 522
695 694
820 821
186 187
536 537
684 683
505 506
865 864
746 745
303 304
298 297
397 398
718 719
979 978
700 701
189 190
294 295
273 272
525 526
627 626
825 826
644 645
514 513
501 502
655 654
324 323
82 81
652 653
850 849
159 160
169 168
946 945
114 113
74 75
789 788
844 843
37 36
629 628
808 807
822 823
22 23
52 51
292 291
526 527
553 554
76 77
178 179
343 344
144 143
211 210
567 568
386 385
241 242
839 840
536 535
871 872
232 231
125 126
944 945
563 562
130 129
287 286
425 424
47 48
712 711
245 244
990 989
404 405
666 665
500 501
423 422
116 115
813 814
330 329
7 6
671 672
610 609
938 937
876 875
31 32
674 673
217 218
194 195
888 887
997 998
834 835
165 166
83 84
635 634
976 975
948 947
434 435
166 167
219 218
752 751
569 570
647 646
203 204
560 561
376 377
209 208
872 873
277 276
932 933
687 686
717 716
496 495
278 277
923 924
999 1000
943 942
620 621
886 885
938 939
809 810
908 909
364 365
