5796
0 1 0 1 0 1 0 1 0 1 0 1 0 1 0 1 0 1 0 1 0 1 0 1 0 1 0 1 0 1 0 1 0 1 0 1 0 1 0 1 0 1 0 1 0 1 0 1 0 1 0 1 0 1 0 1 0 1 0 1 0 1 0 1 0 1 0 1 0 1 0 1 0 1 0 1 0 1 0 1 0 1 0 1 0 1 0 1 0 1 0 1 0 1 0 1 0 1 0 1 0 1 0 1 0 1 0 1 0 1 0 1 0 1 0 1 0 1 0 1 0 1 0 1 0 1 0 1 0 1 0 1 0 1 0 1 0 1 0 1 0 1 0 1 0 1 0 1 0 1 0 1 0 1 0 1 0 1 0 1 0 1 0 1 0 1 0 1 0 1 0 1 0 1 0 1 0 1 0 1 0 1 0 1 0 1 0 1 0 1 0 1 0 1 0 1 0 1 0 1 0 1 0 1 0 1 0 1 0 1 0 1 0 1 0 1 0 1 0 1 0 1 0 1 0 1 0 1 0 1 0 1 0 1 0 1 0 1 0 1 0 1 0 1 0 1 0 1 0 1 0 1 0 1 0 1 0 1 0 1 0 1 0 1 0 1 0 1 0 1 0 1 0 1 0 1 0 1 0 1 0 1 0 1 0 1 0 1 0 1 0 1 0 1 0 1 0 1 0 1 0 1 0 1 0 1 0 1 0 1 0 1 0 1 0 1 0 1 0 1 0 1 0 1 0 1 0 1 0 1 0 1 0 1 0 1 0 1 0 1 0 1 0 1 0 1 0 1 0 1 0 1 0 1 0 1 0 1 0 1 0 1 0 1 0 1 0 1 0 1 0 1 0 1 0 1 0 1 0 1 0 1 0 1 0 1 0 1 0 1 0 1 0 1 0 1 0 1 0 1 0 1 0 1 0 1 0 1 0 1 0 1 0 1 0 1 0 1 0 1 0 1 0 1 0 1 0 1 0 1 0 1 0 1 0 1 0 1 0 1 0 1 0 1 0 1 0 1 0 1 0 1 0 1 0 1 0 1 0 1 0 1 0 1 0 1 0 1 0 1 0 1 0 1 0 1 0 1 0 1 0 1 0 1 0 1 0 1 0 1 0 1 0 1 0 1 0 1 0 1 0 1 0 1 0 1 0 1 0 1 0 1 0 1 0 1 0 1 0 1 0 1 0 1 0 1 0 1 0 1 0 1 0 1 0 1 0 1 0 1 0 1 0 1 0 1 0 1 0 1 0 1 0 1 0 1 0 1 0 1 0 1 0 1 0 1 0 1 0 1 0 1 0 1 0 1 0 1 0 1 0 1 0 1 0 1 0 1 0 1 0 1 0 1 0 1 0 1 0 1 0 1 0 1 0 1 0 1 0 1 0 1 0 1 0 1 0 1 0 1 0 1 0 1 0 1 0 1 0 1 0 1 0 1 0 1 0 1 0 1 0 1 0 1 0 1 0 1 0 1 0 1 0 1 0 1 0 1 0 1 0 1 0 1 0 1 0 1 0 1 0 1 0 1 0 1 0 1 0 1 0 1 0 1 0 1 0 1 0 1 0 1 0 1 0 1 0 1 0 1 0 1 0 1 0 1 0 1 0 1 0 1 0 1 0 1 0 1 0 1 0 1 0 1 0 1 0 1 0 1 0 1 0 1 0 1 0 1 0 1 0 1 0 1 0 1 0 1 0 1 0 1 0 1 0 1 0 1 0 1 0 1 0 1 0 1 0 1 0 1 0 1 0 1 0 1 0 1 0 1 0 1 0 1 0 1 0 1 0 1 0 1 0 1 0 1 0 1 0 1 0 1 0 1 0 1 0 1 0 1 0 1 0 1 0 1 0 1 0 1 0 1 0 1 0 1 0 1 0 1 0 1 0 1 0 1 0 1 0 1 0 1 0 1 0 1 0 1 0 1 0 1 0 1 0 1 0 1 0 1 0 1 0 1 0 1 0 1 0 1 0 1 0 1 0 1 0 1 0 1 0 1 0 1 0 1 0 1 0 1 0 1 0 1 0 1 0 1 0 1 0 1 0 1 0 1 0 1 0 1 0 1 0 1 0 1 0 1 0 1 0 1 0 1 0 1 0 1 0 1 0 1 0 1 0 1 0 1 0 1 0 1 0 1 0 1 0 1 0 1 0 1 0 1 0 1 0 1 0 1 0 1 0 1 0 1 0 1 0 1 0 1 0 1 0 1 0 1 0 1 0 1 0 1 0 1 0 1 0 1 0 1 0 1 0 1 0 1 0 1 0 1 0 1 0 1 0 1 0 1 0 1 0 1 0 1 0 1 0 1 0 1 0 1 0 1 0 1 0 1 0 1 0 1 0 1 0 1 0 1 0 1 0 1 0 1 0 1 0 1 0 1 0 1 0 1 0 1 0 1 0 1 0 1 0 1 0 1 0 1 0 1 0 1 0 1 0 1 0 1 0 1 0 1 0 1 0 1 0 1 0 1 0 1 0 1 0 1 0 1 0 1 0 1 0 1 0 1 0 1 0 1 0 1 0 1 0 1 0 1 0 1 0 1 0 1 0 1 0 1 0 1 0 1 0 1 0 1 0 1 0 1 0 1 0 1 0 1 0 1 0 1 0 1 0 1 0 1 0 1 0 1 0 1 0 1 0 1 0 1 0 1 0 1 0 1 0 1 0 1 0 1 0 1 0 1 0 1 0 1 0 1 0 1 0 1 0 1 0 1 0 1 0 1 0 1 0 1 0 1 0 1 0 1 0 1 0 1 0 1 0 1 0 1 0 1 0 1 0 1 0 1 0 1 0 1 0 1 0 1 0 1 0 1 0 1 0 1 0 1 0 1 0 1 0 1 0 1 0 1 0 1 0 1 0 1 0 1 0 1 0 1 0 1 0 1 0 1 0 1 0 1 0 1 0 1 0 1 0 1 0 1 0 1 0 1 0 1 0 1 0 1 0 1 0 1 0 1 0 1 0 1 0 1 0 1 0 1 0 1 0 1 0 1 0 1 0 1 0 1 0 1 0 1 0 1 0 1 0 1 0 1 0 1 0 1 0 1 0 1 0 1 0 1 0 1 0 1 0 1 0 1 0 1 0 1 0 1 0 1 0 1 0 1 0 1 0 1 0 1 0 1 0 1 0 1 0 1 0 1 0 1 0 1 0 1 0 1 0 1 0 1 0 1 0 1 0 1 0 1 0 1 0 1 0 1 0 1 0 1 0 1 0 1 0 1 0 1 0 1 0 1 0 1 0 1 0 1 0 1 0 1 0 1 0 1 0 1 0 1 0 1 0 1 0 1 0 1 0 1 0 1 0 1 0 1 0 1 0 1 0 1 0 1 0 1 0 1 0 1 0 1 0 1 0 1 0 1 0 1 0 1 0 1 0 1 0 1 0 1 0 1 0 1 0 1 0 1 0 1 0 1 0 1 0 1 0 1 0 1 0 1 0 1 0 1 0 1 0 1 0 1 0 1 0 1 0 1 0 1 0 1 0 1 0 1 0 1 0 1 0 1 0 1 0 1 0 1 0 1 0 1 0 1 0 1 0 1 0 1 0 1 0 1 0 1 0 1 0 1 0 1 0 1 0 1 0 1 0 1 0 1 0 1 0 1 0 1 0 1 0 1 0 1 0 1 0 1 0 1 0 1 0 1 0 1 0 1 0 1 0 1 0 1 0 1 0 1 0 1 0 1 0 1 0 1 0 1 0 1 0 1 0 1 0 1 0 1 0 1 0 1 0 1 0 1 0 1 0 1 0 1 0 1 0 1 0 1 0 1 0 1 0 1 0 1 0 1 0 1 0 1 0 1 0 1 0 1 0 1 0 1 0 1 0 1 0 1 0 1 0 1 0 1 0 1 0 1 0 1 0 1 0 1 0 1 0 1 0 1 0 1 0 1 0 1 0 1 0 1 0 1 0 1 0 1 0 1 0 1 0 1 0 1 0 1 0 1 0 1 0 1 0 1 0 1 0 1 0 1 0 1 0 1 0 1 0 1 0 1 0 1 0 1 0 1 0 1 0 1 0 1 0 1 0 1 0 1 0 1 0 1 0 1 0 1 0 1 0 1 0 1 0 1 0 1 0 1 0 1 0 1 0 1 0 1 0 1 0 1 0 1 0 1 0 1 0 1 0 1 0 1 0 1 0 1 0 1 0 1 0 1 0 1 0 1 0 1 0 1 0 1 0 1 0 1 0 1 0 1 0 1 0 1 0 1 0 1 0 1 0 1 0 1 0 1 0 1 0 1 0 1 0 1 0 1 0 1 0 1 0 1 0 1 0 1 0 1 0 1 0 1 0 1 0 1 0 1 0 1 0 1 0 1 0 1 0 1 0 1 0 1 0 1 0 1 0 1 0 1 0 1 0 1 0 1 0 1 0 1 0 1 0 1 0 1 0 1 0 1 0 1 0 1 0 1 0 1 0 1 0 1 0 1 0 1 0 1 0 1 0 1 0 1 0 1 0 1 0 1 0 1 0 1 0 1 0 1 0 1 0 1 0 1 0 1 0 1 0 1 0 1 0 1 0 1 0 1 0 1 0 1 0 1 0 1 0 1 0 1 0 1 0 1 0 1 0 1 0 1 0 1 0 1 0 1 0 1 0 1 0 1 0 1 0 1 0 1 0 1 0 1 0 1 0 1 0 1 0 1 0 1 0 1 0 1 0 1 0 1 0 1 0 1 0 1 0 1 0 1 0 1 0 1 0 1 0 1 0 1 0 1 0 1 0 1 0 1 0 1 0 1 0 1 0 1 0 1 0 1 0 1 0 1 0 1 0 1 0 1 0 1 0 1 0 1 0 1 0 1 0 1 0 1 0 1 0 1 0 1 0 1 0 1 0 1 0 1 0 1 0 1 0 1 0 1 0 1 0 1 0 1 0 1 0 1 0 1 0 1 0 1 0 1 0 1 0 1 0 1 0 1 0 1 0 1 0 1 0 1 0 1 0 1 0 1 0 1 0 1 0 1 0 1 0 1 0 1 0 1 0 1 0 1 0 1 0 1 0 1 0 1 0 1 0 1 0 1 0 1 0 1 0 1 0 1 0 1 0 1 0 1 0 1 0 1 0 1 0 1 0 1 0 1 0 1 0 1 0 1 0 1 0 1 0 1 0 1 0 1 0 1 0 1 0 1 0 1 0 1 0 1 0 1 0 1 0 1 0 1 0 1 0 1 0 1 0 1 0 1 0 1 0 1 0 1 0 1 0 1 0 1 0 1 0 1 0 1 0 1 0 1 0 1 0 1 0 1 0 1 0 1 0 1 0 1 0 1 0 1 0 1 0 1 0 1 0 1 0 1 0 1 0 1 0 1 0 1 0 1 0 1 0 1 0 1 0 1 0 1 0 1 0 1 0 1 0 1 0 1 0 1 0 1 0 1 0 1 0 1 0 1 0 1 0 1 0 1 0 1 0 1 0 1 0 1 0 1 0 1 0 1 0 1 0 1 0 1 0 1 0 1 0 1 0 1 0 1 0 1 0 1 0 1 0 1 0 1 0 1 0 1 0 1 0 1 0 1 0 1 0 1 0 1 0 1 0 1 0 1 0 1 0 1 0 1 0 1 0 1 0 1 0 1 0 1 0 1 0 1 0 1 0 1 0 1 0 1 0 1 0 1 0 1 0 1 0 1 0 1 0 1 0 1 0 1 0 1 0 1 0 1 0 1 0 1 0 1 0 1 0 1 0 1 0 1 0 1 0 1 0 1 0 1 0 1 0 1 0 1 0 1 0 1 0 1 0 1 0 1 0 1 0 1 0 1 0 1 0 1 0 1 0 1 0 1 0 1 0 1 0 1 0 1 0 1 0 1 0 1 0 1 0 1 0 1 0 1 0 1 0 1 0 1 0 1 0 1 0 1 0 1 0 1 0 1 0 1 0 1 0 1 0 1 0 1 0 1 0 1 0 1 0 1 0 1 0 1 0 1 0 1 0 1 0 1 0 1 0 1 0 1 0 1 0 1 0 1 0 1 0 1 0 1 0 1 0 1 0 1 0 1 0 1 0 1 0 1 0 1 0 1 0 1 0 1 0 1 0 1 0 1 0 1 0 1 0 1 0 1 0 1 0 1 0 1 0 1 0 1 0 1 0 1 0 1 0 1 0 1 0 1 0 1 0 1 0 1 0 1 0 1 0 1 0 1 0 1 0 1 0 1 0 1 0 1 0 1 0 1 0 1 0 1 0 1 0 1 0 1 0 1 0 1 0 1 0 1 0 1 0 1 0 1 0 1 0 1 0 1 0 1 0 1 0 1 0 1 0 1 0 1 0 1 0 1 0 1 0 1 0 1 0 1 0 1 0 1 0 1 0 1 0 1 0 1 0 1 0 1 0 1 0 1 0 1 0 1 0 1 0 1 0 1 0 1 0 1 0 1 0 1 0 1 0 1 0 1 0 1 0 1 0 1 0 1 0 1 0 1 0 1 0 1 0 1 0 1 0 1 0 1 0 1 0 1 0 1 0 1 0 1 0 1 0 1 0 1 0 1 0 1 0 1 0 1 0 1 0 1 0 1 0 1 0 1 0 1 0 1 0 1 0 1 0 1 0 1 0 1 0 1 0 1 0 1 0 1 0 1 0 1 0 1 0 1 0 1 0 1 0 1 0 1 0 1 0 1 0 1 0 1 0 1 0 1 0 1 0 1 0 1 0 1 0 1 0 1 0 1 0 1 0 1 0 1 0 1 0 1 0 1 0 1 0 1 0 1 0 1 0 1 0 1 0 1 0 1 0 1 0 1 0 1 0 1 0 1 0 1 0 1 0 1 0 1 0 1 0 1 0 1 0 1 0 1 0 1 0 1 0 1 0 1 0 1 0 1 0 1 0 1 0 1 0 1 0 1 0 1 0 1 0 1 0 1 0 1 0 1 0 1 0 1 0 1 0 1 0 1 0 1 0 1 0 1 0 1 0 1 0 1 0 1 0 1 0 1 0 1 0 1 0 1 0 1 0 1 0 1 0 1 0 1 0 1 0 1 0 1 0 1 0 1 0 1 0 1 0 1 0 1 0 1 0 1 0 1 0 1 0 1 0 1 0 1 0 1 0 1 0 1 0 1 0 1 0 1 0 1 0 1 0 1 0 1 0 1 0 1 0 1 0 1 0 1 0 1 0 1 0 1 0 1 0 1 0 1 0 1 0 1 0 1 0 1 0 1 0 1 0 1 0 1 0 1 0 1 0 1 0 1 0 1 0 1 0 1 0 1 0 1 0 1 0 1 0 1 0 1 0 1 0 1 0 1 0 1 0 1 0 1 0 1 0 1 0 1 0 1 0 1 0 1 0 1 0 1 0 1 0 1 0 1 0 1 0 1 0 1 0 1 0 1 0 1 0 1 0 1 0 1 0 1 0 1 0 1 0 1 0 1 0 1 0 1 0 1 0 1 0 1 0 1 0 1 0 1 0 1 0 1 0 1 0 1 0 1 0 1 0 1 0 1 0 1 0 1 0 1 0 1 0 1 0 1 0 1 0 1 0 1 0 1 0 1 0 1 0 1 0 1 0 1 0 1 0 1 0 1 0 1 0 1 0 1 0 1 0 1 0 1 0 1 0 1 0 1 0 1 0 1 0 1 0 1 0 1 0 1 0 1 0 1 0 1 0 1 0 1 0 1 0 1 0 1 0 1 0 1 0 1 0 1 0 1 0 1 0 1 0 1 0 1 0 1 0 1 0 1 0 1 0 1 0 1 0 1 0 1 0 1 0 1 0 1 0 1 0 1 0 1 0 1 0 1 0 1 0 1 0 1 0 1 0 1 0 1 0 1 0 1 0 1 0 1 0 1 0 1 0 1 0 1 0 1 0 1 0 1 0 1 0 1 0 1 0 1 0 1 0 1 0 1 0 1 0 1 0 1 0 1 0 1 0 1 0 1 0 1 0 1 0 1 0 1 0 1 0 1 0 1 0 1 0 1 0 1 0 1 0 1 0 1 0 1 0 1 0 1 0 1 0 1 0 1 0 1 0 1 0 1 0 1 0 1 0 1 0 1 0 1 0 1 0 1 0 1 0 1 0 1 0 1 0 1 0 1 0 1 0 1 0 1 0 1 0 1 0 1 0 1 0 1 0 1 0 1 0 1 0 1 0 1 0 1 0 1 0 1 0 1 0 1 0 1 0 1 0 1 0 1 0 1 0 1 0 1 0 1 0 1 0 1 0 1 0 1 0 1 0 1 0 1 0 1 0 1 0 1 0 1 0 1 0 1 0 1 0 1 0 1 0 1 0 1 0 1 0 1 0 1 0 1 0 1 0 1 0 1 0 1 0 1 0 1 0 1 0 1 0 1 0 1 0 1 0 1 0 1 0 1 0 1 0 1 0 1 0 1 0 1 0 1 0 1 0 1 0 1 0 1 0 1 0 1 0 1 0 1 0 1 0 1 0 1 0 1 0 1 0 1 0 1 0 1 0 1 0 1 0 1 0 1 0 1 0 1 0 1 0 1 0 1 0 1 0 1 0 1 0 1 0 1 0 1 0 1 0 1 0 1 0 1 0 1 0 1 0 1 0 1 0 1 0 1 0 1 0 1 0 1 0 1 0 1 0 1 0 1 0 1 0 1 0 1 0 1 0 1 0 1 0 1 0 1 0 1 0 1 0 1 0 1 0 1 0 1 0 1 0 1 0 1 0 1 0 1 0 1 0 1 0 1 0 1 0 1 0 1 0 1 0 1 0 1 0 1 0 1 0 1 0 1 0 1 0 1 0 1 0 1 0 1 0 1 0 1 0 1 0 1 0 1 0 1 0 1 0 1 0 1 0 1 0 1 0 1 0 1 0 1 0 1 0 1 0 1 0 1 0 1 0 1 0 1 0 1 0 1 0 1 0 1 0 1 0 1 0 1 0 1 0 1 0 1 0 1 0 1 0 1 0 1 0 1 0 1 0 1 0 1 0 1 0 1 0 1 0 1 0 1 0 1 0 1 0 1 0 1 0 1 0 1 0 1 0 1 0 1 0 1 0 1 0 1 0 1 0 1 0 1 0 1 0 1 0 1 0 1 0 1 0 1 0 1 0 1 0 1 0 1 0 1 0 1 0 1 0 1 0 1 0 1 0 1 0 1 0 1 0 1 0 1 0 1 0 1 0 1 0 1 0 1 0 1 0 1 0 1 0 1 0 1 0 1 0 1 0 1 0 1 0 1 0 1 0 1 0 1 0 1 0 1 0 1 0 1 0 1 0 1 0 1 0 1 0 1 0 1 0 1 0 1 0 1 0 1 0 1 0 1 0 1 0 1 0 1 0 1 0 1 0 1 0 1 0 1 0 1 0 1 0 1 0 1 0 1 0 1 0 1 0 1 0 1 0 1 0 1 0 1 0 1 0 1 0 1 0 1 0 1 0 1 0 1 0 1 0 1 0 1 0 1 0 1 0 1 0 1 0 1 0 1 0 1 0 1 0 1 0 1 0 1 0 1 0 1 0 1 0 1 0 1 0 1 0 1 0 1 0 1 0 1 0 1 0 1 0 1 0 1 0 1 0 1 0 1 0 1 0 1 0 1 0 1 0 1 0 1 0 1 0 1 0 1 0 1 0 1 0 1 0 1 0 1 0 1 0 1 0 1 0 1 0 1 0 1 0 1 0 1 0 1 0 1 0 1 0 1 0 1 0 1 0 1 0 1 0 1 0 1 0 1 0 1 0 1 0 1 0 1 0 1 0 1 0 1 0 1 0 1 0 1 0 1 0 1 0 1 0 1 0 1 0 1 0 1 0 1 0 1 0 1 0 1 0 1 0 1 0 1 0 1 0 1 0 1 0 1 0 1 0 1 0 1 0 1 0 1 0 1 0 1 0 1 0 1 0 1 0 1 0 1 0 1 0 1 0 1 0 1 0 1 0 1 0 1 0 1 0 1 0 1 0 1 0 1 0 1 0 1 0 1 0 1 0 1 0 1 0 1 0 1 0 1 0 1 0 1 0 1 0 1 0 1 0 1 0 1 0 1 0 1 0 1 0 1 0 1 0 1 0 1 0 1 0 1 0 1 0 1 0 1 0 1 0 1 0 1 0 1 0 1 0 1 0 1 0 1 0 1 0 1 0 1 0 1 0 1 0 1 0 1 0 1 0 1 0 1 0 1 0 1 0 1 0 1 0 1 0 1 0 1 0 1 0 1 0 1 0 1 0 1 0 1 0 1 0 1 0 1 0 1 0 1 0 1 0 1 0 1 0 1 0 1 0 1 0 1 0 1 0 1 0 1 0 1 0 1 0 1 0 1 0 1 0 1 0 1 0 1 0 1 0 1 0 1 0 1 0 1 0 1 0 1 0 1 0 1 0 1 0 1 0 1 0 1 0 1 0 1 0 1 0 1 0 1 0 1 0 1 0 1 0 1 0 1 0 1 0 1 0 1 0 1 0 1 0 1 0 1 0 1 0 1 0 1 0 1 0 1 0 1 0 1 0 1 0 1 0 1 0 1 0 1 0 1 0 1 0 1 0 1 0 1 0 1 0 1 0 1 0 1 0 1 0 1 0 1 0 1 0 1 0 1 0 1 0 1 0 1 0 1 0 1 0 1 0 1 0 1 0 1 0 1 0 1 0 1 0 1 0 1 0 1 0 1 0 1 0 1 0 1 0 1 0 1 0 1 0 1 0 1 0 1 0 1 0 1 0 1 0 1 0 1 0 1 0 1 0 1 0 1 0 1 0 1 0 1 0 1 0 1 0 1 0 1 0 1 0 1 0 1 0 1 0 1 0 1 0 1 0 1 0 1 0 1 0 1 0 1 0 1 0 1 0 1 0 1 0 1 0 1 0 1 0 1 0 1 0 1 0 1 0 1 0 1 0 1 0 1 0 1 0 1 0 1 0 1 0 1 0 1 0 1 0 1 0 1 0 1 0 1 0 1 0 1 0 1 0 1 0 1 0 1 0 1 0 1 0 1 0 1 0 1 0 1 0 1 0 1 0 1 0 1 0 1 0 1 0 1 0 1 0 1 0 1 0 1 0 1 0 1 0 1 0 1 0 1 0 1 0 1 0 1 0 1 0 1 0 1 0 1 0 1 0 1 0 1 0 1 0 1 0 1 0 1 0 1 0 1 0 1 0 1 0 1 0 1 0 1 0 1 0 1 0 1 0 1 0 1 0 1 0 1 0 1 0 1 0 1 0 1 0 1 0 1 0 1 0 1 0 1 0 1 0 1 0 1 0 1 0 1 0 1 0 1 0 1 0 1 0 1 0 1 0 1 0 1 0 1 0 1 0 1 0 1 0 1 0 1 0 1 0 1 0 1 0 1 0 1 0 1 0 1 0 1 0 1 0 1 0 1 0 1 0 1 0 1 0 1 0 1 0 1 0 1 0 1 0 1 0 1 0 1 0 1 0 1 0 1 0 1 0 1 0 1 0 1 0 1 0 1 0 1 0 1 0 1 0 1 0 1 0 1 0 1 0 1 0 1 0 1 0 1 0 1 0 1 0 1 0 1 0 1 0 1 0 1 0 1 0 1 0 1 0 1 0 1 0 1 0 1 0 1 0 1 0 1 0 1 0 1 0 1 0 1 0 1 0 1 0 1 0 1 0 1 0 1 0 1 0 1 0 1 0 1 0 1 0 1 0 1 0 1 0 1 0 1 0 1 0 1 0 1 0 1 0 1 0 1 0 1 0 1 0 1 0 1 0 1 0 1 0 1 0 1 0 1 0 1 0 1 0 1 0 1 0 1 0 1 0 1 0 1 0 1 0 1 0 1 0 1 0 1 0 1 0 1 0 1 0 1 0 1 0 1 0 1 0 1 0 1 0 1 0 1 0 1 0 1 0 1 0 1 0 1 0 1 0 1 0 1 0 1 0 1 0 1 0 1 0 1 0 1 0 1 0 1 0 1 0 1 0 1 0 1 0 1 0 1 0 1 0 1 0 1 0 1 0 1 0 1 0 1 0 1 0 1 0 1 0 1 0 1 0 1 0 1 0 1 0 1 0 1 0 1 0 1 0 1 0 1 0 1 0 1 0 1 0 1 0 1 0 1 0 1 0 1 0 1 0 1 0 1 0 1 0 1 0 1 0 1 0 1 0 1 0 1 0 1 0 1 0 1 0 1 0 1 0 1 0 1 0 1 0 1 0 1 0 1 0 1 0 1 0 1 0 1 0 1 0 1 0 1 0 1 0 1 0 1 0 1 0 1 0 1 0 1 0 1 0 1 0 1 0 1 0 1 0 1 0 1 0 1 0 1 0 1 0 1 0 1 0 1 0 1 0 1 0 1 0 1 0 1 0 1 0 1 0 1 0 1 0 1 0 1 0 1 0 1 0 1 0 1 0 1 0 1 0 1 0 1 0 1 0 1 0 1 0 1 0 1 0 1 0 1 0 1 0 1 0 1 0 1 0 1 0 1 0 1 0 1 0 1 0 1 0 1 0 1 0 1 0 1 0 1 0 1 0 1 0 1 0 1 0 1 0 1 0 1 0 1 0 1 0 1 0 1 0 1 0 1 0 1 0 1 0 1 0 1 0 1 0 1 0 1 0 1 0 1 0 1 0 1 0 1 0 1 0 1 0 1 0 1 0 1 0 1 0 1 0 1 0 1 0 1 0 1 0 1 0 1 0 1 0 1 0 1 0 1 0 1 0 1 0 1 0 1 0 1 0 1 0 1 0 1 0 1 0 1 0 1 0 1 0 1 0 1 0 1 0 1 0 1 0 1 0 1 0 1 0 1 0 1 0 1 0 1 0 1 0 1 0 1 0 1 0 1 0 1 0 1 0 1 0 1 0 1 0 1 0 1 0 1 0 1 0 1 0 1 0 1 0 1 0 1 0 1 0 1 0 1 0 1 0 1 0 1 0 1 0 1 0 1 0 1 0 1 0 1 0 1 0 1 0 1 0 1 0 1 0 1 0 1 0 1 0 1 0 1 0 1 0 1 0 1 0 1 0 1 0 1 0 1 0 1 0 1 0 1 0 1 0 1 0 1 0 1 0 1 0 1 0 1 0 1 0 1 0 1 0 1 0 1 0 1 0 1 0 1 0 1 0 1 0 1 0 1 0 1 0 1 0 1 0 1 0 1 0 1 0 1 0 1
2779 2780
2993 2992
2129 2130
5772 5771
3917 3916
4970 4971
2345 2346
458 457
1259 1260
3464 3463
120 119
4326 4327
1853 1854
5173 5174
5699 5700
627 626
1241 1242
4811 4810
5355 5356
4507 4506
89 88
5640 5639
3831 3830
4613 4614
2253 2252
3528 3529
401 402
3426 3425
3199 3200
4290 4289
5420 5421
2637 2636
50 51
2352 2351
2887 2886
3652 3653
2840 2841
4455 4456
5311 5312
4741 4742
2241 2242
4114 4113
3905 3906
4434 4435
4877 4878
5441 5440
3330 3329
4629 4628
331 330
796 795
5549 5550
2578 2577
5370 5371
266 267
2557 2556
4998 4999
2076 2075
947 946
1752 1753
2616 2617
2028 2027
5793 5794
3673 3674
4905 4904
3130 3129
187 188
1320 1321
5527 5526
2223 2224
4810 4809
5504 5505
2256 2255
617 618
3326 3327
4459 4458
1061 1060
2737 2736
747 746
5033 5034
5618 5617
2003 2004
5380 5379
2401 2400
2359 2360
3745 3744
3145 3144
1369 1368
5062 5063
2208 2207
4725 4724
4408 4407
3013 3014
5698 5697
1195 1196
4303 4302
3541 3540
1393 1394
1991 1992
172 173
1323 1322
4805 4806
30 31
4407 4406
5392 5393
3495 3496
4660 4659
1501 1502
1696 1695
2415 2414
2221 2220
4942 4941
584 585
2034 2033
1436 1435
252 251
5519 5520
130 129
4209 4210
2311 2310
5341 5342
441 442
1031 1030
3554 3555
333 332
5422 5421
5205 5206
4301 4300
2555 2556
4791 4790
3398 3397
5096 5097
4984 4985
3696 3695
831 830
1126 1125
5570 5571
1028 1027
4791 4792
194 193
1904 1905
2084 2083
4458 4457
5325 5324
5372 5371
1894 1893
5621 5622
3152 3151
3707 3706
4656 4655
5768 5769
3415 3414
373 372
3089 3090
485 484
2066 2067
5110 5111
1777 1776
2767 2768
4783 4782
4390 4389
5236 5235
2372 2373
3478 3479
1428 1427
1562 1563
5544 5543
2504 2503
1998 1999
4404 4403
489 488
1980 1979
5408 5407
554 553
4826 4825
2807 2808
1472 1473
5626 5627
4178 4179
819 820
2822 2821
2236 2235
4032 4033
2702 2701
3725 3726
5774 5773
2654 2655
4175 4176
5708 5707
4193 4192
1021 1020
4367 4368
2259 2258
2519 2518
2385 2386
5288 5287
2625 2626
2086 2087
3688 3689
2321 2322
2974 2973
1256 1257
4151 4152
5495 5496
3595 3594
5498 5497
3114 3113
3701 3702
5419 5420
5620 5621
1455 1456
4705 4704
290 289
599 598
5531 5530
2684 2685
2660 2659
4372 4373
1334 1335
3947 3948
4398 4399
3660 3659
774 775
669 670
1552 1553
989 988
257 258
4717 4716
4547 4546
2274 2273
749 750
3321 3320
641 642
4276 4275
3419 3418
1703 1704
5304 5303
5394 5393
1279 1280
637 638
1780 1781
4750 4751
4745 4746
2502 2503
735 736
1470 1469
700 701
69 70
1854 1855
2928 2929
4958 4959
4544 4543
697 696
5213 5212
2520 2521
4883 4882
5740 5741
2370 2369
2526 2527
1465 1464
2758 2759
2814 2815
1902 1901
846 845
4038 4037
1359 1360
83 84
726 725
3428 3427
5453 5452
4270 4269
1385 1386
3879 3878
5645 5644
597 598
4704 4703
4920 4919
4357 4358
1726 1725
4256 4255
1245 1246
5344 5343
2673 2672
5308 5307
4206 4205
5538 5537
1958 1959
3866 3867
4449 4450
3246 3247
5436 5437
5674 5673
2170 2171
2710 2711
18 19
365 364
210 211
366 367
2240 2241
2933 2934
4740 4741
4168 4169
4935 4936
1144 1143
2091 2092
3983 3984
4157 4156
4535 4534
2540 2539
5013 5014
2701 2700
5075 5074
3931 3932
5652 5651
1026 1027
2131 2132
3773 3772
3194 3193
2691 2692
1737 1738
4757 4758
509 508
4653 4654
364 363
681 682
825 824
1370 1371
2874 2873
2678 2677
642 643
1287 1286
3102 3101
1115 1116
2601 2600
3487 3486
2861 2862
2049 2050
1786 1787
1282 1281
1315 1316
3115 3114
3765 3764
5204 5205
3439 3440
176 177
2113 2112
5667 5666
3771 3772
3667 3666
4816 4815
4142 4143
5455 5454
5165 5166
2591 2590
3257 3256
792 793
2928 2927
4483 4484
4727 4728
4297 4298
5303 5302
3368 3369
4856 4855
3723 3724
4380 4381
4662 4661
2571 2570
4749 4748
1217 1218
569 570
3107 3106
4808 4807
5094 5093
3985 3984
2176 2177
1173 1172
1809 1810
1690 1691
4877 4876
4940 4941
4570 4571
2121 2122
5725 5726
1984 1985
3915 3914
996 995
160 161
1862 1863
4680 4681
3186 3185
672 671
3990 3991
1039 1038
1803 1804
4155 4154
2616 2615
3568 3569
3317 3318
5790 5789
3515 3516
1779 1780
3968 3969
3711 3710
2654 2653
1628 1629
4331 4332
4056 4055
103 102
1037 1038
4417 4416
1708 1707
547 546
3240 3241
2382 2383
18 17
3949 3948
1600 1599
5683 5684
662 663
759 758
3178 3177
2302 2303
1157 1158
3366 3365
36 35
3445 3444
184 185
2090 2089
1100 1101
5716 5715
3230 3231
1841 1840
4105 4104
2574 2573
3446 3447
143 142
1791 1790
5426 5427
529 530
2167 2166
5218 5219
1396 1395
2015 2014
752 751
5370 5369
2753 2754
5301 5300
3069 3070
4533 4532
2444 2443
581 582
3157 3156
2881 2882
2439 2438
3852 3853
29 28
938 937
4181 4182
5232 5233
3322 3323
3080 3079
733 734
2379 2378
3333 3332
1577 1576
3285 3284
5780 5779
4448 4449
4594 4595
1230 1231
5489 5490
351 352
4546 4545
4089 4088
2368 2367
5209 5210
5547 5548
5041 5040
1532 1533
802 803
3396 3397
2743 2744
620 619
3384 3385
5259 5258
267 268
1104 1105
5346 5345
4876 4875
2348 2347
3849 3848
5155 5156
1417 1416
1250 1249
3117 3116
3513 3514
3718 3717
3064 3065
3757 3758
5333 5332
4239 4238
4836 4835
636 637
5735 5736
2037 2036
5441 5442
3983 3982
2798 2799
3634 3633
2283 2284
776 775
5017 5016
3048 3047
2291 2292
4831 4832
5745 5744
1288 1287
95 96
2445 2446
215 216
4184 4185
4429 4430
3512 3511
2075 2074
630 629
421 420
711 712
986 985
198 197
4860 4859
3788 3789
3144 3143
2364 2365
4424 4423
2244 2245
1138 1139
518 517
3372 3371
1990 1991
3560 3561
2345 2344
5055 5054
2175 2176
3354 3355
4562 4563
559 558
2666 2667
2606 2605
2095 2094
2389 2390
4206 4207
152 151
4182 4183
2936 2937
1402 1401
5565 5564
3550 3549
829 830
1051 1050
5102 5103
2495 2494
4138 4139
1654 1653
5005 5004
5497 5496
4524 4523
3003 3002
742 741
5665 5666
2687 2688
4198 4199
2313 2312
2958 2959
5723 5724
43 44
3792 3793
1876 1877
483 482
1468 1469
4626 4625
2418 2419
2068 2067
2626 2627
2849 2850
3340 3339
2934 2935
5114 5115
4864 4865
4244 4243
2314 2313
3441 3442
571 572
3124 3123
5052 5053
3105 3104
1117 1116
2738 2739
4093 4094
3469 3470
1194 1193
287 288
984 985
1646 1645
2624 2623
4770 4771
1978 1979
2848 2847
1477 1478
2289 2290
5197 5196
3954 3953
3147 3148
52 51
4851 4850
4855 4854
4743 4744
3476 3477
5687 5688
3945 3944
2263 2262
920 921
4907 4906
4937 4936
4473 4472
4935 4934
408 409
5559 5558
5330 5329
2580 2581
1511 1512
873 874
1362 1363
2642 2641
2271 2272
5568 5567
66 65
280 281
62 61
4013 4012
10 9
2216 2217
3195 3196
5753 5752
1681 1682
105 106
5562 5563
3750 3751
3836 3837
4268 4267
3076 3077
5781 5782
887 886
3120 3121
3367 3368
2391 2390
2537 2538
3453 3452
3030 3029
1619 1620
934 933
2609 2608
1215 1216
1692 1693
3523 3522
3204 3205
1082 1081
4047 4046
1208 1209
4549 4548
5718 5719
4926 4925
880 881
1344 1343
1877 1878
3873 3872
3293 3292
3375 3376
2447 2448
263 264
2998 2997
3957 3958
4888 4889
1575 1576
908 909
4537 4536
2260 2259
4983 4984
5658 5657
3753 3754
1074 1073
1470 1471
3213 3214
4578 4577
3364 3365
1457 1458
1150 1149
4871 4872
2007 2006
4632 4631
2664 2663
4954 4953
4955 4956
4485 4484
437 436
2568 2569
131 130
4886 4887
3189 3190
1888 1889
1376 1377
3543 3544
5260 5259
3373 3374
713 712
3488 3489
2679 2680
2986 2987
3271 3272
3033 3034
1492 1493
5382 5381
4536 4535
2818 2819
3436 3437
3584 3585
2166 2165
2976 2977
2263 2264
3925 3926
1554 1555
1767 1766
2713 2714
848 849
2459 2458
3450 3451
4426 4425
4471 4470
3720 3719
3849 3850
5726 5727
1047 1046
5172 5173
292 293
4919 4918
1625 1626
3387 3388
4765 4766
5178 5179
2650 2649
35 34
5135 5134
4938 4939
2582 2583
4189 4188
662 661
3577 3576
589 588
4555 4554
1816 1815
4905 4906
3929 3928
3686 3687
3296 3295
1077 1078
3915 3916
4131 4130
2525 2524
4302 4301
1446 1445
480 479
1741 1740
2491 2490
4721 4722
345 346
2256 2257
5043 5042
2747 2748
856 855
3959 3958
1034 1035
3304 3305
5391 5392
5107 5106
4454 4455
2896 2895
249 248
1932 1931
1581 1580
3995 3996
1928 1927
2318 2317
2130 2131
1346 1345
1688 1689
1236 1235
2228 2229
2554 2555
1240 1241
3094 3095
5081 5080
2546 2545
618 619
850 851
2137 2136
1784 1783
5313 5312
1136 1135
4915 4916
1939 1938
3116 3115
1898 1899
3493 3492
5225 5226
5126 5127
314 315
4585 4586
3355 3356
3110 3111
3488 3487
4473 4474
27 28
4284 4283
3197 3196
1711 1710
4839 4840
4808 4809
2462 2463
5785 5784
4264 4265
1970 1971
4901 4900
1351 1350
5685 5686
59 60
5783 5782
2989 2990
1369 1370
5777 5776
778 779
1896 1897
4768 4767
4316 4317
3729 3728
247 246
3536 3535
1416 1415
1141 1140
1558 1559
3518 3517
5159 5160
895 896
5227 5226
628 629
2984 2983
4558 4559
3904 3905
1508 1509
4765 4764
5308 5309
5386 5385
5114 5113
687 688
5017 5018
3306 3305
2582 2581
4288 4289
5229 5228
1005 1006
2697 2696
1465 1466
5491 5492
573 572
4013 4014
2621 2622
1775 1776
5439 5438
1701 1700
2808 2809
304 305
4141 4140
4041 4040
3068 3069
5586 5585
4616 4617
1566 1567
2707 2708
505 506
3875 3876
1981 1982
2959 2960
113 112
5089 5088
1820 1819
1895 1894
2039 2040
1617 1616
3025 3026
4531 4532
2118 2117
1891 1890
4670 4671
1924 1925
4763 4764
2893 2894
4024 4025
3858 3857
2101 2102
1644 1643
4165 4166
4692 4691
1196 1197
4143 4144
3618 3619
2380 2379
3703 3702
730 729
5506 5505
3882 3881
4845 4846
1000 1001
2114 2113
1792 1791
1655 1654
4575 4576
1691 1692
1673 1674
2884 2885
1312 1311
1917 1918
5401 5400
1018 1017
5685 5684
4097 4098
911 910
4721 4720
1137 1138
4092 4093
4732 4731
3538 3537
3971 3972
5612 5611
2141 2140
3482 3481
2289 2288
3564 3563
2705 2704
4186 4187
3449 3448
3720 3721
1874 1875
772 771
3668 3669
3817 3818
428 427
5591 5590
4023 4022
4288 4287
3050 3051
4946 4945
408 407
1714 1715
106 107
3780 3781
821 820
5728 5729
4500 4499
5354 5353
1405 1406
2689 2688
492 493
5019 5018
1229 1230
2054 2053
1003 1004
4793 4794
1972 1971
52 53
2709 2708
4355 4356
550 549
4381 4382
3869 3870
3404 3405
490 491
2260 2261
209 210
3388 3389
780 779
3262 3261
4476 4475
5766 5765
3351 3352
2635 2634
1394 1395
3100 3101
5784 5783
4054 4055
4015 4016
5616 5617
888 887
4674 4675
2340 2341
526 527
4732 4733
1997 1996
4799 4798
2440 2441
1585 1586
2488 2489
5415 5416
1314 1315
1134 1133
2876 2877
5418 5419
4995 4994
2157 2156
2970 2971
132 131
793 794
4567 4568
4599 4598
3432 3431
4596 4595
1658 1659
2706 2707
3076 3075
3421 3422
4518 4517
4662 4663
833 832
1000 999
3532 3533
3545 3544
3219 3220
4629 4630
3965 3966
4796 4797
3699 3700
4733 4734
4268 4269
442 443
4510 4511
1424 1425
4870 4869
4191 4190
4463 4462
510 511
1174 1175
171 170
5479 5480
318 319
4961 4960
2622 2623
2160 2161
4666 4667
2481 2482
5292 5293
2312 2311
2160 2159
4842 4843
2155 2154
3631 3632
5085 5086
4963 4962
4028 4027
5281 5282
3744 3743
5619 5618
5667 5668
5654 5655
5264 5265
2254 2255
5493 5494
2035 2036
990 991
3798 3799
1441 1442
5576 5577
3012 3011
4021 4020
3330 3331
652 653
4213 4212
3838 3839
4475 4474
4636 4637
3552 3553
1436 1437
4155 4156
2585 2584
4433 4434
3662 3663
1248 1249
5122 5123
3012 3013
3847 3848
5094 5095
453 454
5360 5361
3994 3995
529 528
3991 3992
1244 1245
5334 5335
5149 5150
3199 3198
321 322
3680 3679
5029 5028
578 579
4667 4668
4133 4134
1347 1348
2793 2792
129 128
1447 1448
1697 1698
333 334
3960 3959
2566 2567
2869 2870
5624 5623
5061 5062
3484 3485
4290 4291
4797 4798
1008 1007
4909 4908
3610 3611
5239 5240
4405 4406
503 504
2840 2839
325 324
2303 2304
881 882
3000 3001
2975 2974
1386 1387
4820 4819
1360 1361
3785 3786
1686 1687
3062 3063
5398 5397
3033 3032
289 288
621 622
2227 2226
1540 1541
2508 2507
1818 1817
3138 3137
4230 4229
1747 1746
430 431
4966 4965
5156 5157
1528 1529
2218 2219
4220 4221
1598 1599
2552 2551
1497 1496
3386 3387
1225 1226
3893 3894
4847 4848
5513 5512
3567 3566
5627 5628
2111 2112
3160 3161
4485 4486
3697 3698
3628 3627
2012 2013
2970 2969
1805 1806
3122 3123
5208 5207
4109 4108
499 500
3615 3614
827 826
355 356
2470 2471
5261 5262
677 676
3787 3788
4135 4134
1152 1151
5584 5585
5518 5519
4598 4597
892 891
1685 1686
2425 2424
3827 3826
5500 5501
5081 5082
4069 4070
4139 4140
4100 4099
3632 3633
3357 3358
859 860
5652 5653
2185 2186
5310 5311
4518 4519
3081 3080
5077 5076
5090 5091
1208 1207
1596 1595
5545 5544
4702 4703
2795 2794
3877 3878
2715 2714
847 846
3163 3162
599 600
4052 4051
4648 4647
3880 3881
4926 4927
4861 4862
2506 2505
1855 1856
1354 1353
2803 2804
4512 4511
1759 1758
4709 4708
4204 4205
4271 4272
310 311
265 266
1362 1361
3909 3910
5589 5588
239 238
4327 4328
219 220
217 218
4187 4188
987 988
3273 3272
4433 4432
2667 2668
2402 2401
5597 5598
47 48
5131 5130
2904 2905
4982 4983
1619 1618
4022 4021
4382 4383
183 182
406 405
2145 2146
3512 3513
3820 3821
2023 2022
3618 3617
1462 1463
1039 1040
974 973
3252 3253
361 362
3586 3585
4694 4695
3542 3543
4782 4781
4293 4292
3640 3639
5440 5439
2561 2562
1459 1460
5448 5449
5050 5051
1068 1069
3483 3484
4481 4482
1655 1656
4697 4698
1742 1743
4472 4471
355 354
5011 5010
3561 3562
836 835
4033 4034
150 149
4177 4176
74 75
206 207
2086 2085
1994 1993
5472 5473
1881 1880
3500 3501
140 141
2089 2088
2006 2005
571 570
432 431
109 110
2575 2574
983 982
4258 4257
260 259
2886 2885
87 88
5676 5675
2997 2996
1858 1857
3314 3315
1368 1367
1055 1054
970 969
2057 2056
4769 4770
877 876
4563 4564
4045 4046
852 851
3222 3221
1716 1715
415 416
3770 3771
4274 4273
3831 3832
2905 2906
5280 5281
4952 4953
4321 4320
907 908
4111 4112
506 507
5761 5760
890 891
3423 3424
1967 1966
78 79
5353 5352
1275 1276
3311 3310
2820 2821
49 50
3337 3338
5475 5476
2174 2173
2295 2296
2991 2992
4898 4899
673 674
5630 5631
5273 5274
3237 3236
2096 2097
309 308
1461 1460
1933 1932
5223 5222
3611 3612
2323 2322
4938 4937
4405 4404
2716 2717
1197 1198
2120 2119
4753 4752
3592 3591
5144 5145
568 569
4581 4580
3 2
4063 4064
5376 5375
5357 5358
842 841
5487 5486
588 587
2812 2813
2777 2778
855 854
3746 3747
2800 2801
861 862
794 795
341 340
1539 1538
4011 4012
4884 4885
3596 3597
3232 3231
5093 5092
1810 1811
4583 4582
1299 1298
4234 4235
4441 4442
4204 4203
1451 1450
3924 3925
2541 2542
5270 5271
1727 1728
2474 2475
5649 5648
3703 3704
3282 3281
4400 4401
4361 4362
1579 1578
3548 3549
5406 5405
3014 3015
3229 3228
1718 1717
3646 3645
1095 1094
2851 2850
379 378
1471 1472
3359 3360
3406 3405
1209 1210
1588 1589
1593 1594
4872 4873
5103 5104
2674 2675
2651 2650
4655 4654
191 190
2450 2449
5361 5362
716 717
255 254
2450 2451
2306 2305
2801 2802
2822 2823
2320 2319
857 856
3088 3089
4726 4727
1291 1292
1050 1049
3894 3895
40 39
5660 5661
1227 1226
4376 4375
4315 4314
5152 5153
1066 1067
2065 2066
5319 5318
494 495
4493 4494
2337 2338
4750 4749
4262 4263
168 167
3977 3976
4163 4162
4312 4311
2661 2662
2729 2728
2173 2172
590 589
2522 2521
3662 3661
2765 2764
1189 1188
5606 5607
5484 5485
834 833
3509 3510
5600 5599
3260 3261
1716 1717
659 660
4619 4618
5164 5163
5355 5354
1073 1072
2294 2293
3191 3190
5003 5004
2081 2082
3334 3335
2249 2250
1379 1380
3502 3503
4424 4425
1986 1985
605 606
5527 5528
4411 4410
4006 4005
4882 4881
2143 2142
1377 1378
2151 2152
5102 5101
608 607
1308 1309
4431 4432
3083 3082
3066 3067
4157 4158
858 859
4713 4714
4530 4531
4244 4245
3420 3421
4345 4344
4862 4863
638 639
5733 5734
1578 1577
5778 5779
2965 2966
3734 3735
2115 2114
3164 3165
733 732
3635 3634
5431 5432
2953 2952
932 933
5213 5214
2358 2357
3761 3762
2091 2090
2002 2001
5615 5616
2191 2190
3795 3794
3393 3394
610 609
458 459
4823 4822
2816 2817
464 463
114 113
2349 2350
4908 4907
2395 2394
2320 2321
684 685
5713 5712
3690 3689
3775 3774
4671 4672
1340 1339
4170 4171
2999 3000
203 202
1372 1373
5719 5720
446 447
4348 4347
1418 1419
681 680
2803 2802
3787 3786
770 771
994 995
1614 1615
2493 2492
1503 1502
4880 4881
4099 4098
2300 2301
2018 2019
2059 2060
4226 4225
4411 4412
4959 4960
3174 3175
4024 4023
4019 4020
5177 5176
1097 1096
1748 1747
2721 2722
4116 4115
698 699
2519 2520
670 671
2528 2527
867 868
716 715
3184 3183
2515 2514
4017 4018
422 423
1652 1651
5289 5290
4153 4152
4070 4071
3178 3179
4421 4422
5465 5464
1954 1955
5121 5122
242 243
3015 3016
773 772
3712 3711
144 145
1529 1530
695 696
3463 3462
1705 1704
1136 1137
4247 4246
682 683
4979 4978
4223 4222
3480 3481
3936 3937
3105 3106
1204 1205
5612 5613
4318 4319
3103 3104
3107 3108
2552 2553
236 237
2533 2534
90 91
5502 5501
5248 5249
4720 4719
1921 1922
2355 2354
1520 1519
54 55
807 808
5162 5161
3692 3693
3658 3657
5476 5477
4554 4553
3526 3527
5085 5084
4436 4435
3298 3297
5725 5724
4785 4784
5316 5317
3912 3913
2096 2095
5574 5573
1919 1920
5377 5376
4760 4759
2770 2769
1214 1215
58 59
5132 5131
1181 1180
3246 3245
567 568
2010 2011
528 527
3844 3845
2651 2652
2442 2443
5592 5591
4584 4585
466 467
3350 3349
1865 1866
2215 2216
2315 2316
3610 3609
2462 2461
1140 1139
439 438
1281 1280
1668 1669
3511 3510
3122 3121
1052 1051
2072 2073
3741 3740
4708 4707
3865 3864
1180 1179
3242 3241
4042 4041
4957 4958
4593 4592
3345 3344
1883 1884
3385 3386
556 557
137 136
4849 4848
3579 3578
5534 5535
1763 1764
5745 5746
631 630
3044 3043
1031 1032
1908 1907
5105 5106
3683 3684
4730 4729
2425 2426
3713 3712
827 828
4062 4063
5622 5623
80 81
4942 4943
4599 4600
2061 2062
5673 5672
4153 4154
5687 5686
5164 5165
1273 1272
3748 3749
4416 4415
3777 3778
2017 2016
4318 4317
1520 1521
4240 4241
1808 1807
4171 4172
2994 2993
4835 4834
384 383
5255 5254
1607 1606
5272 5273
1172 1171
2740 2739
3716 3717
3759 3760
1314 1313
4210 4211
2370 2371
85 86
2021 2022
4785 4786
1324 1323
379 380
5022 5023
2741 2742
381 382
611 612
678 679
476 477
174 173
2329 2330
5767 5768
396 395
2129 2128
644 643
806 807
2863 2862
1646 1647
2911 2910
1359 1358
3469 3468
3414 3413
3580 3579
5412 5411
3389 3390
818 819
2796 2795
5482 5483
2270 2271
2732 2733
613 614
2914 2913
1335 1336
3148 3149
5339 5340
870 871
3791 3790
604 605
1762 1761
1681 1680
4094 4095
1062 1063
470 471
3206 3205
3260 3259
1746 1745
551 550
1870 1871
2545 2544
548 547
3732 3733
2785 2784
4991 4992
1497 1498
1289 1288
4337 4338
2179 2178
1782 1783
818 817
4011 4010
204 203
5079 5080
2775 2774
2809 2810
4335 4336
1251 1252
1346 1347
4332 4333
4373 4374
1167 1168
309 310
1969 1968
4147 4146
419 418
272 271
1231 1232
1679 1680
4971 4972
2679 2678
2285 2284
5763 5764
543 544
2927 2926
3321 3322
2833 2834
4747 4746
2640 2639
926 925
5383 5382
5299 5300
676 675
4161 4162
4893 4892
5567 5566
1052 1053
5775 5774
1244 1243
5105 5104
4913 4912
3947 3946
4528 4527
3307 3306
4078 4079
5151 5150
3456 3455
2133 2134
3874 3875
2348 2349
5045 5044
2603 2604
1993 1992
4251 4250
3967 3966
1305 1306
5095 5096
139 138
617 616
313 312
3929 3930
3192 3191
5229 5230
2432 2431
1146 1147
4447 4446
94 95
5337 5338
4040 4039
3453 3454
923 922
30 29
5701 5702
2601 2602
4724 4723
1219 1218
285 286
5126 5125
693 692
5775 5776
2105 2106
3168 3169
4107 4108
2589 2590
5481 5480
5403 5404
20 21
936 937
1829 1830
5522 5521
166 165
1148 1147
208 209
4102 4101
3575 3576
1023 1024
5601 5600
1885 1884
5481 5482
3020 3021
4893 4894
3017 3018
338 339
4270 4271
5170 5171
2791 2790
959 960
87 86
4057 4058
3636 3637
925 924
2709 2710
4832 4833
4399 4400
1228 1229
317 316
3572 3573
5413 5414
3008 3009
806 805
5068 5067
539 540
5457 5456
3340 3341
1343 1342
4924 4923
5194 5193
2482 2483
3752 3751
3796 3797
5387 5386
634 633
3380 3381
5587 5588
4276 4277
4812 4813
2279 2278
4661 4660
1537 1536
2429 2428
2026 2027
4870 4871
3567 3568
863 864
3222 3223
1519 1518
2335 2336
1819 1818
4071 4072
4393 4392
235 236
2296 2297
1959 1960
374 373
2126 2127
4910 4909
2611 2610
3499 3498
5418 5417
1399 1400
1821 1822
1658 1657
377 378
1400 1401
1826 1825
2828 2829
4122 4123
5133 5134
1875 1876
553 552
5002 5001
3850 3851
5442 5443
2882 2883
4639 4638
2810 2811
3130 3131
3659 3658
2001 2000
4497 4496
863 862
5669 5670
3046 3047
21 22
4685 4686
2558 2557
3818 3819
707 706
3953 3952
2939 2940
357 358
3675 3674
1458 1459
5503 5504
3319 3320
2283 2282
2805 2806
4459 4460
607 606
3899 3900
1018 1019
2772 2771
181 182
2776 2777
3125 3126
4879 4880
372 371
5244 5243
4313 4312
2610 2609
4217 4218
186 187
2755 2756
3429 3428
3434 3435
3159 3160
5596 5597
935 934
426 427
3537 3536
1263 1264
1080 1081
5231 5232
1835 1834
1131 1132
1262 1263
14 15
5056 5055
1572 1571
4413 4414
4885 4886
867 866
1491 1492
3046 3045
2237 2236
4393 4394
1112 1111
3258 3259
748 747
1118 1119
1293 1294
5204 5203
363 362
3986 3985
2990 2991
4491 4490
2047 2048
4418 4417
188 189
1774 1773
3653 3654
118 117
208 207
2233 2234
2693 2692
17 16
246 245
2786 2785
535 534
335 334
4630 4631
3299 3298
48 49
3514 3515
4738 4737
3147 3146
991 992
957 956
389 390
455 454
596 595
2405 2406
284 285
1414 1413
1983 1984
3926 3927
4323 4324
3082 3081
5005 5006
1785 1786
5073 5072
2055 2054
4085 4086
1559 1560
1824 1825
161 162
77 76
2469 2470
4643 4642
4034 4035
5199 5198
3664 3665
4677 4676
1204 1203
3805 3804
4657 4658
3997 3996
675 674
176 175
2213 2212
1064 1065
4556 4557
1756 1757
3154 3153
533 532
5220 5221
2749 2750
2282 2281
4512 4513
3648 3649
278 279
5589 5590
5679 5678
4104 4103
2138 2139
5661 5662
418 417
1963 1962
109 108
4364 4363
5368 5367
3631 3630
5696 5695
5320 5321
5785 5786
4123 4124
5749 5748
3754 3755
3912 3911
1341 1342
2195 2194
2439 2440
3902 3901
4739 4738
101 100
2192 2193
2033 2032
948 949
1134 1135
2200 2201
375 374
1130 1129
2560 2559
1724 1723
476 475
555 556
3843 3844
3288 3287
3464 3465
3466 3465
1224 1225
5328 5329
5133 5132
4141 4142
5706 5707
2988 2989
4180 4181
3502 3501
4786 4787
3064 3063
3367 3366
1412 1411
2957 2956
3186 3187
5263 5264
4461 4462
1574 1575
729 728
4049 4048
4073 4074
1903 1902
1110 1109
2457 2458
2262 2261
5038 5037
275 276
5247 5246
5147 5146
1732 1731
3207 3208
5430 5429
2473 2472
1322 1321
2334 2335
5451 5450
1274 1273
732 731
5424 5425
3546 3547
537 536
2532 2533
3951 3952
2596 2595
2781 2782
2497 2498
2468 2469
665 664
4579 4578
1364 1363
1957 1956
1683 1682
4566 4567
1755 1754
2094 2093
4757 4756
4665 4666
2267 2268
1527 1526
347 348
5556 5557
927 928
2423 2424
4427 4426
4467 4466
2023 2024
425 426
5672 5671
722 721
1592 1593
1838 1839
2070 2069
785 786
2422 2421
1302 1303
313 314
2493 2494
4278 4279
894 895
5101 5100
3919 3918
3467 3468
955 954
2199 2198
2399 2398
1055 1056
3438 3437
4045 4044
178 177
4505 4506
296 297
4961 4962
3884 3883
549 548
4701 4700
5781 5780
3203 3202
3565 3564
104 103
2318 2319
954 953
4002 4001
5757 5756
3271 3270
989 990
5124 5123
1638 1639
910 909
3218 3217
168 169
1760 1761
5508 5509
4781 4780
2136 2135
5024 5023
3342 3341
1053 1054
4688 4689
444 445
1390 1389
4646 4647
3085 3084
3377 3376
4678 4679
2902 2901
2837 2838
748 749
5711 5712
916 917
2957 2958
342 341
2222 2223
2633 2634
5561 5562
3316 3315
220 221
1285 1286
3077 3078
4038 4039
1365 1364
4761 4762
4892 4891
4488 4487
1262 1261
4200 4201
3242 3243
2629 2630
5693 5692
3644 3643
2789 2788
3318 3319
3956 3957
3504 3503
1977 1976
950 949
4861 4860
1744 1743
3393 3392
5793 5792
3841 3842
1944 1945
1637 1638
5048 5047
4163 4164
223 222
387 388
231 232
5574 5575
576 575
4370 4371
2396 2395
5399 5398
3143 3142
1442 1443
2901 2900
3478 3477
5636 5635
5524 5525
4075 4074
4352 4351
2998 2999
1635 1636
4674 4673
1842 1843
2797 2796
2631 2630
2508 2509
2792 2791
4675 4676
2347 2346
2669 2670
4541 4540
493 494
5650 5651
5139 5138
1585 1584
2144 2143
2983 2982
3290 3291
5143 5142
2564 2565
3128 3129
1246 1247
3553 3554
5198 5197
1358 1357
1083 1084
964 963
2246 2245
2938 2937
4084 4083
4569 4570
1765 1764
1633 1634
971 970
4956 4957
603 602
5722 5721
3933 3934
5665 5664
424 425
4168 4167
3131 3132
978 977
2128 2127
667 666
512 513
5680 5679
4917 4918
2771 2770
3037 3036
3654 3655
5678 5677
436 435
850 849
2888 2887
5183 5182
3136 3137
1258 1259
5788 5787
5463 5462
5631 5632
3758 3759
69 68
241 240
3795 3796
2871 2870
1344 1345
5648 5647
4008 4009
3030 3031
2240 2239
1475 1476
2365 2366
2220 2219
1645 1644
4854 4853
3785 3784
971 972
3540 3539
42 41
1422 1421
5579 5578
5543 5542
253 254
2316 2317
2628 2627
5643 5644
3887 3888
4137 4138
5142 5141
2243 2244
3620 3621
3749 3750
5070 5071
4557 4558
2098 2099
3056 3055
3038 3037
4126 4127
1391 1390
3664 3663
3823 3822
3359 3358
2472 2471
2433 2432
2358 2359
4616 4615
2496 2497
3691 3692
5280 5279
227 226
1994 1995
3219 3218
3743 3742
1334 1333
3922 3923
727 728
3029 3028
3328 3327
3555 3556
3661 3660
1629 1630
5073 5074
1738 1739
809 808
2454 2455
1663 1662
3266 3267
1383 1384
3372 3373
2542 2543
2940 2941
4010 4009
5487 5488
4110 4109
2962 2963
2783 2784
3706 3705
3152 3153
1041 1042
4322 4323
2324 2325
389 388
5063 5064
3667 3668
156 155
3494 3495
5084 5083
2511 2512
386 387
1103 1104
5583 5584
2911 2912
3016 3017
5077 5078
1510 1511
3907 3906
3059 3058
840 839
3430 3429
783 782
3860 3859
4330 4331
4438 4437
3287 3286
2746 2747
1477 1476
4081 4082
3505 3506
3 4
3157 3158
2374 2373
927 926
5331 5332
5525 5526
5739 5738
4477 4476
1873 1874
3378 3377
3009 3010
4089 4090
1952 1951
1430 1429
5283 5284
5737 5736
62 63
4774 4773
3457 3456
1434 1435
2697 2698
5414 5415
4110 4111
2504 2505
5716 5717
4828 4827
4890 4891
4296 4297
3055 3054
2893 2892
2599 2598
5007 5006
4691 4690
1120 1119
4640 4639
4346 4345
4899 4900
2207 2206
217 216
1649 1650
3606 3605
1404 1403
229 230
399 400
3838 3837
1316 1317
4261 4262
5296 5295
2904 2903
3769 3768
3096 3097
2867 2866
12 13
2762 2763
3480 3479
5681 5682
1482 1481
573 574
1973 1974
4333 4334
4466 4465
1651 1650
2648 2647
326 325
4367 4366
3569 3570
5430 5431
2605 2604
755 754
4341 4340
520 519
3645 3644
58 57
4731 4730
5670 5671
4514 4513
2807 2806
5625 5624
3910 3911
5699 5698
3011 3010
2234 2235
2468 2467
446 445
224 223
4260 4259
4027 4026
3326 3325
2402 2403
656 657
4588 4589
1694 1695
1484 1485
4889 4890
2547 2548
1222 1223
5468 5467
1461 1462
4248 4249
5448 5447
4779 4778
836 837
5470 5469
46 45
213 212
4247 4248
2188 2189
411 412
1678 1679
4443 4444
3229 3230
741 740
5244 5245
812 811
4501 4500
4229 4228
2072 2071
1489 1488
2567 2568
2393 2392
3935 3934
417 416
3161 3162
4991 4990
2875 2874
5322 5321
2363 2362
2549 2548
3683 3682
3127 3126
4896 4897
586 587
249 250
2778 2779
1772 1771
1415 1414
2619 2620
5196 5195
5235 5234
2479 2480
4358 4359
3212 3211
5116 5115
3383 3382
3454 3455
3073 3072
948 947
3681 3680
2140 2139
904 905
5499 5500
5396 5395
5532 5533
1434 1433
1879 1880
1392 1393
4992 4993
1988 1989
3492 3491
199 198
5143 5144
67 66
1036 1037
5464 5463
83 82
1103 1102
1797 1798
5294 5293
1389 1388
5606 5605
5153 5154
4463 4464
4866 4865
2150 2151
1192 1191
4439 4438
3156 3155
651 652
1583 1582
2789 2790
1760 1759
1641 1642
1328 1327
5171 5172
541 542
1152 1153
5642 5643
3728 3727
3181 3182
1849 1850
744 745
1412 1413
5238 5239
4197 4198
2420 2421
1307 1306
2018 2017
91 92
1093 1094
1066 1065
5053 5054
4409 4410
2376 2377
3314 3313
591 590
3992 3993
932 931
1154 1155
2756 2757
3531 3530
1024 1025
894 893
1785 1784
4824 4823
5509 5510
5248 5247
20 19
1248 1247
869 868
840 841
2211 2212
5217 5218
3833 3834
508 507
5243 5242
3768 3767
3519 3520
1087 1086
4336 4337
2455 2456
3307 3308
2612 2613
2961 2960
869 870
5434 5433
1084 1085
295 296
5358 5359
1029 1028
1677 1678
85 84
3007 3006
4225 4224
2184 2183
3753 3752
4624 4623
2639 2638
4783 4784
2562 2563
1701 1702
1622 1621
683 684
2670 2671
2442 2441
4852 4853
1926 1927
2148 2149
358 359
26 27
5474 5473
4665 4664
4457 4456
2857 2858
3476 3475
5367 5366
4751 4752
2816 2815
2266 2267
2742 2743
300 301
966 965
1954 1953
3410 3411
4211 4212
3729 3730
1631 1630
5277 5276
3092 3093
5070 5069
5319 5320
5270 5269
4303 4304
980 981
2077 2078
777 778
4821 4822
4464 4465
709 710
3048 3049
2852 2851
5602 5601
1495 1496
4019 4018
1607 1608
702 701
4239 4240
1438 1437
159 160
5021 5022
1101 1102
839 838
2118 2119
3944 3943
1955 1956
1922 1923
3179 3180
566 565
5750 5749
1983 1982
3339 3338
4090 4091
1487 1486
1113 1112
3459 3460
1923 1924
369 368
4638 4637
2804 2805
595 594
1428 1429
5690 5691
3800 3801
1256 1255
901 900
2020 2021
3670 3669
2981 2980
4191 4192
3938 3939
2597 2596
2869 2868
3652 3651
4858 4857
940 939
3518 3519
4016 4017
1950 1951
2452 2453
2314 2315
2598 2597
3136 3135
3864 3863
5557 5558
889 888
3056 3057
879 880
3897 3898
4504 4503
4743 4742
3134 3135
4397 4396
4124 4125
2308 2309
492 491
968 967
5660 5659
939 938
5158 5159
4867 4866
1356 1357
1830 1831
4202 4201
1964 1963
4352 4353
3050 3049
1504 1505
4715 4716
4998 4997
4489 4488
195 194
5015 5014
1610 1609
3981 3980
4137 4136
5752 5751
255 256
532 531
5340 5341
3023 3024
2403 2404
1987 1986
1659 1660
2830 2829
4933 4934
1778 1777
2447 2446
4375 4374
5087 5088
1556 1555
2619 2618
3941 3940
885 886
5181 5180
1615 1616
4085 4084
1966 1965
2276 2275
2393 2394
961 960
1912 1911
3132 3133
2731 2730
2180 2179
4943 4944
3672 3673
626 625
3840 3841
279 280
1237 1238
1795 1794
928 929
1156 1157
2517 2516
5569 5570
2761 2760
1439 1438
4883 4884
5721 5720
64 63
435 434
4080 4079
380 381
5079 5078
3347 3346
1339 1338
483 484
3140 3139
1712 1713
4680 4679
1092 1091
5520 5521
3793 3794
1719 1720
2159 2158
1953 1952
3085 3086
4921 4920
1793 1792
5668 5669
3559 3558
3140 3141
3167 3166
3524 3525
3651 3650
2024 2025
3353 3354
5428 5429
1001 1002
3930 3931
5322 5323
5575 5576
4158 4159
581 580
2327 2328
4837 4836
3158 3159
4857 4856
981 982
2154 2153
342 343
395 394
1657 1656
1517 1516
5349 5348
739 740
574 575
1088 1089
3939 3940
2189 2190
162 163
2161 2162
3616 3615
4904 4903
5470 5471
5751 5750
4441 4440
4969 4968
983 984
5637 5638
726 727
4576 4577
2273 2272
4978 4977
3207 3206
4078 4077
611 610
3304 3303
5663 5662
2921 2920
4931 4932
370 371
111 110
2454 2453
3381 3382
3577 3578
2146 2147
98 97
498 499
1666 1665
2510 2511
5124 5125
658 657
4286 4285
5732 5731
3472 3471
5560 5559
46 47
1325 1324
2344 2343
4194 4193
1736 1735
1178 1177
4818 4819
627 628
4811 4812
1531 1530
4273 4272
5256 5257
3087 3086
1968 1967
1670 1669
3869 3868
968 969
4029 4030
4790 4789
4649 4650
3026 3027
5744 5743
303 304
790 789
668 667
4177 4178
5112 5113
3324 3325
4710 4711
1688 1687
2675 2676
3293 3294
5049 5048
290 291
1913 1912
252 253
3620 3619
5100 5099
2285 2286
4541 4542
704 703
4602 4603
1011 1010
4522 4523
3722 3721
788 787
414 413
3871 3870
2459 2460
2065 2064
5770 5771
1838 1837
4000 3999
4867 4868
4590 4591
3731 3732
2117 2116
5577 5578
882 883
2287 2286
1899 1900
2536 2535
5539 5538
4693 4694
5120 5121
4414 4415
3443 3444
5467 5466
466 465
5250 5249
1703 1702
4453 4454
4419 4420
4773 4772
5231 5230
2100 2099
3647 3646
2645 2646
5130 5129
4479 4480
5381 5380
1290 1289
1749 1750
1541 1542
1503 1504
4633 4634
4988 4987
1123 1124
3970 3969
1078 1079
3566 3565
1198 1199
2228 2227
4803 4804
3400 3401
3403 3404
4081 4080
274 273
3819 3820
4170 4169
3630 3629
3263 3262
3528 3527
471 472
3324 3323
3248 3249
5117 5118
4325 4326
1265 1264
5524 5523
936 935
2041 2040
123 124
4164 4165
4963 4964
3856 3857
244 243
885 884
2031 2032
1570 1569
351 350
4609 4608
1872 1873
286 287
140 139
486 487
2787 2788
2949 2950
2489 2490
1431 1430
4643 4644
1479 1478
1813 1812
722 723
1203 1202
4292 4291
3638 3637
1177 1176
5390 5391
4385 4384
816 815
1410 1411
2760 2759
513 514
562 561
3523 3524
737 736
2931 2930
5764 5765
2187 2188
5040 5039
2294 2295
4914 4915
1216 1217
1864 1865
1141 1142
592 593
2684 2683
4215 4216
536 535
485 486
3019 3020
142 141
1163 1162
2847 2846
5426 5425
4430 4431
2987 2988
2254 2253
5199 5200
4571 4572
1770 1771
5012 5011
2041 2042
4902 4903
505 504
5680 5681
5444 5445
632 631
5625 5626
3889 3890
2647 2646
4551 4552
3962 3963
2428 2427
4693 4692
2844 2845
4760 4761
4778 4777
368 367
3693 3694
3427 3426
2614 2613
4322 4321
2381 2382
2860 2859
1890 1889
190 189
1770 1769
3814 3813
1069 1070
4371 4372
3600 3599
4553 4552
8 7
3280 3281
2745 2746
302 303
1709 1708
3118 3117
1857 1856
4579 4580
2388 2389
5385 5384
4817 4818
3970 3971
3317 3316
1591 1590
1745 1744
3755 3756
5742 5741
4772 4771
2328 2329
2430 2431
673 672
2909 2910
4948 4949
3450 3449
901 902
2929 2930
4706 4707
609 608
4852 4851
402 403
4305 4306
3273 3274
234 233
1407 1408
4641 4640
1624 1623
270 271
1844 1845
1930 1929
1587 1586
4413 4412
3051 3052
2525 2526
3724 3725
5064 5065
3035 3036
298 297
1220 1219
3733 3734
762 763
3708 3709
5027 5026
2897 2896
5025 5026
5580 5579
2891 2892
1237 1236
430 429
5137 5136
3489 3490
5654 5653
5120 5119
2655 2656
4067 4066
3112 3111
2408 2409
1056 1057
2464 2463
3893 3892
1099 1098
2855 2856
3235 3236
4050 4051
393 394
3361 3362
3616 3617
3968 3967
1326 1325
2727 2728
803 804
1568 1569
518 519
3300 3301
2397 2398
4031 4032
89 90
370 369
4128 4129
5167 5166
2264 2265
2038 2039
5459 5458
3497 3498
5049 5050
1079 1080
1380 1381
4520 4519
3623 3624
604 603
3666 3665
5087 5086
2372 2371
685 686
1919 1918
5596 5595
248 247
714 715
2715 2716
1374 1375
1712 1711
4530 4529
4101 4100
3937 3938
1811 1812
3300 3299
1850 1851
3172 3171
420 419
3719 3718
2418 2417
5099 5098
3127 3128
4517 4516
1766 1765
3350 3351
1896 1895
3438 3439
2738 2737
4044 4043
3409 3408
1972 1973
1611 1610
1200 1199
3685 3684
1763 1762
5058 5057
1820 1821
2102 2103
1799 1798
3802 3803
799 800
3951 3950
3171 3170
3256 3255
2946 2945
440 439
1425 1426
1930 1931
4566 4565
5003 5002
1207 1206
2046 2045
1605 1606
14 13
283 284
757 756
2908 2907
1426 1427
3961 3960
98 99
907 906
2881 2880
3483 3482
4493 4492
1387 1388
468 467
4120 4121
5351 5352
1044 1045
2238 2239
2485 2486
915 914
4648 4649
4343 4342
1775 1774
4994 4993
3545 3546
4987 4986
760 761
2026 2025
5211 5212
5767 5766
1239 1238
2996 2995
996 997
648 649
4652 4653
688 689
4235 4236
3988 3987
2107 2108
25 24
2856 2857
694 693
3004 3003
3183 3182
3626 3627
4497 4498
3686 3685
2388 2387
3164 3163
278 277
4710 4709
3622 3623
150 151
2229 2230
3789 3790
5610 5609
900 899
451 452
5277 5278
1258 1257
2839 2838
702 703
1551 1552
4148 4149
2374 2375
1409 1410
719 718
1935 1936
2920 2919
1374 1373
5409 5410
4308 4307
2327 2326
2612 2611
1824 1823
5516 5515
4656 4657
1772 1773
3226 3225
5065 5066
3736 3737
2995 2994
768 767
5432 5433
5688 5689
240 239
3434 3433
501 502
4251 4252
3737 3738
5110 5109
4228 4227
2164 2163
2720 2721
4387 4388
205 206
2484 2483
1673 1672
1329 1328
1624 1625
941 940
3211 3210
4606 4605
2308 2307
4964 4965
911 912
2110 2111
602 601
3874 3873
391 390
979 978
5757 5758
474 475
5 6
307 308
3975 3976
2723 2722
4763 4762
469 468
3032 3031
94 93
4590 4589
4560 4561
319 320
5537 5536
1227 1228
257 256
5657 5656
3599 3598
4267 4266
943 944
2946 2947
77 78
2010 2009
1934 1935
2694 2695
1846 1845
3113 3112
4172 4173
1632 1631
2916 2915
1220 1221
4062 4061
3028 3027
4395 4394
2833 2832
2168 2169
5540 5539
3310 3309
523 522
4950 4949
875 876
96 97
1111 1110
814 815
2687 2686
2517 2518
3982 3981
114 115
3808 3807
4972 4973
4390 4391
787 786
5191 5192
5709 5708
1107 1106
3174 3173
10 11
4494 4495
4514 4515
4478 4477
4684 4683
3589 3588
4930 4929
3904 3903
2782 2783
3932 3933
1015 1014
2981 2982
762 761
2676 2677
5365 5366
481 480
193 192
5789 5788
2343 2342
953 952
5326 5327
1159 1160
1843 1844
1108 1107
4966 4967
1573 1574
448 449
2954 2953
2495 2496
5363 5364
826 825
1950 1949
3002 3001
3146 3145
3091 3092
2197 2196
5506 5507
5658 5659
5436 5435
1015 1016
1178 1179
2915 2914
821 822
2898 2897
71 72
1088 1087
3407 3406
263 262
1948 1949
3516 3517
3403 3402
5148 5147
951 952
2331 2330
4951 4952
1183 1184
1132 1133
4233 4232
1295 1296
525 524
2673 2674
211 212
843 844
1589 1590
472 473
5604 5605
2225 2224
2426 2427
2872 2873
2661 2660
1367 1366
857 858
2984 2985
5592 5593
4403 4402
1861 1860
4199 4200
3252 3251
5027 5028
987 986
444 443
1423 1422
993 992
3155 3154
5112 5111
3854 3853
2845 2846
5710 5711
1817 1816
2712 2711
1699 1698
4843 4844
2101 2100
3560 3559
4448 4447
1547 1546
3987 3986
152 153
945 944
2352 2353
3269 3270
3412 3413
143 144
1304 1305
4036 4035
2123 2122
5234 5233
1832 1831
756 755
4175 4174
3251 3250
2407 2406
3601 3600
456 455
428 429
473 474
1224 1223
1353 1352
584 583
3890 3891
2559 2558
299 298
3779 3780
2187 2186
4945 4944
5632 5633
1332 1331
5402 5403
2125 2126
38 39
1710 1709
4627 4626
1047 1048
2103 2104
5485 5486
3582 3581
1514 1515
4582 4581
583 582
837 838
1153 1154
1609 1608
228 227
4064 4065
5214 5215
479 478
865 866
3909 3908
5493 5492
5174 5175
1668 1667
942 943
337 338
1664 1665
5457 5458
1957 1958
3486 3485
4686 4687
452 453
1464 1463
2210 2211
3451 3452
5378 5379
5772 5773
5530 5529
3360 3361
391 392
1649 1648
645 646
2872 2871
699 700
2572 2573
2764 2763
1313 1312
5394 5395
1232 1233
2973 2972
3823 3824
1277 1276
1493 1494
3550 3551
2523 2524
2890 2889
2705 2706
1789 1788
2762 2761
5769 5770
677 678
2793 2794
344 345
3670 3671
738 739
1156 1155
3582 3583
3541 3542
1733 1732
1499 1498
4049 4050
1012 1011
2043 2042
2666 2665
3945 3946
829 828
3892 3891
2925 2926
4092 4091
3898 3899
4253 4252
1122 1121
799 798
1734 1735
1604 1605
4346 4347
1841 1842
2477 2476
5695 5694
489 490
3808 3809
1898 1897
1975 1976
2064 2063
1892 1891
2407 2408
3862 3861
1105 1106
3581 3580
2935 2936
148 147
5058 5059
1697 1696
3043 3042
5461 5462
2466 2465
5469 5468
2488 2487
4628 4627
107 108
4275 4274
1521 1522
1718 1719
3094 3093
4287 4286
4864 4863
5343 5342
4047 4048
2051 2050
4308 4309
3621 3622
2735 2734
4339 4340
5227 5228
3852 3851
4573 4574
2412 2411
5211 5210
3039 3038
1706 1705
2841 2842
1201 1202
498 497
4354 4353
5168 5167
5427 5428
3700 3701
1330 1331
2978 2979
1234 1235
1752 1751
3277 3278
2384 2383
5036 5037
2588 2589
2569 2570
5704 5703
2682 2683
2368 2369
1756 1755
4436 4437
1603 1602
37 36
401 400
1424 1423
1901 1900
3989 3990
1694 1693
2571 2572
2356 2355
3671 3672
4879 4878
9 8
2181 2182
2476 2475
3977 3978
1304 1303
2243 2242
543 542
5108 5107
1980 1981
2287 2288
4077 4076
3208 3209
1934 1933
5219 5220
3462 3461
2433 2434
559 560
5478 5479
2485 2484
1332 1333
1170 1169
3533 3534
4223 4224
4316 4315
2541 2540
3072 3071
3120 3119
5251 5250
4253 4254
3025 3024
5032 5033
4755 4756
5191 5190
1671 1670
3402 3401
2820 2819
4255 4254
1613 1614
99 100
3708 3707
1311 1310
1767 1768
1176 1175
3723 3722
2814 2813
1768 1769
2392 2391
4625 4624
1721 1722
2968 2969
1298 1297
4450 4451
680 679
5136 5135
1558 1557
5443 5444
3779 3778
4150 4149
3441 3440
2835 2836
5796 5795
1075 1074
4060 4059
5346 5347
33 34
585 586
4633 4632
1076 1075
1490 1491
4468 4467
2029 2028
914 913
3980 3979
5020 5019
1754 1753
4954 4955
1409 1408
4874 4875
327 326
4620 4621
1158 1159
4894 4895
2618 2617
5564 5563
2924 2925
5630 5629
2338 2339
2506 2507
4325 4324
2681 2680
918 917
2150 2149
750 751
1978 1977
1867 1866
3529 3530
861 860
4714 4715
4839 4838
2298 2297
2 1
1064 1063
2280 2279
5009 5008
5581 5582
1970 1969
4775 4776
3430 3431
1058 1057
1648 1647
1271 1270
1868 1867
4042 4043
5245 5246
1318 1317
3824 3825
3868 3867
4218 4219
2202 2203
4596 4597
924 923
3150 3151
6 7
5532 5531
4451 4452
5405 5404
3065 3066
5646 5647
3466 3467
1420 1421
3170 3169
2736 2735
500 501
4202 4203
3383 3384
1487 1488
1185 1184
2082 2083
3647 3648
3070 3071
5360 5359
4754 4753
3474 3475
2123 2124
656 655
3233 3234
3042 3041
2643 2644
1500 1501
3675 3676
2883 2884
3978 3979
1544 1545
213 214
157 156
4295 4296
2538 2539
196 195
5528 5529
890 889
5715 5714
3399 3398
1628 1627
564 565
158 157
5168 5169
1349 1350
4549 4550
3294 3295
1004 1005
3913 3914
2832 2831
2912 2913
4004 4005
1284 1285
1240 1239
776 777
4061 4060
5551 5552
3432 3433
4979 4980
4587 4586
1092 1093
2144 2145
3526 3525
3710 3709
4564 4565
5517 5518
3548 3547
2435 2436
3060 3059
1601 1600
2637 2638
4986 4985
1040 1041
5047 5046
1448 1449
1734 1733
1058 1059
3863 3862
2965 2964
4151 4150
268 269
3694 3695
3348 3349
1622 1623
3762 3763
328 329
1674 1675
5689 5690
192 191
1940 1939
3442 3443
1827 1828
2543 2544
2909 2908
4803 4802
4543 4542
2949 2948
690 691
5091 5092
976 975
3955 3956
1524 1525
1937 1936
1095 1096
1452 1451
2858 2859
1757 1758
3756 3757
3357 3356
1326 1327
3363 3362
4026 4025
2147 2148
1008 1009
5215 5216
4668 4669
1588 1587
258 259
4690 4689
4829 4828
4294 4295
2353 2354
878 879
5435 5434
1540 1539
5735 5734
3303 3302
2844 2843
5582 5583
3239 3238
4521 4520
783 784
1550 1551
692 691
5635 5634
4293 4294
4976 4977
2608 2607
725 724
2232 2231
4551 4550
317 318
5169 5170
5299 5298
5309 5310
5614 5615
2592 2591
3687 3688
340 339
3348 3347
791 792
1003 1002
4066 4065
451 450
3039 3040
277 276
4197 4196
470 469
1730 1731
4800 4799
554 555
2290 2291
2044 2043
167 166
1242 1243
4502 4503
2164 2165
1507 1506
2168 2167
3636 3635
3040 3041
3201 3200
2049 2048
2931 2932
2645 2644
3829 3828
919 920
2416 2415
2035 2034
5181 5182
3907 3908
649 650
2658 2659
5675 5674
3181 3180
512 511
4427 4428
3091 3090
1300 1299
5449 5450
1406 1407
957 958
3276 3275
2269 2268
4073 4072
2435 2434
2009 2008
3696 3697
324 323
11 12
2474 2473
781 782
2157 2158
4054 4053
4635 4634
4901 4902
5511 5510
4112 4113
3345 3346
3277 3276
5554 5553
3243 3244
797 796
3203 3204
509 510
282 281
3865 3866
1077 1076
754 753
2063 2062
3797 3798
1995 1996
2536 2537
344 343
3691 3690
3603 3604
4928 4929
801 800
2690 2689
3419 3420
2138 2137
3099 3100
92 93
1222 1221
3073 3074
3806 3805
3394 3395
4196 4195
5633 5634
5586 5587
3813 3812
4620 4619
5701 5700
1145 1146
2827 2828
294 293
5786 5787
1021 1022
2918 2917
1352 1351
2205 2206
4305 4304
201 200
2339 2340
2583 2584
398 399
1474 1473
3098 3099
3927 3928
3770 3769
3641 3640
2891 2890
57 56
4148 4147
4587 4588
3835 3836
3005 3004
974 975
3124 3125
1795 1796
4300 4299
1013 1014
3034 3035
1620 1621
1128 1127
1274 1275
5568 5569
3919 3920
3278 3279
5465 5466
3249 3250
4644 4645
1432 1433
1341 1340
2210 2209
2534 2535
2377 2378
1089 1090
2059 2058
3557 3558
2351 2350
3142 3141
1618 1617
1012 1013
853 854
4351 4350
4740 4739
5747 5748
3369 3370
1531 1532
734 735
5677 5676
1962 1961
2954 2955
1945 1946
4349 4348
1887 1888
497 496
1947 1946
5276 5275
2693 2694
3629 3628
2191 2192
765 764
1036 1035
104 105
4387 4386
2087 2088
4769 4768
2724 2723
5066 5067
3312 3313
1989 1990
3240 3239
3830 3829
3149 3150
4250 4249
2438 2437
4673 4672
1366 1365
2333 2332
2400 2399
145 146
5794 5795
1149 1148
525 526
1166 1165
1444 1443
4409 4408
2565 2566
980 979
4355 4354
2880 2879
2363 2364
4545 4544
4388 4389
2899 2900
4533 4534
3265 3264
1164 1163
4874 4873
2750 2751
1548 1547
3217 3216
743 744
2481 2480
1067 1068
4277 4278
2642 2643
4429 4428
2550 2551
1545 1546
2758 2757
1510 1509
3962 3961
3804 3803
5039 5038
1793 1794
4974 4975
376 375
601 600
1010 1009
4364 4365
1573 1572
2116 2115
1814 1813
709 708
2310 2309
3612 3613
2277 2278
3765 3766
4933 4932
2848 2849
4360 4361
2193 2194
2978 2977
335 336
3988 3989
2866 2865
5331 5330
3119 3118
1420 1419
2292 2293
2878 2877
623 622
5313 5314
1903 1904
3682 3681
2052 2053
3574 3573
1859 1860
5488 5489
1928 1929
2230 2231
5407 5406
5522 5523
4735 4736
2333 2334
5042 5041
422 421
3505 3504
945 946
714 713
2302 2301
5237 5238
4916 4917
441 440
4446 4445
5060 5061
5193 5192
5422 5423
2879 2878
5384 5383
2514 2513
5607 5608
4997 4996
354 353
4888 4887
1376 1375
4246 4245
3603 3602
5512 5511
5762 5761
2906 2907
3736 3735
1635 1634
5478 5477
790 791
1960 1961
4440 4439
196 197
3855 3856
1803 1802
1828 1829
3834 3835
410 409
1565 1564
770 769
1544 1543
2717 2718
4838 4837
721 720
2306 2307
2577 2576
1475 1474
530 531
462 463
2155 2156
2971 2972
1514 1513
153 154
3609 3608
1553 1554
3656 3655
2384 2385
159 158
404 403
3496 3497
294 295
2966 2967
4613 4612
1449 1450
2409 2410
1641 1640
5694 5693
3342 3343
845 844
4160 4159
1212 1211
2682 2681
3188 3187
406 407
5727 5728
1292 1293
2741 2740
4241 4242
4737 4736
234 235
3269 3268
5186 5187
3175 3176
1397 1398
2170 2169
2153 2152
3760 3761
3022 3023
273 272
5278 5279
1789 1790
2336 2337
1447 1446
4029 4028
4612 4611
4329 4328
4622 4621
3993 3994
231 230
4833 4834
3292 3291
2726 2725
487 488
1382 1381
4925 4924
2030 2031
4282 4281
1309 1310
1499 1500
3941 3942
5545 5546
241 242
4343 4344
1405 1404
2553 2554
1124 1125
261 260
4231 4232
2360 2361
1453 1452
724 723
4982 4981
3185 3184
3224 3223
3448 3447
4814 4815
1189 1190
5572 5573
180 179
1398 1399
136 135
124 125
4755 4754
705 706
4561 4562
2826 2827
3604 3605
1726 1727
1864 1863
128 127
2248 2249
634 635
2733 2734
3470 3471
3879 3880
3328 3329
3556 3557
738 737
2962 2961
5178 5177
4911 4912
4130 4129
3167 3168
967 966
5424 5423
1632 1633
4058 4059
2641 2640
4116 4117
3008 3007
5140 5139
386 385
5306 5305
1943 1944
3826 3825
4606 4607
224 225
147 146
5491 5490
1538 1537
1261 1260
4259 4258
3133 3134
2595 2594
413 412
2775 2776
3625 3626
3815 3814
5555 5556
1862 1861
5516 5517
687 686
2755 2754
5000 5001
214 215
5747 5746
5572 5571
346 347
1598 1597
4824 4825
2200 2199
1947 1948
3188 3189
4575 4574
5335 5336
4914 4913
3551 3552
3378 3379
916 915
3044 3045
4219 4220
4357 4356
3061 3060
3285 3286
5691 5692
718 717
4384 4383
545 546
4106 4107
3747 3748
884 883
5357 5356
3597 3598
4821 4820
664 663
2932 2933
1145 1144
4922 4921
3822 3821
4718 4717
5350 5351
4602 4601
2852 2853
2208 2209
3221 3220
1885 1886
2030 2029
1886 1887
3588 3587
2056 2055
5260 5261
4928 4927
3282 3283
4805 4804
694 695
4696 4695
766 767
614 615
5138 5137
4132 4131
3833 3832
1294 1295
478 477
5010 5009
1699 1700
2247 2248
4285 4284
4988 4989
1454 1453
1827 1826
3337 3336
1166 1167
2410 2411
896 897
4505 4504
2628 2629
3854 3855
70 71
2085 2084
1822 1823
3678 3677
4540 4539
1848 1849
4195 4194
1528 1527
3097 3098
3896 3895
5189 5190
5128 5129
5636 5637
759 760
3571 3572
4975 4976
930 931
3896 3897
3774 3773
4486 4487
2752 2751
3228 3227
1802 1801
4422 4423
2690 2691
4677 4678
55 56
1987 1988
329 330
3474 3473
465 464
1205 1206
1801 1800
832 831
118 119
5338 5339
5759 5758
875 874
2712 2713
653 654
4342 4341
5645 5646
4525 4526
3520 3521
1533 1534
596 597
514 515
4468 4469
3921 3922
3227 3226
5251 5252
3876 3877
1201 1200
3943 3942
1486 1485
4470 4469
2918 2919
2007 2008
5565 5566
4007 4008
3508 3509
3176 3177
5514 5513
4392 4391
1998 1997
1660 1661
612 613
5057 5056
4609 4610
3792 3791
450 449
4830 4829
1267 1266
4623 4622
4208 4209
54 53
4522 4521
592 591
3268 3267
1022 1023
1194 1195
3472 3473
1602 1601
349 348
5008 5007
264 265
3713 3714
5362 5363
615 616
4053 4052
3103 3102
3308 3309
4508 4509
4610 4611
1582 1581
4767 4766
1515 1516
4082 4083
410 411
2019 2020
4683 4682
5108 5109
1905 1906
2413 2412
5295 5294
892 893
5507 5508
4734 4735
4583 4584
2719 2718
3965 3964
2652 2653
3275 3274
3446 3445
1349 1348
4378 4379
457 456
3312 3311
4282 4283
1940 1941
5760 5759
3714 3715
134 135
1568 1567
4777 4776
3194 3195
22 23
1086 1085
2668 2669
5185 5184
2648 2649
1233 1234
1033 1032
2587 2588
2437 2436
3053 3054
1835 1836
2727 2726
4981 4980
2699 2700
1513 1512
621 620
4445 4444
962 963
3212 3213
4989 4990
4651 4652
5475 5474
3400 3399
1254 1255
2097 2098
4377 4378
2594 2593
5454 5453
1271 1272
4556 4555
1915 1914
3395 3396
4443 4442
707 708
4102 4103
1083 1082
4744 4745
2196 2195
5241 5240
112 111
4688 4687
3005 3006
5 4
5717 5718
5116 5117
5755 5756
3535 3534
1131 1130
4280 4279
3935 3936
1799 1800
2456 2457
4858 4859
16 15
551 552
3677 3676
1417 1418
3973 3974
4263 4264
660 661
3885 3886
1684 1685
1832 1833
4969 4970
1508 1507
2162 2163
999 998
4230 4231
4604 4603
2002 2003
2486 2487
4700 4699
5076 5075
5265 5266
4728 4729
3861 3860
1062 1061
3522 3521
1468 1467
765 766
2923 2922
3254 3253
4257 4256
1506 1505
2686 2685
5344 5345
4930 4931
4618 4617
2861 2860
5705 5706
3815 3816
5046 5045
719 720
780 781
175 174
1017 1016
3224 3225
2633 2632
1788 1787
5494 5495
538 539
337 336
4699 4698
1251 1250
4238 4237
4320 4319
4712 4713
5614 5613
1302 1301
5188 5189
5083 5082
398 397
1186 1185
5560 5561
2356 2357
2342 2341
3972 3973
1043 1044
3138 3139
1118 1117
1174 1173
578 577
178 179
817 816
4681 4682
5162 5163
5628 5629
2218 2217
2430 2429
5302 5301
123 122
1869 1870
5202 5201
1536 1535
4538 4537
3624 3625
115 116
4844 4845
560 561
155 154
2499 2500
809 810
5535 5536
4120 4119
2396 2397
5253 5252
5097 5098
122 121
4524 4525
1851 1852
3532 3531
4118 4117
5155 5154
415 414
5754 5755
4359 4360
4779 4780
5236 5237
2939 2938
1277 1278
4974 4973
3777 3776
306 307
2672 2671
2950 2951
5396 5397
3375 3374
2774 2773
4418 4419
4605 4604
1672 1671
4135 4136
82 81
1212 1213
5031 5032
4030 4031
5664 5663
1191 1190
4723 4722
4350 4349
4461 4460
2404 2405
250 251
2250 2251
3587 3586
127 126
1597 1596
5267 5266
4068 4069
2976 2975
1048 1049
2620 2621
5714 5713
1183 1182
5503 5502
4280 4281
171 172
5555 5554
2853 2854
558 557
5402 5401
654 655
2547 2546
4719 4718
2185 2184
1872 1871
956 955
1170 1171
377 376
1100 1099
658 659
4529 4528
4696 4697
328 327
2509 2510
5012 5013
2773 2772
959 958
2080 2081
4593 4594
5641 5640
4706 4705
3289 3288
5324 5323
1113 1114
2825 2826
919 918
2979 2980
2205 2204
2079 2080
438 437
1126 1127
2749 2748
3998 3997
4385 4386
4898 4897
3235 3234
4940 4939
4234 4233
2381 2380
5594 5595
1883 1882
2955 2956
1109 1108
1893 1892
2451 2452
3344 3343
3078 3079
4105 4106
2530 2529
2800 2799
3416 3415
3302 3301
2171 2172
4307 4306
275 274
1707 1706
3827 3828
1483 1482
2614 2615
2876 2875
3417 3416
74 73
929 930
1355 1354
5365 5364
633 632
2522 2523
1840 1839
3538 3539
365 366
3264 3263
3417 3418
4095 4096
1943 1942
1713 1714
116 117
3215 3214
5743 5742
3763 3764
2768 2769
5446 5445
4490 4489
2662 2663
5656 5655
1859 1858
3847 3846
3596 3595
5036 5035
593 594
842 843
4849 4850
1301 1300
5791 5792
1796 1797
4614 4615
872 871
2963 2964
2266 2265
3602 3601
221 222
73 72
5369 5368
2106 2107
1848 1847
5051 5052
813 814
4501 4502
5288 5289
5044 5043
2636 2635
2563 2564
579 580
5272 5271
3592 3593
3846 3845
5224 5223
1279 1278
5179 5180
1556 1557
1626 1627
434 433
2198 2197
4645 4646
1397 1396
1853 1852
5304 5305
3745 3746
300 299
1909 1910
4817 4816
4592 4591
3057 3058
4670 4669
2467 2466
4795 4794
5160 5161
2695 2696
357 356
460 461
1720 1721
1308 1307
763 764
5176 5175
2233 2232
75 76
3811 3812
5282 5283
1742 1741
5697 5696
5551 5550
5733 5732
4641 4642
229 228
4515 4516
2222 2221
2204 2203
2587 2586
3457 3458
864 865
5296 5297
640 639
2888 2889
3172 3173
641 640
1603 1604
1268 1269
3678 3679
1964 1965
1750 1751
5702 5703
3920 3921
785 784
4496 4495
448 447
1441 1440
2528 2529
521 522
5326 5325
65 64
5546 5547
1337 1338
5208 5209
5400 5399
4310 4311
2105 2104
2060 2061
5286 5287
1749 1748
1663 1664
2843 2842
2560 2561
5642 5641
4167 4166
773 774
3018 3019
1182 1181
2175 2174
1402 1403
2375 2376
1168 1169
5146 5145
3460 3461
743 742
1029 1030
495 496
4995 4996
5187 5188
1725 1724
965 964
1561 1560
2837 2836
4221 4222
5263 5262
5217 5216
283 282
1834 1833
3109 3110
1129 1128
2986 2985
2325 2326
4338 4339
5610 5611
3289 3290
5580 5581
2501 2502
383 382
332 331
3903 3902
4600 4601
3506 3507
3882 3883
2903 2902
1122 1123
322 323
1847 1846
4869 4868
5201 5200
461 462
5499 5498
1265 1266
2070 2071
2269 2270
2277 2276
4335 4334
4813 4814
994 993
689 690
3998 3999
3801 3802
4366 4365
3296 3297
5068 5069
878 877
903 902
3817 3816
5292 5291
2444 2445
4309 4310
3257 3258
1595 1594
2181 2180
4608 4607
2766 2765
2417 2416
4800 4801
5119 5118
2109 2110
4452 4453
205 204
997 998
164 163
5389 5390
393 392
1611 1612
5202 5203
5762 5763
1736 1737
1662 1661
4330 4329
3811 3810
2014 2013
80 79
3197 3198
1676 1677
1283 1282
2299 2298
1579 1580
3641 3642
1457 1456
3704 3705
2657 2658
1071 1072
302 301
4802 4801
1690 1689
1565 1566
811 810
2238 2237
2491 2492
5373 5372
4896 4895
270 269
2477 2478
4087 4086
2578 2579
1612 1613
4401 4402
5307 5306
2834 2835
1913 1914
1192 1193
5089 5090
2923 2924
3391 3392
2798 2797
4214 4215
2052 2051
562 563
3593 3594
3353 3352
4146 4145
1254 1253
121 120
3411 3412
1329 1330
5140 5141
33 32
4491 4492
311 312
3248 3247
4057 4056
537 538
2461 2460
385 384
2818 2817
4842 4841
4174 4173
4922 4923
3775 3776
5269 5268
1806 1807
1253 1252
2246 2247
4967 4968
3584 3583
1523 1524
4840 4841
2413 2414
2943 2944
2332 2331
2124 2125
5060 5059
2324 2323
4910 4911
291 292
3571 3570
244 245
2513 2512
4236 4237
5753 5754
2602 2603
2593 2592
5158 5157
133 132
2812 2811
2069 2068
1484 1483
4651 4650
824 823
2530 2531
459 460
2916 2917
3924 3923
3424 3425
5375 5374
1584 1583
5738 5737
4376 4377
1150 1151
1868 1869
520 521
2599 2600
1549 1548
1466 1467
4067 4068
2499 2498
847 848
61 60
3380 3379
404 405
4160 4161
950 951
1071 1070
812 813
4000 4001
3901 3900
1268 1267
524 523
5071 5072
2449 2448
3284 3283
3730 3731
5274 5275
2423 2422
5683 5682
2942 2941
3083 3084
3800 3799
2501 2500
1006 1007
5604 5603
1907 1906
624 625
1805 1804
3422 3423
1642 1643
3656 3657
5349 5350
2386 2387
5336 5337
2894 2895
544 545
563 564
4774 4775
4369 4370
3784 3783
2183 2182
4702 4701
2299 2300
4559 4560
181 180
2664 2665
4568 4569
4636 4635
1392 1391
2703 2704
4314 4313
4846 4847
4216 4217
25 26
2012 2011
3766 3767
3859 3858
1489 1490
126 125
5739 5740
4658 4659
3888 3889
2585 2586
5483 5484
164 165
3887 3886
1911 1910
4362 4363
502 503
4793 4792
5221 5222
1384 1385
1336 1337
5151 5152
3409 3410
4527 4526
4788 4789
3574 3575
2252 2251
1637 1636
3917 3918
517 516
2767 2766
3255 3254
1283 1284
5542 5541
1920 1921
2004 2005
5327 5328
516 515
730 731
320 321
5650 5649
1550 1549
199 200
68 67
1543 1542
577 576
5387 5388
2465 2464
4573 4572
3021 3022
5374 5373
5446 5447
1781 1782
3371 3370
3643 3642
2093 2092
4507 4508
4758 4759
1270 1269
5334 5333
4747 4748
3614 3613
3334 3333
1908 1909
2015 2016
636 635
3638 3639
3331 3332
5015 5016
4827 4826
788 789
805 804
137 138
2177 2178
3390 3391
665 666
5315 5314
4133 4132
977 976
853 852
5000 4999
1666 1667
2044 2045
4184 4183
962 961
1432 1431
433 432
5598 5599
4114 4115
3458 3459
5183 5184
3053 3052
5194 5195
1676 1675
898 897
705 704
4421 4420
1160 1161
3266 3265
359 360
2109 2108
1730 1729
710 711
1480 1479
2967 2968
4096 4097
1188 1187
3649 3650
3781 3782
2787 2786
1926 1925
5285 5284
2361 2362
5206 5207
1570 1571
624 623
1517 1518
769 768
1652 1653
4214 4213
3062 3061
3562 3563
5472 5471
353 352
261 262
4948 4947
669 668
1561 1562
1444 1445
3963 3964
2135 2134
1836 1837
3589 3590
941 942
226 225
4498 4499
5317 5318
4379 4380
1290 1291
5619 5620
1355 1356
1684 1683
1592 1591
1941 1942
5409 5408
2725 2724
1439 1440
2824 2823
1999 2000
1143 1142
3738 3739
2057 2058
5241 5242
3871 3872
906 905
2420 2419
822 823
3974 3975
1379 1378
45 44
5291 5290
1564 1563
4207 4208
1917 1916
4396 4395
3699 3698
1535 1534
1455 1454
361 360
1019 1020
1383 1382
1115 1114
5730 5731
5722 5723
4087 4088
5541 5540
3108 3109
3068 3067
1161 1162
2516 2515
2575 2576
2731 2732
5791 5790
1938 1937
2825 2824
2201 2202
3949 3950
3232 3233
3739 3740
1815 1814
566 567
4483 4482
3245 3244
3490 3491
5638 5639
133 134
481 482
4128 4127
1186 1187
1723 1722
5730 5729
3201 3202
2132 2133
3500 3499
5029 5030
4185 4186
423 424
972 973
1881 1882
1060 1059
2625 2624
3280 3279
3955 3954
5256 5255
5254 5253
758 757
1879 1878
648 647
873 872
4478 4479
647 646
3209 3210
1097 1098
1915 1916
2579 2580
1639 1640
2215 2214
3364 3363
2550 2549
148 149
1090 1091
1025 1026
5347 5348
2867 2868
2899 2898
2121 2120
3607 3608
3716 3715
2076 2077
5438 5437
42 43
5593 5594
4015 4014
2367 2366
4787 4788
922 921
5704 5705
2225 2226
5316 5315
3192 3193
3741 3742
4299 4298
913 912
3336 3335
3507 3508
5225 5224
2046 2047
3165 3166
5297 5298
4075 4076
5020 5021
3238 3237
2780 2781
3590 3591
899 898
1297 1296
5416 5417
5030 5031
2275 2274
1165 1164
2942 2943
4369 4368
2142 2141
5377 5378
4685 4684
2213 2214
5460 5459
2258 2257
237 238
5149 5148
5553 5552
903 904
4510 4509
4261 4260
5710 5709
1042 1043
5411 5410
1046 1045
5778 5777
2864 2865
5025 5024
232 233
1975 1974
4122 4121
5455 5456
1495 1494
4398 4397
697 698
4243 4242
533 534
3074 3075
2855 2854
797 798
801 802
4548 4547
3087 3088
2074 2073
4227 4226
31 32
4189 4190
3783 3782
2078 2079
4145 4144
1522 1523
2702 2703
651 650
4950 4951
2657 2656
1213 1214
2864 2863
396 397
24 23
4712 4711
4795 4796
5514 5515
3807 3806
3493 3494
3885 3884
186 185
1739 1740
101 102
3407 3408
1319 1320
5258 5257
5268 5267
3842 3843
3435 3436
3216 3215
40 41
38 37
1808 1809
4539 4538
184 183
2606 2607
5452 5451
2719 2720
4831 4830
4002 4003
3727 3726
201 202
3096 3095
2753 2752
1480 1481
2730 2729
5609 5608
644 645
315 316
2952 2951
1034 1033
5549 5548
1779 1778
4126 4125
2744 2745
5533 5534
2944 2945
2698 2699
1319 1318
3810 3809
4481 4480
4725 4726
5412 5413
4037 4036
4007 4006
5602 5603
4265 4266
2632 2631
219 218
169 170
1211 1210
1372 1371
4664 4663
2280 2281
746 745
3840 3839
5286 5285
2921 2922
2305 2304
752 753
2038 2037
4179 4180
5186 5185
4946 4947
306 305
5389 5388
3606 3607
835 834
2948 2947
541 540
5034 5035
1525 1526
4119 4118
1728 1729
5461 5460
349 350
1121 1120
5127 5128
4806 4807
4004 4003
2531 2532
2830 2831
2478 2479
