8235
1 0 1 0 0 1 1 0 0 0 0 1 0 1 0 1 1 1 0 1 0 1 1 0 1 1 0 0 0 0 0 1 1 0 0 1 0 0 0 1 0 0 1 1 1 0 1 0 1 0 1 1 1 1 0 1 1 1 0 1 1 1 1 1 0 0 1 0 0 1 1 0 1 0 0 0 1 0 0 0 1 1 0 1 1 1 1 0 0 1 1 1 0 0 0 1 0 0 1 1 1 0 1 0 1 1 0 0 1 1 1 0 1 0 0 0 0 1 0 0 0 1 1 1 1 1 1 1 1 1 1 1 1 1 1 0 0 0 0 1 1 0 1 1 0 0 0 0 0 0 0 0 0 0 1 0 0 0 0 0 1 0 0 0 1 0 1 1 1 1 0 0 1 1 0 0 1 0 0 0 0 0 1 1 1 0 1 0 0 0 0 0 1 1 0 1 0 0 1 1 1 1 1 1 1 0 1 0 1 0 0 1 1 0 0 0 0 1 1 0 0 0 0 1 1 0 1 0 1 0 0 0 0 1 1 0 0 0 0 0 1 0 1 1 1 0 0 1 0 0 1 0 0 1 0 0 0 1 0 1 1 1 0 0 0 0 1 1 0 1 0 0 1 0 1 1 0 1 1 1 0 0 1 1 1 0 0 1 1 1 0 0 0 1 1 0 0 1 0 0 0 0 1 0 1 0 1 1 0 1 0 0 1 0 0 0 0 1 0 1 1 0 0 0 1 0 1 0 1 1 0 1 1 0 0 1 1 0 1 1 0 0 1 0 0 1 1 0 0 1 1 0 1 0 0 0 0 0 1 1 0 0 1 1 0 1 1 1 0 0 0 0 0 0 0 1 1 0 1 1 1 0 0 0 1 0 1 1 1 0 1 1 0 0 1 0 0 1 0 1 1 0 0 1 1 0 0 0 1 0 1 1 0 0 1 0 0 0 0 0 1 1 0 0 0 1 1 1 1 1 1 0 0 1 1 0 1 1 1 0 0 0 0 1 0 0 0 0 1 1 1 1 1 1 0 0 0 0 1 0 0 0 0 1 0 1 0 0 0 0 0 0 1 0 1 0 1 0 1 0 1 0 0 1 0 1 0 1 1 0 1 1 0 1 0 0 1 1 1 1 0 1 0 1 0 1 0 1 0 1 1 0 1 1 1 1 0 0 0 0 1 0 1 0 0 0 1 0 0 0 0 0 1 1 1 0 1 0 0 0 1 1 1 1 1 0 0 0 1 0 0 1 1 1 1 0 1 0 0 0 0 1 0 0 1 1 0 0 1 0 0 0 0 0 1 1 0 1 0 1 1 1 0 0 0 1 1 0 0 0 0 0 0 1 0 0 0 1 0 1 0 0 0 0 0 0 1 0 0 1 1 0 0 0 1 1 1 1 0 1 0 0 0 0 0 0 1 1 1 0 1 1 0 0 1 1 0 0 1 1 0 1 1 0 1 0 1 1 0 0 1 0 0 1 1 1 1 1 0 0 0 1 0 1 0 0 1 0 0 0 1 0 1 1 0 1 1 0 0 0 1 1 0 0 1 1 1 0 0 1 1 0 0 1 0 1 1 0 1 1 0 0 0 1 1 1 0 1 1 1 0 1 1 0 1 1 1 0 1 1 0 1 1 0 0 0 1 1 0 1 0 0 0 1 0 1 0 1 0 1 0 1 1 0 1 1 0 1 0 0 1 0 1 1 1 0 0 0 0 1 0 0 0 1 0 0 0 0 1 0 0 0 1 1 1 1 1 0 1 0 0 1 0 1 0 0 0 1 0 1 0 0 0 0 0 0 0 0 1 1 1 1 0 0 1 1 0 0 1 1 1 0 1 1 1 0 1 0 1 1 0 1 0 1 0 0 0 0 1 0 0 0 1 1 0 1 1 1 1 1 1 1 1 1 0 0 0 1 0 0 0 0 1 1 0 1 1 0 1 1 1 0 1 0 0 0 1 0 0 0 0 0 1 1 0 1 1 1 1 0 0 0 0 0 0 1 1 0 1 1 1 0 1 1 0 0 0 1 0 0 0 0 0 0 0 1 0 0 0 1 0 0 0 1 0 0 0 0 0 1 1 0 0 1 1 1 1 1 1 0 0 1 1 0 1 1 0 0 0 0 0 0 1 0 0 0 1 1 0 0 1 0 1 0 0 0 1 1 1 0 1 1 0 0 0 1 0 1 1 1 1 0 1 1 1 1 1 1 1 0 0 1 1 0 1 1 1 0 0 0 0 1 0 1 1 0 1 0 1 1 0 1 0 1 1 0 0 1 0 1 0 1 1 1 1 0 1 1 1 1 1 1 1 1 0 1 0 0 1 1 0 1 1 0 0 1 1 1 1 0 0 0 0 1 1 0 0 1 0 0 0 0 1 1 0 0 1 1 1 0 1 1 0 1 0 0 1 1 1 0 0 1 0 0 0 0 1 1 1 1 1 1 1 1 1 1 0 1 0 0 0 1 0 0 1 0 1 0 0 0 1 0 1 1 1 0 0 0 0 1 0 0 1 1 0 0 1 1 1 1 0 0 0 0 0 0 1 0 1 0 1 0 1 1 0 0 1 0 1 1 0 1 1 0 0 0 0 1 0 0 0 0 1 0 1 1 0 0 0 0 0 1 1 1 1 0 1 0 1 1 1 0 1 0 0 1 1 0 0 0 1 0 1 1 1 1 1 0 1 0 1 1 1 0 1 1 0 0 1 1 1 0 1 0 0 1 1 0 0 0 1 0 0 0 0 0 0 1 1 0 1 0 1 0 0 0 0 0 0 1 0 0 1 1 1 0 1 1 0 1 1 1 0 0 1 1 1 0 1 1 1 1 1 0 1 1 0 0 1 1 1 1 0 1 0 1 0 1 0 1 0 0 0 0 1 0 0 1 1 0 0 0 1 0 0 1 0 0 1 1 1 0 0 0 1 0 0 0 0 1 0 1 0 0 0 1 1 0 0 0 1 1 0 0 0 1 1 0 0 1 0 0 0 0 0 0 0 0 0 1 0 1 1 0 0 0 1 1 0 0 1 1 0 0 0 1 1 1 1 1 0 0 1 1 0 0 0 1 1 1 1 0 1 0 1 0 1 0 0 0 1 0 0 1 0 1 1 0 0 0 1 1 0 1 0 1 0 1 1 1 0 0 0 0 1 1 1 1 1 0 0 1 1 0 0 1 1 1 1 0 0 0 1 1 0 0 0 0 0 1 0 0 0 1 0 1 0 0 0 1 1 1 1 1 0 1 0 1 0 0 0 1 1 0 0 1 1 1 0 0 0 1 1 0 0 1 1 1 0 1 1 1 1 1 1 0 1 1 0 0 1 0 1 1 0 1 0 1 0 0 0 1 1 1 1 1 0 0 1 1 0 0 1 1 1 1 1 0 0 0 1 0 1 0 0 1 0 0 1 0 0 0 0 1 1 0 0 0 0 0 1 0 1 1 0 1 0 1 0 1 1 0 1 1 0 0 1 1 0 0 1 1 0 0 1 0 0 0 1 1 0 1 0 0 0 0 1 1 0 1 1 0 1 1 1 0 1 0 0 1 1 0 0 1 0 1 0 0 0 0 1 1 0 0 0 1 0 0 1 0 0 0 1 1 0 1 1 1 1 0 1 0 1 0 0 0 0 0 0 1 0 0 0 0 1 1 0 1 1 1 0 1 1 0 0 1 1 1 1 1 0 1 1 0 0 1 0 0 0 1 1 0 1 1 0 1 1 1 1 1 1 1 1 0 0 0 1 1 0 0 1 0 1 1 0 0 0 0 0 1 0 1 1 0 1 0 1 1 0 1 1 0 0 0 1 1 0 1 1 1 1 1 1 1 1 1 0 0 0 0 0 1 0 1 0 0 0 1 0 1 0 0 1 1 1 1 1 1 0 0 0 1 1 1 0 0 1 1 1 0 0 0 1 1 0 0 0 1 0 0 1 1 0 1 1 1 1 1 0 0 0 1 1 1 1 0 1 0 0 1 0 0 1 1 0 1 0 0 0 0 1 0 0 0 0 0 1 0 1 1 0 0 0 0 1 1 1 0 0 1 1 1 1 1 1 1 1 1 0 0 1 1 0 0 0 0 1 1 0 1 0 0 1 1 0 0 1 0 1 1 1 1 0 1 0 0 0 1 1 0 0 1 1 1 0 0 1 0 0 0 1 1 1 0 0 1 0 0 0 0 0 1 1 1 0 1 0 0 0 0 0 0 0 1 0 1 1 1 0 1 0 1 1 0 1 1 0 1 0 0 0 1 1 0 1 1 0 0 1 0 1 0 1 1 1 1 0 0 0 1 1 1 1 0 0 1 0 0 1 0 1 0 0 0 0 1 0 1 0 0 1 0 1 0 0 1 0 0 1 1 1 0 1 1 1 1 0 0 1 0 0 1 1 0 1 1 0 1 0 1 0 0 1 1 0 1 1 0 1 0 1 1 0 0 1 1 1 1 0 0 0 1 1 0 0 0 1 1 0 0 0 0 1 0 1 1 0 0 0 1 1 1 1 0 0 1 1 0 1 1 1 1 1 1 1 0 1 1 1 0 0 1 1 0 0 0 0 1 0 1 0 0 1 1 1 1 1 0 0 0 1 0 1 1 1 0 1 0 0 0 1 1 0 0 0 1 1 1 1 0 0 0 0 0 1 0 1 0 1 1 0 0 0 1 0 0 0 0 1 1 1 0 1 1 0 1 0 1 0 0 0 0 0 0 1 0 0 1 1 0 0 0 0 1 1 1 0 0 0 1 0 1 0 0 1 1 0 0 0 1 0 0 1 1 1 0 0 0 1 0 0 0 1 1 0 1 1 1 0 1 1 1 0 0 1 0 1 1 0 1 1 1 0 0 1 1 0 1 1 0 0 1 0 0 1 0 1 1 0 1 1 1 1 1 1 1 1 1 1 1 1 1 1 1 0 0 0 0 0 1 0 1 0 0 0 1 0 1 1 0 0 1 0 0 0 1 1 0 0 1 0 0 0 1 1 0 1 1 1 1 0 1 0 0 1 0 0 1 0 0 1 0 0 0 1 0 0 1 1 0 1 1 1 0 1 0 0 1 0 1 0 0 1 1 1 1 0 0 1 0 1 1 0 1 1 1 0 1 1 1 0 0 0 1 0 0 0 1 0 0 0 0 1 1 1 0 1 1 1 1 0 1 1 0 0 1 0 0 0 0 1 0 1 1 0 1 0 0 1 1 1 1 0 1 0 1 0 1 1 0 1 1 1 0 0 1 1 1 1 1 0 0 0 0 1 1 0 0 1 1 0 1 0 0 1 1 1 1 1 1 0 0 1 0 0 0 0 1 0 1 1 0 0 0 1 1 1 1 1 0 0 0 1 0 1 0 1 1 1 0 1 1 0 1 1 0 1 1 1 0 0 1 0 0 1 0 1 0 1 1 0 0 0 0 1 0 0 1 0 1 1 0 0 0 1 0 1 0 0 1 0 0 0 1 1 1 1 1 0 0 1 1 0 0 0 1 0 0 0 1 1 0 1 1 1 0 1 1 0 1 0 1 0 1 1 1 1 1 1 1 0 1 1 0 0 0 0 0 1 1 0 0 1 1 1 1 1 0 1 0 1 1 0 0 1 0 1 1 0 0 1 1 1 0 1 1 0 1 0 0 1 1 0 1 0 0 1 1 1 1 1 1 0 0 0 0 0 0 1 1 1 1 1 1 0 0 0 0 1 0 0 1 1 0 0 0 1 1 1 0 0 1 1 1 1 0 1 0 0 1 0 1 0 0 1 0 1 1 0 0 0 0 0 1 1 0 1 0 0 1 0 1 0 0 0 0 0 0 0 0 0 1 1 1 0 0 0 1 0 0 0 1 0 1 0 1 1 1 0 1 0 1 0 0 0 0 1 1 1 1 0 0 0 0 1 0 1 0 1 0 1 1 0 0 1 0 0 0 1 0 0 0 0 1 0 1 0 1 1 1 1 0 1 0 0 0 1 1 0 1 0 1 0 0 1 0 1 1 0 1 0 1 1 1 0 1 0 0 1 1 0 1 1 1 0 1 1 0 1 0 1 1 1 0 0 1 0 1 0 1 0 0 0 0 0 1 1 1 1 0 1 1 0 1 0 1 1 0 1 0 0 1 1 1 1 0 0 1 0 1 1 0 0 1 1 0 1 0 0 0 1 0 1 1 0 1 1 1 0 0 1 1 1 0 1 1 0 1 1 0 0 0 0 1 0 0 0 0 0 1 0 1 0 0 1 1 1 1 1 1 1 0 1 1 1 0 1 0 0 1 1 0 1 0 1 0 1 1 0 0 1 1 0 0 0 0 1 1 0 1 1 1 0 1 0 1 1 0 1 1 1 0 1 1 0 1 1 1 1 1 1 1 0 0 1 1 1 0 0 0 1 1 1 0 1 1 1 0 1 0 0 1 1 1 0 0 0 0 1 1 1 0 1 0 0 1 0 1 0 1 0 0 0 1 0 1 1 1 1 1 1 0 0 1 1 1 1 0 0 1 1 0 0 0 0 1 1 1 1 1 1 1 0 1 1 0 0 0 1 1 0 1 0 0 1 1 0 0 1 1 0 0 1 1 1 1 0 0 1 0 0 0 1 1 1 1 0 1 1 0 1 0 0 1 0 0 0 1 1 0 1 0 0 0 0 1 0 1 1 1 0 1 0 1 1 0 0 0 0 0 1 0 0 0 0 0 1 0 1 1 0 1 0 0 0 1 1 1 1 1 1 1 0 0 0 0 0 1 1 1 1 1 1 0 1 0 1 1 1 1 1 1 0 0 0 0 0 1 0 1 0 1 0 1 1 0 0 0 1 1 1 0 0 0 0 0 0 0 1 0 1 1 0 0 1 0 0 1 1 1 1 0 0 1 0 1 0 1 1 0 0 0 0 1 0 1 0 1 1 1 0 0 1 0 1 0 1 0 1 0 0 0 0 0 0 1 1 1 0 1 1 0 0 0 1 0 1 1 1 0 0 1 1 1 0 0 0 0 1 0 0 1 0 0 1 1 0 1 1 1 1 1 1 1 0 0 0 0 0 1 0 1 0 1 1 1 1 1 0 0 0 0 1 0 0 1 1 1 1 0 1 0 1 1 1 0 0 1 1 1 0 0 1 0 0 1 1 1 1 0 0 0 0 0 0 1 1 1 0 1 0 1 0 0 1 1 1 0 0 0 0 1 0 0 0 0 1 1 1 0 1 0 0 1 1 1 0 0 1 0 0 1 0 0 0 0 0 0 1 1 1 0 1 0 0 0 0 1 0 1 1 1 1 1 1 0 0 0 1 0 0 1 0 1 1 0 0 0 1 0 0 1 0 0 1 1 0 0 1 1 0 1 0 1 1 1 0 0 0 0 1 1 0 0 1 1 0 1 1 0 0 0 0 1 1 0 0 1 1 1 0 0 1 1 1 1 0 0 0 0 1 0 1 0 1 0 1 1 1 1 1 1 0 0 1 0 0 1 1 1 1 0 1 1 1 1 1 1 1 1 0 0 0 1 0 0 0 1 0 1 1 1 1 1 0 0 1 0 1 0 0 1 1 1 1 1 0 0 1 1 1 0 0 1 0 1 0 0 1 1 0 0 1 0 0 1 1 1 0 0 1 0 1 1 0 1 1 0 0 0 0 1 0 1 0 1 0 0 0 0 0 0 1 1 1 1 0 0 1 1 0 0 0 1 0 1 1 1 1 1 0 0 1 1 1 0 0 0 0 1 1 1 1 1 1 1 1 1 0 1 0 0 0 1 1 1 1 0 1 0 0 0 0 1 0 0 1 1 0 0 1 1 1 0 1 1 1 1 0 1 0 0 0 1 1 0 0 1 0 1 0 1 1 0 0 1 1 1 1 0 0 0 1 0 0 1 0 0 1 0 0 1 0 1 1 0 0 0 0 1 0 0 0 0 1 0 1 0 0 1 1 0 1 1 1 0 0 1 0 1 0 0 0 1 1 1 1 0 0 1 0 1 1 0 0 1 0 0 1 1 0 1 0 1 0 0 0 0 0 0 1 0 1 1 1 1 0 1 1 1 0 0 0 1 0 1 0 0 0 1 1 0 1 0 0 1 1 0 0 1 1 0 1 0 1 0 1 0 1 0 1 1 0 1 1 0 1 1 1 1 0 0 0 0 1 0 1 0 1 1 1 0 1 0 1 1 1 0 0 0 1 1 1 1 0 0 1 0 0 0 0 1 0 0 0 1 1 0 1 1 1 1 0 0 1 0 0 1 0 0 0 0 0 0 0 0 1 1 1 1 1 0 1 0 0 1 1 1 1 1 1 1 0 1 1 1 0 0 0 1 1 1 1 0 1 1 1 0 0 0 1 1 1 1 1 0 1 1 1 0 1 0 1 0 0 1 1 1 0 1 0 1 1 1 1 0 0 1 0 1 0 1 1 0 1 1 1 1 1 0 0 1 0 1 1 1 0 0 0 1 1 1 1 1 0 0 1 1 1 0 1 1 0 0 0 1 0 0 0 1 1 0 1 1 0 0 1 0 0 1 0 1 1 1 0 1 1 1 0 0 1 1 1 1 1 1 0 0 0 0 1 0 1 1 0 1 1 1 1 0 1 0 1 1 0 1 0 0 1 0 1 0 0 0 0 0 0 0 1 1 0 0 0 0 1 0 1 0 1 1 0 1 1 1 1 0 1 1 0 0 1 1 1 1 1 1 1 1 1 0 1 0 0 0 1 0 1 1 0 1 1 1 0 0 0 1 0 1 0 0 0 1 0 0 0 1 1 0 1 1 0 0 1 1 1 0 0 1 0 1 0 0 1 1 0 1 1 1 0 0 1 1 0 1 0 0 0 1 1 0 1 0 0 1 0 0 0 0 0 0 0 0 1 1 0 0 0 1 0 0 0 0 0 0 1 0 1 0 1 1 1 0 0 1 0 1 0 0 0 0 1 0 0 1 0 1 0 1 1 0 1 1 0 1 0 0 0 0 0 1 0 1 0 0 0 0 0 0 1 0 1 0 0 1 0 1 0 1 1 1 1 1 0 0 0 0 0 0 0 1 1 1 1 1 1 1 0 1 0 0 1 0 1 0 1 0 0 1 0 0 0 1 0 0 1 1 0 1 1 1 0 0 1 0 1 0 0 0 0 0 0 0 0 0 1 0 0 0 0 1 0 0 0 0 1 1 1 1 0 0 0 0 1 0 0 1 1 1 1 1 1 1 0 1 1 0 0 0 1 0 1 0 0 0 1 1 0 1 0 0 1 0 1 0 0 1 1 0 1 0 0 1 1 0 0 1 1 1 0 1 0 0 1 1 0 1 1 0 1 1 0 1 0 0 0 1 1 0 1 1 0 1 1 0 1 1 1 1 0 0 1 1 1 1 1 1 1 0 0 0 0 1 0 0 0 1 0 1 1 1 0 0 0 0 0 1 0 0 0 0 1 0 1 0 1 1 1 0 1 0 1 1 0 1 0 0 0 1 0 0 1 0 1 1 1 1 1 0 0 1 0 1 1 1 1 1 0 0 1 1 1 1 0 1 0 1 0 0 0 1 0 0 0 0 1 1 1 1 1 0 1 1 0 1 0 0 1 1 0 1 0 0 0 0 1 1 0 1 0 0 1 1 1 1 1 1 1 1 0 1 1 1 0 0 1 1 1 1 1 1 0 0 1 0 0 0 1 0 0 1 0 1 0 0 0 1 1 0 1 0 1 0 1 0 1 1 1 0 1 0 0 1 1 0 0 0 1 1 1 0 1 1 0 1 1 1 1 1 1 0 0 0 1 1 1 1 1 1 1 1 1 0 0 0 0 1 0 0 0 1 1 1 0 1 0 1 1 1 1 1 1 1 0 1 1 0 0 1 1 1 1 1 0 1 0 0 1 0 0 1 1 0 0 1 0 0 0 1 0 1 0 0 0 0 1 1 0 1 1 0 1 1 0 0 0 0 0 1 1 0 1 1 1 0 1 1 1 0 0 1 0 1 1 1 0 0 0 0 0 1 0 1 1 1 0 1 0 0 0 0 1 0 1 1 0 1 0 0 0 1 1 0 0 0 0 0 0 0 1 0 1 0 1 0 0 0 1 0 0 1 1 0 1 1 0 0 1 1 1 0 1 1 1 1 0 0 1 1 1 0 1 0 0 0 0 1 0 1 1 1 0 1 1 1 0 0 1 0 0 0 1 1 1 1 1 0 1 1 1 0 1 0 0 0 1 1 0 1 0 1 1 1 0 1 0 1 1 1 1 0 1 0 0 1 0 1 1 0 1 0 1 0 0 0 1 1 1 1 0 0 0 0 0 1 0 0 0 0 0 1 0 1 1 1 1 1 0 1 1 1 1 1 0 1 1 0 1 1 1 1 1 0 1 0 1 1 0 0 1 0 1 1 0 0 0 0 1 1 1 0 0 1 0 0 0 0 0 1 0 1 0 1 1 0 0 1 0 0 1 1 1 0 1 0 1 1 0 0 1 1 0 0 0 1 1 1 0 0 0 1 1 1 1 1 1 0 0 1 1 0 1 0 1 1 1 0 0 1 1 0 1 0 0 1 1 0 0 1 1 1 0 1 0 0 1 0 0 0 1 1 1 1 1 1 0 1 1 1 1 0 1 1 0 0 0 0 1 0 1 0 0 1 0 0 0 0 0 0 1 0 0 0 0 0 0 0 0 0 1 1 0 0 0 1 1 1 1 0 0 1 1 1 0 0 0 1 1 1 0 1 1 1 0 1 1 1 0 1 1 1 0 1 0 0 0 1 0 0 0 0 1 1 0 0 0 0 1 0 0 1 0 0 0 0 1 1 1 0 1 0 0 0 0 1 1 1 1 0 1 0 0 1 1 1 0 0 1 1 0 1 1 0 0 1 1 1 0 1 1 1 1 0 1 1 0 1 1 0 1 1 1 1 0 0 0 0 0 0 0 1 0 1 0 1 0 1 1 0 1 0 0 1 0 1 0 0 1 1 1 1 1 0 0 0 0 0 1 0 0 1 1 0 0 1 1 1 0 1 1 1 0 1 1 0 1 1 1 1 0 0 1 1 1 1 1 0 1 1 0 1 1 0 1 0 1 1 1 0 1 1 1 1 1 1 0 0 0 0 1 0 0 1 1 1 1 1 1 1 1 0 0 1 0 1 1 1 0 0 0 0 1 0 0 0 0 1 1 1 1 1 0 0 0 0 0 1 0 0 1 0 1 1 1 0 0 1 0 1 1 0 0 0 1 0 0 0 1 1 0 0 1 1 1 0 1 1 0 1 1 0 0 1 0 0 0 1 1 0 0 0 1 0 0 1 1 0 0 0 0 0 1 0 1 1 0 0 0 1 0 1 1 1 0 0 1 0 1 1 0 0 1 1 1 0 0 1 0 1 1 1 1 0 1 0 0 1 1 1 1 0 1 1 0 0 0 1 1 0 1 1 0 1 0 0 0 1 0 1 1 1 0 0 1 0 0 1 1 1 0 1 1 1 0 1 1 1 1 0 0 1 1 0 0 0 1 0 0 0 1 0 1 0 0 0 0 0 0 0 1 1 1 0 1 1 1 0 0 1 0 1 1 1 1 0 1 1 1 0 0 1 0 0 1 1 0 0 1 0 0 0 0 0 1 1 1 0 1 0 1 1 0 0 0 0 1 0 1 1 0 1 0 1 0 1 0 1 1 1 0 1 0 0 0 0 1 0 0 1 0 0 1 0 1 0 1 0 0 1 1 0 1 1 0 1 1 0 0 0 1 1 1 1 0 0 0 1 0 0 1 0 0 1 0 1 0 0 1 0 1 0 0 1 0 0 1 1 0 0 0 0 1 1 0 1 0 1 1 0 1 0 0 1 1 1 1 1 1 1 1 1 0 0 1 1 1 0 0 1 0 1 0 0 1 0 1 1 1 1 1 0 0 1 1 1 1 0 0 0 0 0 0 1 0 0 0 1 0 0 0 1 1 1 0 1 1 0 0 0 1 1 1 1 1 0 0 0 1 1 1 0 0 1 0 1 0 0 0 1 0 1 0 0 0 1 0 1 0 0 0 1 1 1 0 0 1 1 1 0 1 1 0 0 1 1 1 0 1 0 1 1 0 1 1 1 1 0 1 1 0 1 0 1 0 0 0 0 0 1 0 0 1 1 1 0 1 0 0 0 1 0 1 1 1 0 0 1 1 0 0 1 0 1 0 0 0 0 1 1 1 1 0 1 1 1 1 1 0 1 1 0 0 0 1 0 0 1 0 0 0 0 1 0 0 0 1 1 0 0 1 0 0 1 1 0 1 1 1 0 0 1 0 0 1 0 1 0 1 1 0 0 0 1 1 1 0 0 1 1 1 0 1 0 1 0 0 0 1 1 1 1 0 1 1 0 0 0 1 0 1 0 1 1 1 1 1 1 1 0 0 1 0 0 0 0 0 1 1 0 0 0 1 0 0 0 1 1 0 1 0 0 1 1 1 1 1 1 1 0 1 0 1 0 0 0 1 0 0 0 0 1 0 1 1 0 1 1 0 0 1 0 1 1 0 0 0 0 0 0 0 0 0 1 1 1 1 1 1 1 1 0 0 0 0 0 1 0 1 1 0 0 1 0 0 1 1 1 1 0 1 1 0 1 0 0 0 1 0 0 0 0 1 1 1 1 1 1 1 1 1 1 0 0 0 1 1 1 0 0 0 0 1 0 0 0 0 1 0 0 1 1 0 1 0 0 1 1 0 0 1 1 0 1 0 1 0 1 1 1 1 0 0 1 0 0 0 0 1 1 1 1 0 0 1 1 1 0 0 1 0 1 1 0 0 0 0 1 1 1 0 1 0 0 0 0 0 1 0 0 0 0 1 0 1 0 0 0 1 1 0 0 0 1 0 0 1 0 1 0 0 0 0 1 0 0 0 1 1 0 0 1 0 0 0 1 1 0 0 1 0 1 0 1 0 1 1 1 1 1 0 0 1 0 1 1 1 1 1 0 1 0 1 1 1 1 1 0 0 0 0 0 1 1 0 1 0 0 1 1 1 1 1 1 1 0 0 0 1 1 1 1 1 1 0 1 1 0 0 1 0 0 1 0 0 1 1 0 1 1 1 0 1 1 1 1 1 1 1 0 1 0 0 1 1 1 1 1 0 1 0 1 0 1 0 1 0 0 0 0 1 0 0 1 1 1 1 1 0 1 0 0 1 1 1 1 0 0 0 1 1 1 0 1 1 1 1 0 1 1 1 0 0 1 1 0 1 0 0 0 0 1 1 1 0 0 1 0 0 0 0 0 1 1 0 0 1 1 1 0 0 1 1 1 0 0 0 0 0 1 0 1 1 1 0 0 1 1 1 1 1 1 1 0 0 0 0 1 0 0 1 0 0 0 1 0 0 0 0 1 1 1 1 0 1 0 1 1 1 1 0 0 0 0 0 0 1 1 1 0 1 0 1 1 1 1 0 1 0 1 0 1 1 1 0 0 1 1 0 0 0 1 0 0 1 1 1 1 0 1 0 1 1 0 0 1 1 0 1 1 1 0 1 1 1 1 1 1 0 0 1 1 1 1 1 0 0 1 0 0 0 1 1 1 1 1 1 0 1 1 0 1 1 1 1 0 1 0 1 1 0 1 1 0 0 0 1 1 1 0 1 1 1 1 1 0 0 1 0 0 0 1 0 0 1 0 1 0 0 1 0 1 0 1 1 1 1 0 1 0 0 0 1 1 0 0 0 0 1 1 1 1 0 0 0 1 1 0 1 0 1 0 0 1 0 1 1 0 0 1 0 0 1 0 1 0 0 0 1 0 1 1 1 0 1 1 1 1 0 1 1 1 1 0 1 0 0 1 1 0 0 1 0 0 0 1 1 0 0 0 1 0 1 0 1 0 1 1 1 1 1 1 1 1 1 0 0 1 1 0 0 0 0 1 0 0 1 0 0 0 0 1 0 0 0 1 0 0 0 0 1 0 1 0 0 0 0 1 0 0 0 1 0 1 1 1 1 0 1 1 0 0 0 1 0 0 1 1 1 0 1 0 1 1 1 0 1 1 1 0 1 0 1 0 1 1 1 0 0 0 0 0 0 0 1 0 0 1 0 0 1 1 0 1 1 1 1 0 0 1 0 0 1 0 0 0 0 1 0 1 1 1 0 1 1 1 0 0 1 0 0 0 0 1 0 1 1 0 1 1 1 0 0 1 1 0 0 0 0 0 1 1 1 1 0 0 0 0 0 0 0 0 1 1 1 1 0 1 1 1 0 1 1 1 0 1 0 0 1 0 1 1 0 1 1 1 0 0 1 1 0 0 1 1 0 1 0 1 0 1 0 1 1 0 0 0 1 1 0 1 0 1 1 1 1 0 0 1 1 0 0 1 0 1 0 1 1 1 0 0 0 1 0 0 0 0 1 1 1 1 0 0 0 0 1 1 1 1 1 0 1 0 1 1 0 1 0 1 1 1 1 0 1 0 0 1 0 0 1 1 0 0 0 0 1 0 1 0 1 1 0 1 1 0 0 1 1 1 1 1 1 1 0 0 0 1 1 1 0 0 1 0 1 0 1 0 1 1 0 0 0 0 0 1 1 0 0 0 0 1 0 0 1 1 0 0 0 0 1 0 0 0 1 0 0 0 1 0 1 0 0 1 1 0 1 0 1 1 0 1 0 1 0 1 0 1 0 0 0 1 0 1 1 0 0 1 0 1 0 0 0 0 1 1 0 0 1 0 0 0 1 1 0 1 0 0 1 0 1 1 0 0 1 1 1 0 0 0 0 0 0 1 1 0 0 0 0 0 1 1 0 0 1 0 0 0 0 0 0 1 1 1 1 1 1 1 1 0 0 0 1 0 1 1 1 0 0 1 1 0 0 1 0 1 0 0 0 1 0 1 0 0 0 1 0 1 1 1 0 0 0 1 0 0 0 1 1 1 1 1 1 1 0 0 1 1 0 0 1 0 0 0 1 1 0 1 0 1 1 0 0 0 1 0 1 1 0 1 1 1 1 0 0 0 1 0 1 0 1 0 0 0 1 1 0 0 0 0 1 0 0 0 1 1 1 1 0 0 0 0 0 0 1 0 0 0 1 1 0 1 1 1 1 1 1 0 0 0 0 1 0 1 0 0 0 0 1 0 1 1 1 0 1 1 1 1 1 0 1 1 1 1 1 1 1 1 0 1 0 1 1 1 1 0 0 1 1 1 1 1 0 1 0 1 0 1 0 1 0 1 1 1 0 1 1 1 1 0 1 1 0 0 1 1 0 1 0 0 0 0 0 0 1 0 1 0 1 0 1 1 0 0 1 0 0 0 0 1 1 0 1 1 0 0 0 1 1 0 0 0 0 0 1 0 1 1 0 1 0 0 1 1 0 1 0 1 0 0 1 1 1 0 0 0 0 1 1 0 0 1 0 1 1 1 0 1 0 0 1 1 0 1 0 1 0 1 0 1 1 0 1 0 1 0 0 1 0 0 1 0 1 0 1 0 0 1 1 0 0 0 0 1 0 1 0 1 0 1 1 0 0 0 0 1 0 1 1 1 0 0 1 0 1 0 1 1 0 1 1 0 1 1 0 0 0 0 0 1 1 0 1 0 0 1 0 1 0 1 1 1 0 1 0 1 1 1 0 1 0 1 1 0 1 1 0 1 0 0 1 1 0 1 1 0 1 0 1 0 1 0 0 0 0 1 0 0 0 1 0 0 1 0 1 1 0 1 0 1 0 0 0 1 1 1 1 0 1 1 0 0 1 1 0 1 0 0 1 0 1 0 0 1 0 0 1 1 1 0 0 0 1 1 1 1 1 0 1 0 1 1 1 0 1 0 0 0 1 1 0 0 1 0 1 0 1 0 0 1 0 1 0 0 0 0 1 0 1 0 0 1 1 1 1 0 0 0 0 0 0 0 0 0 1 0 1 1 0 0 0 1 0 0 1 0 1 1 0 0 1 0 1 1 1 0 0 0 1 1 0 1 0 1 0 1 0 1 0 1 0 1 1 0 1 0 0 0 1 1 1 1 0 1 1 0 0 1 1 1 0 1 0 0 1 0 1 1 1 0 1 1 1 0 0 0 0 1 0 1 0 0 0 0 0 1 0 0 0 0 1 0 1 0 0 1 0 1 1 0 1 1 0 0 0 1 0 1 0 1 0 0 1 0 0 1 1 1 0 1 1 1 1 1 0 1 0 1 1 1 0 0 1 0 0 1 0 1 0 0 1 1 0 1 1 1 0 1 0 1 0 1 0 0 0 1 0 0 0 0 1 1 0 1 0 1 0 0 0 0 0 0 0 1 0 0 0 1 0 0 0 0 1 0 1 1 1 1 0 1 1 0 1 1 0 0 1 0 0 1 1 1 0 1 1 1 0 1 0 1 0 1 0 0 0 0 1 1 1 0 0 1 0 0 0 0 0 1 0 0 1 1 0 0 0 0 0 0 0 1 0 0 0 1 0 0 0 1 1 1 0 1 0 1 1 1 1 1 1 0 1 1 1 0 0 0 1 1 1 0 1 0 0 1 1 0 0 0 1 0 1 0 1 1 0 1 1 1 0 1 0 1 1 0 1 1 0 0 0 1 1 0 1 1 0 0 1 0 1 1 0 1 0 1 0 0 0 0 0 1 1 0 1 1 0 1 1 1 1 0 0 1 1 1 0 1 0 0 1 1 0 0 1 1 1 0 0 0 0 0 0 1 0 0 0 0 0 1 0 1 0 0 0 0 0 0 1 0 0 0 0 0 0 1 1 0 1 0 1 1 0 1 0 1 0 0 0 0 0 1 1 1 1 0 1 0 0 1 0 0 1 0 0 1 1 0 1 0 1 0 1 1 0 1 1 1 1 0 0 1 1 1 0 1 0 0 0 1 0 1 0 0 0 1 0 0 0 0 1 0 1 0 1 1 1 0 0 0 1 1 1 1 1 1 0 0 1 1 0 0 1 1 0 1 1 1 0 1 0 0 0 1 1 1 0 0 1 0 1 0 1 0 1 0 0 1 0 1 0 0 0 1 1 0 1 0 1 0 0 1 1 1 0 1 0 0 1 1 0 0 1 1 0 1 0 0 0 0 1 1 0 0 1 0 1 1 0 1 0 1 1 1 1 1 1 1 0 1 1 0 1 0 0 1 0 0 0 1 1 1 1 0 1 0 0 0 0 1 1 1 0 1 0 1 0 0 1 0 0 0 0 0 1 1 1 1 0 0 0 1 1 1 1 0 1 0 0 0 0 1 0 1 1 1 1 0 1 1 1 0 1 1 0 0 0 1 0 1 1 1 0 0 0 0 0 1 1 1 1 1 1 0 0 1 1 0 1 1 0 1 1 0 1 1 0 1 1 1 0 1 1 1 1 0 0 0 1 1 1 0 1 1 0 1 0 1 0 0 1 1 0 0 1 1 1 1 0 0 0 0 1 1 0 1 0 0 0 0 1 0 0 0 0 0 1 0 1 0 1 0 1 1 0 0 1 1 1 1 1 0 0 1 1 0 0 0 0 1 0 0 0 0 0 1 1 0 1 0 0 0 1 1 0 0 0 0 1 1 1 0 1 1 0 1 1 0 0 0 0 0 0 1 0 1 1 1 0 1 0 0 1 1 0 0 0 1 0 1 0 1 1 1 1 0 1 1 0 1 0 1 1 0 1 1 1 0 0 1 0 0 1 0 1 0 0 0 0 1 1 0 1 1 0 0 1 1 0 1 1 1 1 1 0 0 0 0 0 1 0 0 0 0 1 1 0 0 1 1 0 0 0 1 0 0 0 0 0 1 1 1 0 1 0 0 0 0 1 1 0 1 0 0 1 1 0 0 1 0 0 1 0 0 0 1 1 0 0 0 0 0 0 0 1 1 0 0 1 0 0 1 1 1 0 0 0 0 1 0 0 1 0 1 1 1 1 0 1 0 1 1 1 0 1 0 0 0 0 1 1 1 1 0 1 1 0 0 1 0 0 0 1 0 0 1 1 0 0 1 1 1 1 1 0 1 1 1 0 1 0 1 1 0 0 0 0 1 0 1 1 0 0 0 0 1 0 0 1 0 0 1 1 0 0 1 1 0 1 1 1 1 0 0 1 0 0 0 0 0 0 1 1 0 0 1 0 1 1 1 1 0 0 0 1 1 0 1 0 1 0 0 0 1 1 1 0 0 0 0 1 1 1 0 0 1 1 0 0 1 0 1 0 1 0 0 0 1 0 1 0 0 0 0 1 1 0 1 1 1 0 0 0 0 0 1 1 0 1 1 0 0 1 1 0 0 1 1 0 1 1 1 1 1 0 0 0 1 0 0 1 0 0 0 1 0 0 1 1 1 0 0 1 1 1 1 0 0 1 1 0 1 1 1 1 0 1 1 1 0 1 1 1 0 1 0 0 0 1 0 0 0 0 1 0 0 0 0 1 1 1 0 0 0 1 1 0 1 0 0 1 0 1 0 0 0 0 1 0 0 1 1 0 1 0 0 0 0 0 0 0 0 1 1 1 1 1 1 1 0 1 1 0 0 0 1 0 1 0 1 1 0 1 0 0 1 0 1 1 1 1 1 1 1 0 1 0 0 1 1 1 1 1 0 1 1 1 1 0 0 0 1 0 0 0 1 1 1 0 0 1 1 0 0 1 1 1 1 0 0 0 1 1 0 1 1 1 0 1 1 0 1 1 1 0 0 1 0 1 1 1
1915 4737
225 567
4491 1817
58 143
2557 6341
1580 3908
1790 4424
7527 3027
2683 6666
6749 2718
1060 423
8107 3260
1910 765
841 2101
3530 1427
1943 777
4591 1857
413 1034
814 2037
2396 5939
6985 2815
4347 1759
2896 1171
919 2293
1970 4868
7114 2866
1960 4843
2950 1193
2190 877
6177 2492
84 34
1132 450
1706 4219
842 335
4307 1743
1 3
4109 1664
2434 6037
7560 3040
8013 3222
7271 2927
2029 5011
1678 669
2913 1178
776 309
1212 483
7719 3104
290 732
1618 3999
6061 2445
1194 2952
1197 2959
7128 2871
7570 3044
6327 2552
2407 963
7672 3086
854 2135
2981 7408
2862 1156
5905 2383
6824 2748
4702 1901
2044 5045
6974 2810
1126 2788
813 324
1804 721
2258 5586
7145 2878
2877 7144
2022 808
5217 2112
6255 2524
7643 3073
2206 5456
2718 1096
1326 3282
142 358
2677 6648
753 1879
436 1094
2544 1021
173 441
5890 2377
5403 2186
6013 2425
791 1980
7628 3068
959 2396
7979 3209
2372 5875
5413 2190
1043 416
4766 1928
2517 6238
2580 6399
474 1193
2888 7174
1631 4030
1381 549
1426 3527
4125 1670
500 1256
683 271
1444 574
7486 3012
3137 7802
679 1701
7994 3215
8077 3247
7577 3047
521 205
2439 976
2967 7373
817 2043
2963 7364
177 452
142 57
3208 1299
438 1099
266 668
2506 1005
4653 1881
254 639
1785 4413
1118 2768
332 834
8 21
6763 2724
3312 8233
3290 1330
203 82
1162 2876
3644 1474
4563 1846
3066 1240
5910 2385
7613 3062
24 61
1407 3479
819 327
3053 7589
2843 7057
1301 517
529 209
426 1068
922 2301
7060 2844
1612 642
2065 5099
3295 8197
1153 2855
4086 1655
1859 745
1873 750
930 2321
1629 4025
927 2313
5158 2088
6650 2678
6667 2684
2138 5284
2260 906
5734 2317
576 228
229 91
758 1893
2804 6959
991 2474
3986 1613
1914 766
1367 544
4590 1856
1732 4281
381 956
585 1470
3165 7872
3240 8060
2099 840
6252 2522
2651 1066
3715 1502
129 52
6380 2573
3131 7788
2348 5815
5106 2068
1480 3662
2138 856
6694 2694
5836 2356
1478 589
1779 4397
2137 5282
2455 6090
2577 1034
2774 6887
1404 3472
1663 663
580 229
1832 4527
5287 2139
7873 3165
1105 2738
498 195
7707 3099
1175 467
3000 1214
1087 2699
6939 2795
126 51
6587 2653
572 227
1738 4295
2943 7314
4105 1662
2247 5557
7888 3171
1861 4603
3006 1216
114 288
6273 2531
2108 5207
1811 4476
2987 1209
18 43
2918 1180
5758 2326
879 350
3112 7739
2757 6845
3133 7793
1169 465
6506 2622
5581 2256
2654 1067
4777 1933
1642 4052
1394 3446
3385 1370
2900 7204
5286 2139
2045 5048
1019 2540
7167 2886
4939 1999
6233 2515
2369 948
5151 2085
2583 6405
2496 6186
449 1130
1991 796
725 1813
1681 4151
125 316
5467 2211
399 999
3110 7734
3286 1328
2630 1057
5388 2180
6300 2543
3227 8026
4846 1961
1084 2694
1932 4775
1682 671
480 1205
248 624
6454 2600
1878 4647
1158 461
1566 3873
5122 2074
6704 2698
456 179
2566 6362
1231 3043
3259 1318
3507 1419
1953 4826
4942 2001
2652 6586
908 2264
1101 2729
6040 2435
1330 3291
5312 2149
1188 2936
879 2195
3005 7469
1261 3116
565 1423
1585 3919
357 141
2478 6145
1899 4698
877 349
2381 953
1389 3435
2077 5130
2221 5496
6564 2643
7146 2878
1992 4920
3145 1273
1501 3712
6768 2726
4987 2020
4201 1699
766 306
1590 634
5506 2226
7697 3095
2384 5906
1514 3745
6450 2599
4882 1975
7711 3101
1022 2549
3289 1329
6154 2482
3560 1440
6106 2461
3932 1591
2944 7319
5416 2191
471 1184
987 2462
2705 6719
73 181
45 109
4098 1659
4880 1974
6297 2541
5491 2219
6240 2518
443 173
65 26
2116 846
3246 1313
7321 2945
368 923
1708 4223
1461 581
954 380
6799 2738
3231 8038
5069 2054
6815 2744
1513 3743
4641 1876
5727 2314
1688 4170
3896 1576
1262 3119
420 1052
1819 4496
4283 1733
2592 1041
2073 5119
296 746
619 1553
6560 2642
656 1643
7312 2942
6072 2448
1746 4317
1512 3741
2243 899
7138 2875
1117 2767
872 2178
6347 2560
1430 3535
3927 1589
5124 2074
954 2382
5912 2386
2591 6430
65 160
2202 5448
1733 4284
437 1098
6839 2755
1270 3137
2030 5012
2174 870
679 1703
2372 5876
2440 6050
911 2271
6470 2607
901 2248
3237 8051
3250 1315
670 1679
7361 2962
3052 7588
181 461
2485 995
29 11
2818 6994
3157 7851
1332 529
242 610
7112 2865
2404 5961
32 79
218 552
7116 2867
1812 4479
4545 1840
6730 2710
2764 6864
2230 5516
989 2469
1459 3608
1169 2891
2459 6099
7496 3016
2267 5611
1279 3162
5975 2410
3327 1346
1334 3301
1542 614
501 197
6370 2569
2510 6222
4162 1685
4597 1859
2413 5983
1349 536
2714 6738
6562 2643
7016 2827
3459 1399
3101 7713
1319 3261
2286 5661
2921 7259
2786 1126
4339 1755
2234 5526
1907 4718
2186 875
3026 7524
3232 1308
5418 2192
736 1837
1000 399
1355 3348
4840 1958
2400 5949
3943 1595
2976 7395
2240 898
3485 1410
515 1294
1750 699
187 76
7389 2974
5618 2269
1428 3531
7928 3188
2810 6975
1966 4858
3236 1310
1652 659
2662 1070
6576 2649
2036 5027
2835 1146
16 40
2731 6783
655 261
1560 3858
763 1907
7910 3181
1379 3408
7525 3026
6890 2775
6465 2604
4970 2012
1224 3027
1310 3237
3157 1278
1672 667
5292 2142
1209 2986
2152 5318
416 1044
2315 5729
1135 2809
1661 663
2492 6178
906 361
2687 6674
3189 7930
2674 6642
2388 956
1421 3512
2913 7239
760 303
3161 7863
2863 1156
5531 2236
3292 1330
4364 1767
5778 2334
2842 7055
7132 2873
1626 4019
5858 2365
1477 3654
4586 1855
6016 2426
1668 4120
7638 3072
1924 4757
5226 2115
6896 2777
7952 3198
4874 1972
762 1905
1064 2647
3269 1322
1779 4398
7028 2831
1267 3130
2994 1212
2250 5565
1482 3666
2144 5298
4909 1987
3118 7753
605 239
382 957
2587 6418
6995 2819
8001 3217
6308 2545
7929 3188
1993 797
2304 5701
3095 1252
482 1211
734 1832
3332 1348
2527 1014
5505 2225
2904 1175
5325 2155
1085 2695
203 514
1563 623
7166 2886
3144 7820
1913 766
7189 2895
949 378
842 2104
3020 1222
627 250
1837 4538
3155 7846
4435 1795
88 221
7761 3121
6511 2624
8020 3224
2356 5834
3499 1416
3252 1315
4895 1981
3261 8111
3857 1560
1693 675
5447 2202
2196 5430
128 322
815 2038
1037 414
6658 2680
1262 3118
3628 1468
1739 695
3425 1385
5824 2352
1091 435
3466 1402
245 616
6796 2737
1210 2988
4973 2014
1408 3482
1425 3524
153 389
4123 1669
7817 3143
50 123
6958 2804
702 1758
1059 2635
4227 1709
5400 2185
5415 2190
1924 769
904 2254
7660 3081
971 388
2836 7039
2541 1020
594 1492
3004 1216
2600 1044
4807 1945
2879 1163
8134 3271
7619 3065
1479 3658
2266 909
101 253
1431 3539
2603 1045
707 280
7827 3147
871 347
2636 6542
75 184
2633 1058
3205 7967
2256 905
2985 7415
2410 5976
525 1321
2817 1139
1622 4009
2136 5277
2664 1071
2351 5822
2456 984
337 845
2023 4995
1191 2945
1059 2634
7233 2911
2417 967
267 671
1497 3705
1575 3895
1303 3218
2567 1030
307 771
551 1384
884 2207
1364 542
515 203
2 6
1823 4505
2015 805
118 297
6098 2458
2438 6046
244 614
383 960
2603 6462
627 1575
408 1022
1025 2556
3611 1461
102 256
2394 5934
2700 1087
3272 8137
2464 987
4425 1791
1359 540
6021 2427
2142 5293
3436 1389
3233 8042
2006 4956
127 320
1192 2947
1302 3215
2555 6334
5904 2383
714 1788
152 386
2757 6846
2755 1112
628 1578
2872 1161
340 852
492 1237
753 1880
6302 2543
1477 3652
831 2077
4724 1910
5708 2307
1432 3540
1167 2887
7723 3106
456 1147
4444 1799
1226 488
392 982
3033 1227
1603 3964
1317 524
1508 3731
8081 3249
2157 5331
2224 891
7774 3126
7303 2938
533 1341
1936 4784
857 2141
817 2042
3231 8037
1787 4416
3220 8008
790 1976
5932 2394
4981 2017
1851 4576
2168 5359
1448 3579
7620 3065
2482 994
467 183
5274 2135
1997 4935
2785 6914
3589 1452
1225 3028
275 694
338 134
3282 8163
1229 489
1656 4088
1727 4269
1742 4305
3709 1499
2248 5559
7297 2936
7153 2881
3225 8022
3214 7992
1713 4236
2767 6871
5095 2064
3127 7777
507 200
4750 1921
2468 6123
1910 4725
2633 6535
19 8
6180 2493
4135 1674
410 161
5845 2360
2796 6943
3317 1341
5863 2367
2631 6529
292 737
7435 2992
4348 1759
931 2323
1206 2980
3371 1365
5746 2321
1261 501
207 83
1527 3775
2103 5193
4636 1874
2630 6527
3257 8101
5049 2046
531 1335
4427 1792
778 310
3251 8086
5724 2313
1195 475
8075 3246
263 660
6458 2601
8225 3308
3748 1515
576 1447
4812 1947
2852 7080
1611 3982
681 270
4395 1778
2149 5310
3209 7977
1804 4457
7358 2960
7456 3000
2193 878
2362 5850
7569 3044
1748 698
1658 4095
6797 2737
6953 2801
1102 2731
1196 476
5609 2266
1273 3146
1915 4736
2640 6553
2828 7019
5607 2265
3956 1600
3010 1218
1022 2547
1217 485
6216 2508
2872 7131
463 1164
1558 3853
5986 2414
1385 551
6278 2533
4357 1763
2385 955
1313 3244
6082 2452
3051 7586
2655 1067
1047 2606
2328 5763
4832 1955
3882 1570
1188 2937
2890 1168
2578 6393
1811 4475
1315 523
5085 2060
140 353
2644 1063
247 622
1455 3597
2867 1158
1726 4267
8028 3228
3937 1592
812 324
875 2185
2768 6875
706 1769
8131 3270
2279 914
1991 4918
1945 4808
4018 1626
7029 2832
518 1302
1604 639
2722 6759
2325 5757
1203 479
1918 4742
6582 2651
1056 2627
5419 2192
1601 3958
591 1483
4238 1714
682 271
6024 2428
1752 4332
2168 5358
941 375
1713 4235
2027 5006
3887 1572
2960 1197
2058 5081
3383 1369
4441 1797
115 291
2124 5248
1199 2966
391 154
3201 7959
2717 6745
8212 3302
6583 2651
1506 600
2238 897
4006 1621
37 92
787 1968
1656 660
155 394
3071 7637
2412 5981
7775 3126
2903 7212
3276 8147
2193 5422
3997 1617
2046 5050
2148 5309
533 1342
2766 6869
1960 4844
1326 3281
1418 3503
1904 4709
719 284
212 85
2661 6610
2317 5735
1307 3228
4169 1688
167 425
1102 439
3410 1379
2089 836
1535 3794
3248 8079
2733 1103
1931 772
2781 6906
1729 4273
32 81
3077 7650
6608 2661
2735 1104
2700 6707
1824 4507
6513 2625
2481 6153
7452 2999
6351 2562
7376 2969
3122 7763
3080 1246
750 1871
2245 899
1630 650
2498 6191
193 78
2838 7044
6442 2596
5982 2413
2294 5678
1698 4198
1466 3622
2573 1032
1500 598
2992 7434
1139 453
4943 2001
5181 2097
1383 550
5525 2233
7034 2834
675 1692
1133 2805
3613 1462
430 1079
1463 582
6548 2638
1177 468
2710 6728
7427 2989
2513 1008
2432 973
178 454
618 245
369 925
2829 7021
514 1292
5615 2268
2578 1034
7812 3141
229 578
2684 1080
4721 1909
1313 3245
986 394
3267 8126
2809 6971
890 2219
1437 571
998 2491
806 2018
4789 1938
5698 2303
6256 2524
1111 442
6723 2707
2240 5541
1027 2561
3212 1301
6346 2559
502 197
1630 4028
5192 2102
688 273
1235 492
6804 2740
571 226
808 2023
1222 3021
3293 8192
5462 2208
2854 7083
2491 6175
3138 7804
6563 2643
600 1505
3021 7510
6696 2695
7159 2883
5847 2361
2698 1086
1237 3058
2008 803
257 103
2498 6190
3241 8062
1104 440
2223 5499
6533 2632
466 1174
1406 3475
1527 3774
2910 7229
6876 2769
1690 4176
1531 3782
884 2208
2233 895
4130 1671
267 107
2350 5821
1499 597
5434 2197
1512 3740
1374 3397
7459 3001
6340 2557
1598 3951
6773 2728
2831 7027
880 351
5503 2224
8117 3264
2177 5381
6354 2563
88 35
6397 2579
2167 867
7451 2999
565 224
1707 681
3411 1380
1565 3870
8000 3217
3651 1476
145 58
2370 5871
1621 4004
6053 2442
2952 7337
2160 5340
6422 2588
1933 4776
2528 6266
1393 554
835 333
6957 2803
8232 3311
78 194
1414 562
319 127
978 2443
3476 1406
5327 2156
1588 3925
272 684
1483 3668
529 1331
4835 1956
2978 7401
4728 1912
262 657
5528 2235
3243 8067
5924 2390
709 281
793 1984
2261 5596
192 488
2844 1150
2306 5707
1784 4411
6521 2628
1030 411
886 2211
1106 441
4744 1919
1857 744
3558 1439
2898 1172
2033 5019
3023 7514
1712 4233
5519 2231
400 1002
4035 1634
270 679
2532 1016
22 55
330 828
2518 6241
7632 3069
7307 2940
1474 3643
3252 8087
1891 757
3094 7694
2457 6095
1127 2790
5687 2298
840 334
2572 1032
5271 2134
6416 2586
2420 6001
1740 695
2459 6101
2231 894
7260 2922
3035 7546
6004 2421
6309 2546
714 1787
4013 1624
472 1185
3091 7687
3218 8003
149 380
2024 4999
1930 4770
6791 2734
1611 3981
1750 4327
3994 1616
2349 5816
758 1894
1942 777
4078 1652
3827 1548
991 395
6425 2590
1282 510
365 914
3037 7552
128 323
5449 2203
212 538
6751 2719
2260 5593
5860 2366
1317 3255
810 2028
396 992
2671 6633
2967 7372
5341 2160
876 349
1332 3297
105 262
2660 6607
2525 6259
1560 3859
2753 6835
1731 4277
1159 461
7771 3125
756 301
2854 7085
375 148
2467 6120
1131 450
7623 3066
338 848
2548 6315
6253 2523
1467 3624
6678 2688
2770 1118
7896 3175
374 147
3140 7808
3104 1256
848 2120
2400 5950
7754 3118
4631 1872
6736 2713
7426 2989
5895 2379
2120 5239
2728 1100
1116 444
986 2461
1064 2646
8004 3218
697 1745
544 214
2262 5598
4313 1745
1015 406
965 2411
2617 6494
5733 2317
6525 2630
1216 3005
1103 439
2466 6117
2306 924
516 1297
237 599
7122 2869
339 850
2429 972
2448 6070
2622 6507
878 350
3093 7691
3311 8230
902 360
589 233
724 1810
2089 5162
2889 1168
2226 892
1449 3583
2654 6591
2763 6862
5728 2314
6152 2481
2955 7346
6681 2689
2523 1012
741 1851
4754 1923
7217 2905
1323 526
7585 3051
651 1633
7865 3162
2353 5827
62 154
2957 1196
1829 4517
1419 564
3119 7755
783 312
2465 988
1205 2979
326 129
2331 5771
5862 2367
1555 3845
1110 442
2012 4969
230 582
300 119
7457 3001
6293 2540
2130 5261
5900 2381
7571 3045
1830 4520
962 2404
8208 3301
2379 5894
1535 612
6456 2601
6307 2545
2963 7363
222 562
2586 6414
6325 2551
1269 3136
86 216
2728 6774
2837 1147
2576 6386
3227 1307
3557 1439
2821 6999
2724 1099
2039 815
2332 5773
7649 3076
3030 7534
1425 3523
282 712
1446 3574
970 2425
2908 7225
2007 4957
1306 3225
7171 2887
2475 6139
7448 2998
2172 869
2776 1121
425 1065
10 25
774 1935
3137 7800
1502 3714
1455 3595
822 328
3350 1355
3043 7567
3079 1246
6698 2696
1079 2680
2915 7243
1778 710
3277 1324
1890 4677
498 1251
824 328
1574 3892
92 231
1593 3939
2187 5405
48 118
3209 7978
786 1965
3007 7473
7885 3170
2592 6433
1221 3019
6993 2818
4279 1731
6270 2530
3347 1354
143 363
1457 3600
2742 6809
588 1475
2363 5854
2308 5711
3734 1509
8094 3254
7708 3099
1591 3934
2161 5343
2990 1211
1181 2921
264 106
3788 1533
8096 3255
5044 2044
7455 3000
1514 3746
7609 3061
815 325
2454 983
6902 2779
2874 7135
2223 5500
1728 4270
4907 1986
6621 2666
7685 3091
3158 7855
1116 2765
460 1155
1674 4137
2715 1094
781 311
1905 4710
2536 6285
3019 7505
3268 1321
1225 488
1700 4203
982 2452
1419 3506
1516 3751
882 351
2261 5595
1066 2653
2658 1068
1828 732
1561 3860
352 884
2257 5583
1951 4822
6499 2619
650 259
1446 3575
6213 2507
1121 446
6188 2497
1433 3542
4291 1736
1896 759
730 1824
2201 5444
3493 1413
2291 5673
1808 4469
1001 400
1504 599
185 472
1677 4143
177 72
1045 2602
161 65
1454 3594
2403 5958
3525 1426
1652 4079
4915 1990
1183 2924
1887 4668
8055 3238
5190 2102
1712 4234
8044 3234
4862 1968
6746 2717
1988 4911
2691 6686
77 191
2829 7022
3395 1374
94 38
141 355
649 1628
709 1775
4714 1906
5065 2052
165 420
2463 987
6105 2461
346 867
1677 669
2659 6604
322 808
1699 678
756 1887
5811 2347
2493 999
2652 1066
6274 2531
1628 4024
6822 2747
2848 7071
2618 6496
2725 6765
6007 2422
2451 981
3470 1403
1573 3891
2823 7005
2740 6805
1810 4473
1702 679
2312 5722
5608 2266
390 977
2232 5520
1440 3561
864 2159
2123 5244
421 1055
771 1928
423 1061
1576 627
2713 6737
6537 2634
2923 7262
1836 735
1760 4351
1743 4309
3627 1468
3356 1358
494 1241
1877 4643
2881 1164
2157 863
3390 1371
4166 1687
3235 8047
1339 532
4570 1849
6289 2538
1371 545
6391 2577
2450 6077
1352 3342
4384 1774
4081 1653
2764 6865
319 801
5352 2165
3100 7709
1553 3839
3396 1374
5404 2186
760 1899
1016 406
1938 775
2701 6710
920 2296
3152 1276
1904 762
6038 2435
1569 625
4322 1748
603 1513
3838 1552
100 41
335 841
8012 3221
3871 1565
5870 2370
636 1596
2173 5369
2314 928
1347 3331
496 1247
1428 3532
1213 483
6475 2609
3170 1283
2251 5567
6762 2724
2040 5036
1830 4522
3198 7951
163 66
3231 1308
2803 1133
6910 2783
4 9
2096 839
5072 2055
3681 1488
2304 5700
2716 6743
2987 7422
241 609
47 19
1109 2748
893 2228
163 414
5570 2252
1137 2812
7962 3202
1569 3880
7431 2991
1720 4253
1620 4002
6980 2812
693 275
3418 1382
6625 2667
889 2218
2381 5898
856 2139
21 53
7089 2856
1240 3064
8142 3274
2437 975
513 1291
7850 3156
114 287
188 478
4257 1721
1012 404
812 2033
6961 2805
466 183
2824 7009
37 15
3299 8204
2901 7206
177 451
1687 673
4343 1757
71 28
8068 3243
722 285
1057 2628
3108 7729
2730 6780
5420 2192
7127 2871
1183 471
5254 2127
843 2106
132 53
1965 4857
1959 4841
3149 1275
1336 531
3372 1365
3076 7648
3273 8140
1782 712
654 1639
4338 1754
1591 634
1824 4508
4652 1880
2625 1055
7740 3113
7941 3193
1706 681
1265 3126
5626 2272
6747 2718
864 2158
802 320
3200 7956
155 63
2469 6125
3193 7939
6217 2508
3727 1507
1682 4154
2745 6817
1448 576
4055 1643
2246 900
7236 2912
891 2222
2276 5635
1222 487
2003 4947
754 300
3122 7765
1412 562
732 1827
3721 1505
5005 2027
2880 7151
706 280
6406 2583
2171 869
56 22
612 243
375 942
6006 2422
3128 7779
74 30
5259 2129
219 554
4073 1650
1450 3585
291 734
6336 2555
4978 2016
2113 845
4341 1756
800 2001
617 245
1667 665
3824 1547
2554 6333
8164 3283
240 606
4592 1857
1809 724
3903 1578
655 1641
4871 1971
6081 2452
6593 2655
419 1050
8166 3283
3091 7686
345 866
7490 3014
456 1146
3058 7602
6071 2448
2552 6328
1770 4371
6857 2761
4066 1647
751 1875
567 1428
8205 3299
4409 1784
650 1629
2281 915
3394 1373
5655 2284
4158 1684
1114 443
2973 7386
68 167
129 324
6056 2443
992 2478
2373 5877
3294 8194
5232 2118
2562 6352
2027 810
50 20
1954 4830
4500 1820
6620 2665
2415 5988
2357 944
1992 4921
278 702
2833 7032
2016 4979
2946 1191
4891 1979
1333 3299
2754 6838
1803 721
279 705
3554 1438
2985 1208
1722 687
331 832
2668 6628
193 491
8153 3279
2893 1169
3214 7993
4783 1936
8033 3230
1554 3841
2646 6570
4316 1746
1635 4038
5166 2091
6894 2776
1925 4758
721 285
4187 1694
1724 688
95 238
2247 5556
3587 1451
902 2250
3286 8172
2165 866
2007 4958
7758 3120
6886 2774
2840 7048
2706 6720
2854 7084
27 11
4241 1715
6624 2667
3974 1607
2617 6495
3933 1591
398 998
4337 1754
7280 2930
7848 3156
766 1915
3244 8070
2004 4951
3599 1456
2152 5319
384 963
4287 1735
569 1432
469 1180
775 1937
3129 7781
1452 3588
1334 3300
42 102
4511 1826
4020 1627
344 136
3657 1478
2944 7318
185 471
4443 1798
3781 1530
922 2300
3210 7980
3078 7653
1409 560
2903 7210
217 87
2747 6820
1641 4050
3590 1453
2426 6018
5538 2239
2058 5080
5549 2244
2494 999
2576 6387
2486 6164
4336 1753
2319 930
1935 4781
1076 2673
2887 7170
3059 1237
1121 2777
2826 1143
357 896
2049 5057
1852 4578
2853 7082
4034 1633
1756 701
7572 3045
6224 2511
674 1691
1892 757
1084 432
744 295
5899 2381
2953 7341
1396 555
6619 2665
378 950
2176 5379
535 1346
341 857
238 603
2521 6247
3222 1305
1220 486
3433 1388
577 1450
697 1744
2412 5980
6878 2770
1893 4683
2584 6410
6605 2660
3942 1594
6290 2538
1127 2791
7668 3084
2063 5094
1647 4065
2693 6690
2875 1162
2079 832
1801 4449
3068 1241
1586 3921
1242 3071
489 1227
7308 2940
2590 6427
626 1573
2824 1142
4788 1938
4804 1944
157 64
2400 5951
154 392
1786 4415
2354 943
4131 1672
5469 2212
5357 2167
4215 1704
1236 3056
5573 2253
711 1779
1614 3988
8218 3305
658 1649
3872 1566
656 1644
3141 1271
16 39
1461 3612
3260 8109
1717 4247
7168 2886
3451 1396
6946 2798
4464 1806
6802 2739
2802 6954
3241 8061
2128 851
5823 2351
258 648
1894 4687
7641 3073
1863 4608
181 462
722 1806
7336 2951
966 385
3922 1587
1843 4552
5071 2054
3792 1534
3080 7658
1124 447
5867 2369
631 251
60 148
962 384
288 727
3232 8040
710 1777
5092 2063
711 1781
1837 4540
2447 6068
1378 3407
272 685
2424 6012
6485 2614
2986 7418
3720 1504
1159 2868
425 1067
54 22
2061 824
6144 2478
6534 2633
2163 5346
1954 4829
988 2466
7181 2891
46 113
2162 5344
8210 3301
4535 1836
589 1480
6611 2662
2268 909
1826 731
5269 2133
3610 1460
1279 3161
209 530
7247 2916
2249 5564
2583 1037
2043 5041
3077 7652
8146 3276
2101 5188
1498 3706
2277 5636
2606 6468
8082 3249
1523 3764
996 398
296 117
481 1208
2867 7117
3664 1481
1781 4404
5810 2346
573 1442
417 1045
942 2353
2473 990
7745 3115
5851 2362
201 81
5393 2182
5360 2168
4318 1746
5208 2109
117 294
607 1523
2547 6313
141 57
808 2021
7603 3058
5886 2376
4062 1645
1065 2650
3041 7562
2599 6451
1388 3432
1061 2640
888 354
190 485
2915 7244
4231 1711
2319 5739
6965 2806
8057 3239
2191 5417
2081 5142
2249 5562
1400 557
1604 3965
1658 4094
980 391
4864 1969
4654 1881
1001 2497
7272 2927
653 260
2430 6028
2436 6042
1811 725
7883 3169
4365 1767
2207 5459
6413 2585
3550 1437
574 1443
5786 2337
3113 1260
201 510
4583 1854
775 1939
3092 7688
2378 5891
2709 6726
2081 5140
2774 6888
966 2414
617 1548
1186 2932
1937 4786
868 2170
6732 2711
1785 713
5704 2305
2587 6417
2728 6775
6660 2681
171 435
83 206
3655 1478
6983 2814
490 1232
1089 434
1346 3328
93 235
1702 4210
7773 3125
778 1947
2865 1157
1745 4314
1051 419
2699 6706
926 2309
144 364
672 1685
1193 2949
1553 3840
5047 2045
4355 1762
1070 2661
170 432
1962 785
834 2084
1674 4136
2834 7035
2146 5302
2621 6504
4604 1861
1472 3640
2765 6866
7184 2892
1152 458
3088 7676
78 31
3855 1559
1198 477
2427 6019
6649 2677
3096 7698
2388 5916
1922 4752
6632 2670
1290 3185
1331 3293
6503 2620
2390 956
2776 6892
1143 455
3488 1411
869 346
2451 6079
5716 2310
8222 3307
2468 6122
5943 2398
1211 2992
1281 3166
6092 2456
3430 1387
2927 1184
722 1805
1400 3461
602 238
283 113
1327 3284
5089 2061
5797 2341
1962 4848
19 46
2445 979
1940 4793
359 901
1146 2836
1113 443
860 2150
5514 2229
3178 7902
2284 5654
2184 5398
2822 7003
2885 1166
121 49
4138 1675
3444 1393
7564 3042
947 2366
3305 8219
6424 2589
3096 1253
7275 2928
4790 1938
637 1599
1923 4755
2189 5410
3048 7579
3173 1285
837 2092
987 394
7242 2914
3947 1597
6644 2675
86 215
1347 536
1518 3754
700 278
3732 1508
1203 2975
7795 3134
1200 2967
408 1021
7900 3177
127 321
1619 4000
1498 597
3047 1233
3389 1371
2653 6588
2729 6776
2914 7240
3543 1433
949 2370
4380 1773
824 2060
4667 1886
935 372
2375 5884
7416 2985
4344 1757
234 593
2257 905
3808 1541
1771 4376
2243 5546
1465 3620
8160 3281
2723 6761
1475 3646
3166 7875
2373 950
2407 5967
1149 2843
1249 3085
958 2393
235 594
269 678
4964 2010
512 202
3034 7544
327 130
434 170
1937 4787
1351 537
1905 4711
3098 1254
195 497
1806 4463
2877 7143
2370 5869
3677 1486
4833 1955
393 984
2719 6750
6218 2509
4568 1848
3355 1358
7000 2821
478 1201
2911 1177
947 377
3438 1390
6724 2708
5306 2147
5631 2274
1481 3665
2490 998
936 373
1362 3363
1372 3391
2750 6828
6977 2811
3002 7461
5679 2294
2177 5382
3009 1218
1232 3046
2556 6337
2275 913
2074 830
5880 2374
780 1951
15 36
2141 5291
1962 4849
527 208
415 1039
4097 1659
7787 3131
593 1489
2544 6305
226 570
1294 3196
7945 3195
3307 8223
4734 1914
7831 3149
1340 3315
1880 4651
1961 784
1765 4361
1931 4772
1335 3304
2352 5825
2062 5091
1345 535
4892 1980
5228 2116
2361 945
1019 407
3313 1339
3701 1495
1840 737
5201 2106
6602 2658
686 1718
7724 3106
2613 6483
1091 2708
2861 7101
1829 4519
615 1543
1767 705
4447 1800
4153 1681
1359 3358
2110 5213
2291 5672
3246 8074
1536 3795
917 366
2325 932
3185 7921
1352 537
2031 5014
4254 1720
2404 5960
3000 7454
7179 2890
3334 1348
503 1264
2016 806
2920 7257
3201 7958
5024 2035
2013 4972
656 1645
1337 531
5643 2279
7606 3059
2158 5333
1285 511
2934 7291
1324 3276
2647 6573
3158 7856
3245 8071
3469 1403
2197 5433
727 1817
7333 2950
833 332
1135 2808
2174 5373
3500 1416
1374 547
1151 2849
1959 784
2883 1165
2765 6868
5868 2369
3199 7955
138 56
1602 638
2743 6812
3614 1462
2905 1175
1884 4661
6069 2447
2609 1048
4998 2024
1043 2596
7133 2873
6163 2486
6431 2592
1599 3952
862 344
1455 3596
5736 2318
6880 2771
1979 4890
1753 700
6784 2732
816 2040
3012 1219
398 997
1875 4638
4664 1885
1467 3625
3039 7558
7858 3159
1225 3030
5280 2137
8141 3274
730 1822
3141 7811
6374 2571
1729 4272
6047 2439
1375 3399
2997 7445
1949 779
2300 5693
873 348
737 1841
5425 2194
1477 3653
6823 2748
789 314
1796 4438
206 523
1115 444
1886 4665
5820 2350
5216 2112
1480 3661
1888 4672
3134 7794
397 994
854 340
561 222
1456 3598
2598 6448
4396 1779
2905 7216
7998 3216
1277 3155
7407 2981
6757 2721
2499 6192
4693 1897
3167 7878
6264 2527
160 408
5795 2340
25 64
341 135
7059 2844
2472 6133
7182 2891
209 84
2380 5897
1362 3364
3621 1465
3382 1369
2073 830
7731 3109
4619 1868
2685 6670
172 438
902 2251
1573 3889
5421 2193
903 360
1013 405
1536 3797
528 1327
555 219
3759 1520
984 2457
1181 2919
6734 2712
5709 2307
124 313
4218 1706
4401 1780
3050 1234
1383 3420
2972 1202
7925 3186
6031 2431
2768 6873
3843 1554
135 340
1245 495
2631 6528
8132 3270
449 1128
4992 2022
4917 1990
2749 6826
7879 3167
2801 1132
4618 1867
257 645
2739 6803
7102 2861
3123 7766
93 37
1051 2615
1490 594
1994 4925
1239 3062
6316 2548
539 1355
2436 6041
252 633
7392 2975
1541 614
3155 7847
2144 5297
6510 2624
183 74
4482 1814
7717 3103
1698 677
1867 748
2419 5996
415 163
1398 3455
1509 3733
6036 2434
660 1655
2063 5093
773 1933
7290 2934
24 60
6550 2639
2238 5535
724 286
2070 5112
2342 5799
1302 3216
3448 1395
6692 2693
2070 828
1227 3034
3097 7702
2409 964
1828 4516
2928 1184
2455 983
388 972
4271 1728
752 1877
7317 2944
1926 770
4304 1741
2563 1028
460 1157
3095 7696
68 168
4991 2022
5485 2217
1971 788
2176 5378
5509 2227
2507 6214
4039 1636
3125 1265
1675 4139
2768 6874
767 1917
6054 2442
6147 2479
1673 4133
473 1188
827 2068
2781 1123
2428 6023
4288 1735
2984 1208
577 1449
7328 2948
3105 1257
961 2401
8104 3259
4042 1637
6048 2439
3685 1490
2397 5941
223 564
1180 2917
993 2479
1078 430
6640 2674
1691 4177
2809 6972
1487 3678
1747 4319
3190 7933
5521 2232
4968 2011
353 887
4565 1847
769 1922
1565 3869
416 164
8114 3263
2676 1077
313 787
365 916
1924 4756
1875 4640
8214 3303
6296 2541
1932 772
2781 6907
2023 4996
3462 1400
491 1234
1562 3862
704 1765
1166 2884
2685 1081
2826 7013
7595 3055
626 1571
760 1900
4686 1894
1988 4912
1444 3570
3008 7477
3130 7783
7995 3215
2052 821
1539 613
2931 7282
4573 1850
1701 4206
3074 7645
332 132
2909 7227
1497 596
310 777
3142 1272
89 35
317 796
2423 6008
4584 1854
3710 1500
2790 6928
2024 4997
3306 8221
5755 2324
2131 853
2506 6210
310 779
571 1438
6423 2589
911 363
479 188
5260 2129
6096 2458
6398 2580
1247 3081
4377 1772
2682 6663
2151 5316
6539 2635
2440 977
5650 2282
1634 652
1864 4610
1329 3288
672 267
7611 3061
5161 2089
1753 4335
685 1715
2556 6338
5160 2089
1654 4083
1890 757
6140 2476
77 31
977 2441
2851 7077
2991 1211
875 2184
106 266
6543 2636
5513 2229
1871 4628
306 122
1381 3415
5992 2417
7388 2973
4502 1821
3244 8069
1906 763
3906 1580
1162 462
6827 2749
1459 3607
621 1558
3147 1274
1151 458
2594 6437
5029 2037
3029 7531
7332 2950
1531 3783
2868 7120
4114 1665
5082 2059
1006 402
805 2013
86 34
2310 926
717 284
927 370
1688 4171
819 2048
4293 1737
8182 3289
6011 2424
7513 3022
5942 2397
860 343
1243 494
6578 2649
2093 5169
6996 2819
1871 4629
211 533
689 273
2433 6034
1897 4694
1277 3156
4390 1777
789 1973
7799 3136
3756 1519
5165 2091
7961 3202
3888 1572
150 381
357 897
2169 5362
6388 2576
7503 3019
523 1314
1430 568
1469 3631
3300 8207
3217 1303
3052 1234
2796 1130
3548 1436
2008 4961
8130 3269
2949 7330
38 95
6818 2746
2484 6159
108 271
382 958
6899 2778
949 2371
275 692
1772 4378
3079 7655
2181 5390
1929 4767
3014 7491
1099 2725
1476 3650
5999 2420
1689 4174
7306 2939
2552 1024
6208 2505
3239 8058
3056 7597
5921 2389
1304 3221
18 44
527 1324
6317 2548
6520 2628
2021 4990
1666 4117
3660 1479
3817 1544
1676 668
2537 6288
7964 3203
1157 2864
8066 3242
1594 635
103 42
1556 3847
3890 1573
7715 3102
276 695
3004 7466
2679 6653
1297 3203
2327 5762
1512 3742
906 2259
2329 5766
2519 1011
2500 6194
8105 3259
1164 2880
6665 2683
8030 3229
2841 7053
482 1209
2870 7126
5930 2393
1559 3856
2642 6559
1845 4559
2223 5501
4625 1870
2666 6623
3899 1577
1023 409
866 2163
3283 8165
1226 3032
8080 3248
265 666
1277 3154
790 315
2603 6463
2022 4993
3077 7651
1550 618
7615 3063
1809 4470
2424 970
2521 1011
2626 6514
3758 1520
2754 6837
749 1868
1378 3406
6100 2459
2480 6149
483 190
866 2164
2311 5718
3305 1336
3823 1547
2398 5944
1586 3920
255 642
6840 2755
1398 3456
7789 3132
6155 2482
1931 4771
1683 671
3138 1270
6075 2449
1169 2892
1259 3110
2028 5007
846 337
2090 837
913 2277
3319 1342
1511 3737
7829 3148
1986 4906
3187 7926
4855 1965
3252 8088
847 338
2938 7301
2917 7250
1515 3749
8162 3282
2102 5191
3030 7533
1497 3704
405 159
2904 7214
1521 3760
5614 2268
2682 6661
3976 1608
4622 1869
2542 6299
5776 2333
2645 6568
116 293
5035 2040
2465 6115
8151 3278
1918 4743
2958 7352
6748 2718
1874 751
5150 2085
1427 3529
3258 8102
3270 1322
1517 3753
803 2009
2755 6841
246 98
619 246
1077 2675
637 1598
3730 1508
3164 7871
1261 3115
3075 1244
2749 1109
1081 431
624 1568
6498 2618
6806 2740
3104 7720
3178 7903
6257 2524
40 98
3977 1609
2199 5439
843 2105
4818 1949
2411 5977
1389 553
1069 2659
2761 6859
4729 1912
3747 1515
3036 7551
2291 918
2189 876
6488 2615
955 2387
300 753
3291 8186
2153 5322
3984 1612
2971 7382
2933 7287
2222 5498
7627 3067
6360 2565
1996 4931
5971 2408
716 1791
2888 1168
293 739
1874 4637
1943 4802
4439 1797
1695 676
3001 7458
1926 4762
1960 784
1274 3148
2066 5101
965 385
292 736
1773 4381
3676 1486
675 1694
982 2453
2559 1027
2098 840
1409 3484
2654 6590
7482 3011
2855 7087
7052 2841
1587 3923
307 770
710 281
6932 2792
264 665
2473 6135
991 2475
1309 521
4845 1961
2391 5926
2976 7394
7296 2936
4209 1702
372 934
1770 4372
4747 1920
3914 1583
3076 1244
922 2302
17 42
64 159
1970 787
898 2241
6452 2599
1163 2877
7492 3015
2170 5364
1925 770
7110 2864
2375 5883
2904 7213
5488 2218
6403 2582
176 71
2137 855
8158 3281
2856 1154
3275 8144
468 1178
379 951
1422 3514
7305 2939
670 1680
755 1885
7370 2966
2265 908
344 863
2614 6486
2847 7069
3905 1579
6303 2544
7538 3032
1485 3675
629 251
3483 1409
7877 3167
2270 5620
3323 1344
2709 1091
867 2166
897 2239
5642 2279
7735 3111
5299 2144
286 723
3247 8076
3844 1555
3103 7718
3163 7869
5994 2418
2405 5962
543 214
5198 2105
5224 2114
3603 1458
1118 445
974 2433
946 2364
6819 2746
2047 5053
795 1990
1946 4809
2700 6708
5841 2359
6754 2720
3580 1448
6688 2692
103 259
1619 4001
5555 2246
382 150
1010 403
2769 6877
1254 3099
2899 7200
1327 3283
788 1972
495 1244
2057 823
2749 6825
6335 2555
2329 933
6466 2605
6332 2554
1448 3578
288 728
2724 6764
1064 424
646 1621
3139 7807
1606 3970
2188 5409
2820 6997
1048 418
222 89
1503 599
7772 3125
2010 4965
1934 4779
1791 4426
6000 2420
137 55
1069 2660
452 1137
225 90
2342 5800
1512 603
8127 3268
1054 2622
6921 2787
6960 2804
7646 3075
5401 2185
2121 5240
4923 1993
4370 1769
702 1760
5442 2200
4919 1991
1534 612
28 11
2352 5826
4662 1884
2910 7231
6292 2539
459 1154
843 2107
1458 580
1808 723
3623 1466
5956 2402
607 1522
2623 6508
2127 5253
2818 1139
3136 7798
2334 935
1182 2922
1325 3278
5116 2072
2933 7289
1349 3336
363 910
1985 793
3744 1513
888 2216
2484 6160
761 1901
583 1464
5833 2355
3117 7749
5819 2350
371 930
3918 1585
6702 2697
575 1446
1235 3053
7304 2939
3189 7931
4682 1892
1840 4547
2316 5732
2377 5888
5603 2264
4103 1661
3027 7526
825 2062
1761 4353
2233 5524
6701 2697
7790 3132
3302 1334
1388 552
931 2322
6898 2778
5233 2118
5251 2126
136 343
3053 7590
6947 2798
2129 852
609 1527
223 563
996 2486
1177 2909
156 396
5153 2086
1044 2598
5712 2308
262 658
596 1496
811 2031
7616 3063
4863 1968
2503 6202
552 1387
3123 7767
1291 3187
641 1610
6714 2703
1106 2741
6319 2549
2778 6897
2205 883
3014 1220
7468 3005
431 1080
1766 705
1808 4468
1974 4878
23 59
964 2408
1792 4428
1316 3253
5623 2271
5461 2208
7917 3184
2047 819
7741 3113
6629 2669
2679 1078
6121 2467
126 318
214 86
733 1830
1969 4865
8196 3295
3647 1475
814 2036
2072 5117
1043 2595
1468 584
2593 6434
6627 2668
7359 2961
5484 2217
661 263
317 797
898 2242
2752 6832
3698 1494
3828 1549
67 165
3351 1356
4562 1846
6585 2652
1535 3793
1912 4730
89 224
959 383
4106 1662
913 2276
260 654
7485 3012
1403 558
4228 1709
1133 2804
414 1038
6987 2815
7699 3096
579 1456
6271 2530
117 48
2357 5838
2087 5156
3619 1464
1422 3513
6026 2429
2028 5008
3980 1610
2104 5196
4513 1827
4321 1747
4518 1829
55 136
1429 3534
1314 3247
1561 622
5646 2280
179 72
648 1625
1152 2852
2779 1122
6948 2799
3207 7973
2290 5671
3848 1556
1650 4072
6682 2690
1105 2737
7553 3037
7832 3150
1265 503
7809 3140
192 489
5296 2143
2672 6635
3042 7565
2887 7169
2800 6951
5523 2233
1567 3875
3267 1321
4129 1671
2349 5818
2286 5659
657 1648
2807 6968
2385 5909
7300 2937
731 1825
2721 6755
5590 2259
2094 5172
1934 4778
2953 1194
5132 2077
3031 7535
860 2149
3090 7682
7607 3060
4256 1721
1942 4801
1035 2579
916 2285
2112 845
3073 1243
4713 1906
2575 6384
2401 5952
7443 2996
1509 602
4587 1855
3950 1598
508 200
8031 3229
2780 6903
1435 3546
4606 1862
716 1792
119 48
5792 2339
1815 4485
2930 7279
8177 3288
1441 3563
861 2151
2760 1114
1350 3338
445 1119
703 1761
85 34
4575 1851
1458 3605
330 827
2510 6223
7747 3116
6700 2697
579 1454
4550 1842
1149 2842
4739 1916
7796 3135
2004 4950
3013 7487
1231 490
6343 2558
651 259
2539 1019
468 184
1524 3767
3894 1575
6879 2770
6171 2489
3189 7932
2043 5042
1954 782
401 158
2543 6301
773 308
5347 2163
2839 1148
1113 2758
2364 5856
5974 2409
893 2229
1267 3132
6282 2534
838 2094
7446 2997
379 952
6687 2691
5002 2025
738 1843
3755 1518
3024 7517
7201 2899
5610 2266
2894 7188
7563 3042
1058 2631
2223 891
1024 409
2215 5480
2287 917
2248 5561
7045 2838
1602 3962
356 893
6368 2568
3306 1336
2146 5303
4685 1893
2484 995
2565 6361
2515 6234
2968 7374
1565 623
1197 2961
3057 1236
903 2252
1487 592
3067 7626
2520 6245
3936 1592
2586 6415
1380 3413
1279 509
7891 3172
1037 2584
3206 1298
5133 2078
1286 3175
3203 7963
6779 2730
3263 8116
5837 2357
3403 1376
3159 1278
1029 2566
211 535
1939 4792
1145 2831
3724 1506
5314 2150
1734 692
2969 1201
4262 1724
1205 2978
4558 1845
7508 3020
1089 2705
8043 3234
3416 1382
2581 6401
1172 466
4913 1989
2528 1014
1521 606
3228 8029
1860 745
2322 5749
2941 7310
8015 3223
2180 873
295 117
4773 1931
2795 6941
4053 1642
895 2235
460 181
651 1632
2744 1107
3007 7475
792 1981
352 883
844 2110
2903 7211
2715 6742
2116 5229
7760 3121
302 758
794 1987
8011 3221
1276 508
1476 588
3016 7495
7680 3089
490 192
632 1587
2488 6169
5518 2231
1664 4111
5187 2100
2572 6378
3533 1429
316 792
4303 1741
216 547
1353 538
441 1107
1710 4230
3831 1550
904 2255
574 227
1360 3360
1998 4936
837 333
6426 2590
3271 8135
2097 840
345 865
3671 1484
3018 7501
1978 790
1712 684
2288 917
3172 1284
5257 2128
376 944
871 2175
6455 2600
2322 5748
2585 6411
1137 2813
2970 7379
1894 4688
100 251
7860 3160
8138 3272
4893 1980
2190 5414
210 531
2695 6697
1399 3458
3159 7857
740 1848
5103 2067
1572 626
2057 5077
904 360
309 123
7550 3036
7819 3144
6005 2422
3422 1384
5276 2135
2759 6853
2200 5440
7512 3022
524 1318
2429 6025
1917 4741
1819 4497
1583 631
1443 3567
5637 2277
741 294
3948 1597
4498 1820
1422 3515
754 1881
1835 4533
61 150
5466 2210
1027 2560
6086 2454
1190 2943
747 1864
7944 3195
1559 3854
2607 6471
1458 3604
2524 1013
5568 2251
3240 1311
5788 2338
1551 3834
74 182
5034 2039
843 336
3285 1328
1578 3901
1318 3258
4872 1972
1689 4172
1018 2537
741 1850
2091 837
20 8
279 703
4155 1682
5634 2276
2331 934
1686 672
2312 5721
5917 2388
6883 2772
419 165
547 1376
2703 1089
1730 691
6654 2679
4077 1652
8118 3264
5472 2213
2938 1188
5037 2041
1262 3120
1108 2746
3093 7690
5115 2071
8019 3224
2727 1100
6810 2742
3414 1381
7309 2941
2864 7109
767 1918
166 421
1635 4037
6480 2611
236 94
2393 5931
6669 2684
961 2402
7965 3204
2982 1207
2373 5879
2525 1013
1691 4178
4104 1662
5210 2109
448 1127
1251 3092
2941 1190
4331 1751
1683 4157
7908 3180
2477 6142
3177 7901
395 989
1026 2558
680 1705
3216 7996
169 430
974 2434
1690 674
2236 896
1861 746
464 1168
742 1853
5046 2044
1638 654
5955 2402
542 1363
3592 1453
925 2307
512 1289
525 207
3441 1392
1492 3691
2615 6489
7911 3181
1417 563
418 164
1692 4182
5922 2390
2866 7115
98 247
227 90
646 1620
1063 2645
6612 2662
3717 1503
7387 2973
2993 7436
2340 938
2735 6793
7383 2971
1306 3226
7587 3052
453 1138
270 108
2935 7293
5843 2359
2858 7094
291 735
2571 6376
1349 3335
4679 1891
187 475
890 2220
2897 7195
4350 1760
2443 6057
5252 2126
546 1372
3718 1503
115 47
1964 4853
3402 1376
2990 7430
1942 4800
522 1310
2363 5853
2807 1134
166 67
2314 5726
5426 2194
3219 8007
1615 3991
2339 5791
1879 4648
4329 1750
403 1009
334 838
629 1580
3457 1399
437 1097
1196 2958
527 1326
726 1814
1075 2672
7673 3086
4051 1641
4057 1644
4164 1686
1556 620
4937 1998
3151 7836
2929 7278
1545 3819
769 1923
4391 1777
2771 6881
63 156
7681 3089
502 1262
2933 1186
1655 4085
2890 7178
6094 2457
1914 4735
1319 3263
2227 5508
485 1218
3017 7497
4212 1703
6043 2437
5289 2140
4141 1676
90 36
219 87
7518 3024
340 853
242 96
4015 1625
202 513
2107 5204
2780 6904
924 368
3292 8189
2354 5830
3153 1276
4940 2000
2983 7412
7583 3050
7537 3031
5933 2394
1060 2638
7548 3035
2395 5937
2532 6275
5510 2228
2528 6267
986 2460
39 96
216 548
2967 7371
699 1752
1264 3124
2814 6984
1240 3065
1873 4634
7185 2893
256 643
2013 4971
7254 2919
7889 3171
6151 2480
1970 4867
5914 2387
3253 8090
772 308
2184 5397
3127 7776
66 26
2421 6003
1648 4069
1582 3911
4723 1909
6614 2663
8032 3229
1855 4585
1770 4373
2976 7396
1864 4611
1594 3941
6472 2608
5874 2372
154 393
2540 6294
3907 1580
6836 2753
2743 6813
967 386
2046 818
2345 5807
3287 1329
2098 5183
149 60
3068 7629
2656 6596
1207 2983
236 596
358 898
418 1047
8178 3288
53 131
3629 1469
1820 729
1083 2691
3017 7498
4798 1941
253 636
762 304
689 1727
1395 3450
2886 1167
2600 6453
2311 5719
2262 907
975 2435
6443 2596
1397 556
4549 1841
120 49
2289 5667
2504 6204
1655 4087
7821 3145
2010 804
2587 6419
1858 4596
1176 2907
4328 1750
401 1004
3031 7536
47 116
519 1305
4214 1704
3016 7494
1330 529
2710 1092
3298 8203
327 821
6229 2513
2195 5428
2767 6872
2909 7226
1312 3242
2857 7092
727 1816
2846 7064
1640 654
1896 4691
1700 4205
3736 1510
3163 7868
8149 3277
148 377
714 283
4108 1663
7504 3019
2378 952
1745 4315
4929 1995
5256 2128
830 331
366 919
1401 3464
2371 5873
1814 4483
1614 3989
6239 2517
1928 4765
3770 1525
3046 7574
1058 2632
6444 2597
5964 2405
1999 799
2662 6613
1850 4571
3038 1229
2469 6124
1004 2505
1789 4420
76 30
1162 2874
1212 2995
3273 1323
2545 1021
2306 5705
1632 4031
493 1240
1926 4761
1093 2713
619 1554
1788 4418
1390 553
1338 3309
6725 2708
3220 1304
5723 2313
27 68
4027 1630
2007 803
298 750
1823 4506
1191 2944
1258 3107
3172 7890
2299 921
3163 1280
1639 4046
4405 1782
1678 4144
2720 1097
2517 6237
2865 7111
4908 1986
3045 7573
8190 3293
2029 5010
4904 1985
2180 5389
1292 3189
701 1757
4769 1930
825 2063
5063 2051
2222 5497
7559 3040
1646 4063
3067 7625
3866 1563
2133 853
2559 6345
2847 7068
6322 2550
2278 5639
3271 1322
6383 2575
4145 1678
608 241
1109 442
3302 8213
5542 2241
2347 940
367 145
5004 2026
1988 794
1140 453
2270 5621
1392 554
2038 5030
5547 2243
1623 4011
284 718
1150 2846
3262 1319
1391 3440
4708 1904
6109 2463
2017 4980
4658 1883
2561 6350
4955 2006
6187 2496
4100 1660
2123 849
7542 3033
1171 2897
976 2438
1647 657
3114 1260
4222 1707
945 2362
1414 3494
4472 1809
6526 2630
3187 7927
440 172
3191 7935
1832 4526
2779 6900
1118 2769
7017 2827
2602 6459
5184 2099
3477 1406
2182 5392
1786 713
2152 861
2108 5206
2456 6091
2566 6363
1029 2564
5579 2255
1344 534
929 2316
1488 593
2470 6126
1987 4910
2608 1048
250 628
2975 7391
1422 565
2641 1062
276 696
2228 5511
735 1835
3386 1370
2836 7038
8021 3225
1778 4394
1562 3863
6366 2567
1763 703
1009 2516
2124 5247
400 157
5445 2201
139 351
481 1207
2948 1192
7576 3047
673 268
1932 4774
102 255
4467 1807
2103 842
499 196
2912 1178
5494 2220
491 1233
7679 3089
2106 5200
287 725
1969 787
3791 1534
285 720
3171 7887
7472 3006
4819 1950
2970 7380
5148 2084
2379 5893
204 517
2793 1128
2683 1080
3178 1287
4831 1954
2562 1028
2464 6112
4589 1856
6589 2653
4367 1768
2034 813
2002 4946
6035 2433
659 1651
2783 1124
2762 6861
1017 2536
1042 2593
595 235
1748 4323
4780 1935
1331 3294
2178 5384
2823 1141
17 7
1126 448
1738 4296
646 257
2953 7340
6786 2732
1658 4096
1638 4043
2358 5840
4588 1856
809 2026
2428 972
3757 1519
1092 2711
4927 1994
2537 6287
2696 6699
3285 8171
7988 3213
997 2489
5058 2049
2384 954
880 2199
2774 1120
558 1404
707 1772
520 1307
6740 2714
2519 6244
1203 2973
156 397
313 785
8209 3301
2816 6988
2862 7105
6382 2574
8119 3264
2495 6185
2994 7438
1042 2594
1736 693
1692 4180
5589 2259
532 1338
3039 7556
239 95
423 1059
4887 1977
1294 3195
1290 513
7299 2937
2641 6556
2813 6982
2326 932
1214 484
228 577
1595 3944
2153 5321
8169 3285
7078 2851
632 252
5123 2074
1343 3321
3275 1324
4795 1940
328 130
1386 3428
5241 2121
5852 2362
1639 4045
3190 1292
8226 3309
1697 4194
2166 5354
403 159
3835 1551
2369 5866
665 1666
1430 3537
827 2067
3199 7954
2734 6790
859 2146
1033 2576
6752 2719
1420 3508
5374 2175
2198 880
6479 2611
3030 7532
3928 1589
4512 1826
5076 2057
6461 2602
2105 5199
997 2488
1187 2934
2085 834
7286 2932
3059 7605
1437 3551
918 366
440 1105
1478 3656
52 21
4058 1644
1233 3049
4764 1927
1442 3564
3771 1526
1371 3388
2642 6561
1293 3193
2083 5146
5294 2142
4399 1780
18 7
1074 2669
6010 2424
8156 3280
2554 1025
2344 939
3296 8199
1531 610
1088 2702
3018 7500
1494 3697
592 1486
2550 6323
823 328
8049 3236
1758 4345
4564 1847
4040 1636
896 2237
1440 3559
3164 7870
35 14
800 2002
3117 7751
82 205
953 2380
2019 4986
2680 6656
140 354
2478 6146
4494 1818
2051 821
258 649
1295 515
944 2358
451 1135
2994 7439
2736 1104
5829 2354
5268 2133
125 314
4543 1839
597 236
818 326
755 1886
223 89
2295 5680
2485 6162
2686 6672
4899 1983
1082 2688
4897 1982
426 1069
3576 1447
1525 3769
1395 3449
4753 1923
1744 4310
1600 3955
3153 7842
1260 501
2444 6059
6854 2760
800 2000
1762 703
1072 2665
3491 1413
3634 1470
2772 1119
4670 1887
1690 4175
1893 4684
2198 5437
2129 5258
104 261
7218 2905
3419 1383
3194 7942
2800 6950
1944 777
1010 2518
1543 3814
182 463
2814 1137
1441 3562
2701 1088
7014 2826
1032 412
263 662
2860 7100
694 1737
2037 5028
1707 4221
1068 2657
6344 2559
4876 1973
3379 1367
2312 5720
1435 570
6744 2716
1261 3117
2165 5351
4246 1717
415 1040
3636 1471
5504 2225
682 1709
2601 1045
1699 4200
2872 7130
7378 2969
3109 7730
2053 5067
4199 1698
200 509
2682 6662
5205 2108
2285 5657
811 2030
180 73
2361 5848
4224 1708
885 2210
2238 5537
1638 4044
3417 1382
2579 6395
3023 7516
7596 3055
579 1455
4554 1843
3412 1380
2408 5969
1521 3761
459 180
3802 1539
5345 2162
3452 1396
3065 7621
279 111
4474 1810
6432 2592
3915 1584
4510 1825
1844 738
1250 3090
2754 1112
1030 2568
7940 3193
7949 3197
2071 5114
4033 1633
7837 3152
5759 2326
5482 2216
2094 5173
2202 882
2408 5970
4738 1916
231 583
6856 2760
231 585
217 551
7294 2935
2344 5805
1533 611
463 1163
6592 2655
7099 2860
1831 4524
1290 3183
112 282
1485 3674
5412 2189
1490 3687
261 656
8064 3242
2400 960
6637 2673
889 2217
2951 1194
1141 2822
1967 786
937 2339
3306 8220
7786 3131
1865 4613
1457 580
723 1807
733 291
16 38
5273 2134
446 1122
2070 5111
1879 4649
3723 1505
171 437
1123 2780
130 329
1778 4393
1348 3333
3325 1345
5551 2245
3256 8098
192 77
410 1026
3510 1420
2692 6689
1771 4374
417 164
569 1433
1377 548
2988 7424
2747 1108
1649 4070
1586 632
3165 1281
3230 8035
4082 1654
6261 2526
2119 5236
1223 3023
1798 719
1002 2499
717 1794
1716 4243
1377 3404
1669 4122
5669 2289
660 1654
5794 2340
3046 7575
6389 2577
5446 2202
6544 2636
1776 4388
2035 5023
5911 2386
7012 2825
2885 7163
2791 6929
2066 5100
1532 611
1560 622
2595 6439
1739 4299
5887 2376
2148 5307
7074 2849
1624 648
2981 1206
162 65
2115 5227
2612 1049
1480 3663
1007 2512
2744 6814
1086 433
2419 968
860 2148
6989 2816
7311 2941
1181 470
1976 4883
302 120
5677 2293
793 316
7864 3161
2162 865
667 1673
3103 1256
4458 1804
1855 743
1588 633
782 1956
2501 6196
5356 2167
8050 3237
1749 4326
2298 5688
720 1801
6531 2632
1696 4192
62 25
603 1514
2096 5176
160 407
3239 8056
2830 7023
5572 2252
2743 1107
80 200
81 202
2756 6843
836 2088
2789 6925
858 2143
1269 505
4259 1722
2392 5927
4806 1944
5638 2277
6339 2556
3185 7922
5569 2251
4146 1678
1992 796
3423 1384
2549 6320
1174 2903
2053 5068
2111 845
3038 7554
41 101
2271 5622
516 1298
1061 2639
444 1117
2048 5054
1275 3150
5332 2157
2955 1195
5929 2392
1640 4047
2529 1015
46 111
7833 3150
4581 1853
2360 945
5060 2050
99 248
424 1062
2421 6002
2784 1125
2847 1151
1978 4888
1258 3108
2398 959
1507 3728
1250 3088
1758 4346
2430 6027
1697 677
7733 3110
3262 8113
1541 3807
1241 3067
1721 687
5223 2114
613 243
1719 686
1558 3852
3690 1491
927 2312
3313 8235
298 749
551 1386
5237 2120
3787 1533
505 1270
943 2355
4768 1929
5658 2285
3851 1558
2810 1136
2005 4954
1417 3502
892 2225
690 1728
7141 2876
7568 3044
5281 2137
759 1897
2092 5168
3821 1546
4455 1803
1661 4102
1255 499
302 757
6206 2504
1693 4185
1035 2580
6492 2616
2438 6045
1605 3969
736 1838
6788 2733
4650 1879
910 2269
1029 411
5903 2382
1314 3249
3303 8215
2179 5387
2956 1195
1939 4791
5090 2062
1242 3069
2955 7345
4412 1785
305 765
3264 1320
2372 950
3278 8152
637 1600
2536 6286
462 1161
631 1584
124 311
1653 4080
1311 3238
8016 3223
50 125
2195 5427
1742 696
123 310
831 331
5134 2078
5265 2132
3051 1234
6281 2534
2470 6127
2623 6509
3296 8198
4186 1694
5663 2287
2512 6227
7409 2982
1055 2624
1246 496
364 913
791 1979
8108 3260
1982 4898
7097 2859
493 1239
2415 966
8180 3289
1411 561
1870 4627
1504 3719
877 2191
946 377
2848 7072
173 70
169 429
2949 7331
568 225
5801 2343
1833 4529
447 1123
749 1870
816 325
3549 1436
7347 2956
2205 5453
2374 950
2919 7253
2371 5872
768 1920
1434 3544
1537 3799
1311 522
7974 3207
1963 4852
743 1854
6634 2671
2519 6243
90 226
176 450
1309 3234
713 282
2616 1051
1136 2811
390 976
1885 4663
2102 842
6080 2451
1263 3121
2080 832
533 1340
2660 6606
484 1215
3111 7737
868 2169
2123 5245
786 1966
1686 4163
2067 5102
2535 6284
2909 7228
575 1445
113 285
6385 2575
3324 1344
1948 779
70 174
445 174
359 900
5275 2135
5178 2096
6729 2710
4967 2011
688 1723
3045 1232
2425 6015
3007 1217
944 2359
2156 5328
3820 1545
979 391
1796 4437
1776 4387
2520 6246
1794 4432
3213 1301
438 1100
6905 2781
2776 6893
2805 6963
5471 2212
3762 1522
6735 2712
6918 2786
5648 2281
872 348
1430 3536
813 2035
2108 844
1538 3800
1148 456
7098 2859
5399 2184
1732 692
3190 7934
4059 1644
2244 5548
1974 789
6919 2786
2799 6949
7604 3058
14 34
4680 1891
5305 2147
2824 7010
2320 930
600 237
2503 1004
2790 6926
635 1593
761 1902
894 2232
2374 5881
3520 1424
2296 5684
3135 7797
1596 3945
1223 3024
1142 2825
2359 5842
336 844
4297 1738
6062 2445
2004 801
3526 1426
146 59
6205 2504
511 1286
1391 554
730 1823
2934 7292
2320 5744
1781 4402
119 299
477 1200
1775 4385
6276 2532
342 135
5920 2389
133 54
2684 6668
64 158
2487 6165
3253 8091
289 115
3231 8036
3192 7938
6795 2736
1228 3036
4859 1966
4128 1671
1574 3893
5324 2154
2848 7070
428 168
1495 3700
4700 1900
4311 1744
992 2477
1384 3421
5747 2321
7825 3146
5540 2240
5056 2049
7943 3194
4523 1831
3180 1288
422 166
1138 2816
3048 1233
434 1090
864 345
887 2213
4509 1825
789 1975
1709 4226
143 361
152 387
1385 3424
3140 1271
3368 1364
7769 3124
3049 7580
2751 1110
4461 1805
436 1096
3186 1291
2177 5380
296 745
6326 2552
2989 7425
3029 7530
2431 6029
5963 2405
7474 3007
2606 6469
802 2006
7354 2958
3960 1602
2296 5683
1073 2668
31 12
2399 5948
5543 2241
1215 3001
7989 3213
1524 3768
6248 2521
2845 7062
2213 5474
2395 5935
2375 951
2642 1062
2426 6017
1071 2663
4875 1973
558 1402
933 2327
993 396
2972 7385
716 283
2808 6969
13 5
1085 2696
4352 1761
1949 4817
3226 8025
2750 1110
6657 2680
4933 1996
3522 1425
2902 7209
940 2345
2189 5411
3284 8167
1818 728
2249 5563
3209 1300
642 1613
1095 2716
664 264
539 1356
2870 7125
938 2341
666 1671
141 356
1297 3202
1491 594
1505 3722
2902 7208
5195 2104
2830 7025
6652 2678
1156 460
2157 5330
270 680
1473 587
204 516
5662 2287
7813 3141
693 1735
3287 8175
3100 1255
1341 3316
7852 3157
231 584
114 286
1895 4689
3699 1494
570 1434
2473 6134
883 2206
1152 2850
4258 1722
159 404
6484 2613
4574 1851
2419 5998
2641 6557
2121 848
1053 2620
951 2376
1467 3626
6967 2807
541 1362
858 342
2029 5009
2465 6116
4325 1749
1369 545
7343 2954
1229 3039
890 354
6966 2807
2687 6675
1343 534
7002 2822
2059 823
672 1684
4101 1661
2319 5741
169 431
2688 6677
2690 6684
838 2093
935 2333
936 2335
1511 3739
1857 4593
2159 5337
804 2011
7463 3003
647 1622
2777 6895
4140 1676
1568 3877
2782 6909
3806 1540
6630 2669
5235 2119
5021 2034
73 29
7256 2920
2409 5972
2087 835
2719 1096
5651 2282
3174 1285
2216 5481
6269 2529
6811 2742
5772 2332
854 2134
601 237
3003 1215
3635 1471
5478 2215
528 1328
6014 2425
5987 2415
2671 1075
2047 5052
4005 1621
2845 7063
942 2351
4342 1756
423 166
1101 2730
6770 2727
1861 4602
1852 4577
2877 7142
353 885
2309 5715
6778 2730
581 1459
10 24
5128 2076
520 205
1266 3129
4286 1734
2987 7420
2003 4949
2656 1067
1550 3832
1333 530
1098 2722
3822 1546
946 2363
2925 7267
544 1368
578 1453
6712 2702
5334 2158
3320 1343
3208 7975
3241 8063
1816 4489
5443 2201
1969 4866
2422 969
342 859
3029 1225
1545 3818
1776 4389
4189 1695
5185 2099
2208 5460
2675 6643
4127 1670
801 2003
7001 2821
4368 1768
2862 7103
7728 3108
4678 1891
3199 7953
1627 4022
3229 1307
23 57
2845 7061
2039 5033
3250 8083
7147 2879
822 2055
2405 963
2629 6522
5365 2171
6673 2686
2664 6618
3034 7543
1270 3139
4369 1769
3267 8125
4119 1667
2667 1073
652 1635
6727 2709
1985 4903
8184 3290
3018 1221
1845 4560
5756 2325
7414 2984
1149 457
1028 410
313 786
4451 1802
7107 2863
3679 1487
5686 2297
149 379
806 321
4445 1799
5653 2283
4453 1802
2986 7419
516 1299
7205 2901
545 215
2341 5798
175 71
1733 692
783 1958
3240 8059
1054 420
769 307
540 213
653 1637
1116 2764
878 2192
3786 1532
3184 1290
8170 3285
2765 6867
1490 3686
5175 2095
6549 2638
6104 2460
1506 3726
2613 1050
5473 2213
7582 3050
1308 521
888 2215
7433 2991
5138 2080
1800 4446
4984 2018
6540 2635
640 1608
6076 2450
6044 2437
632 1585
6200 2502
5770 2331
4301 1740
4994 2023
6938 2794
1711 683
1716 685
5266 2132
2503 6201
948 378
5731 2316
2175 5375
1755 4340
1729 4274
3098 7704
2262 5597
2499 6193
799 1997
263 105
2570 1031
563 1415
1689 674
5396 2183
451 1134
1170 2894
778 1946
4810 1946
1006 2510
3990 1615
1238 3061
2494 6182
1272 3143
3226 8024
191 486
5066 2052
2832 7030
752 299
909 2267
3565 1442
3238 8053
805 321
2242 5545
1275 507
6566 2644
562 1413
990 395
1407 560
7440 2995
3102 7716
1079 2682
3093 1252
2000 4941
426 167
2811 6976
118 298
4280 1732
921 2298
69 28
2853 1153
2753 1111
1309 3233
4240 1714
939 2343
758 1895
2035 5025
1252 498
23 58
7093 2857
3707 1498
1449 3582
1017 406
1695 4188
848 2119
794 1986
1840 4546
905 2258
1753 4334
826 2064
250 100
3070 7634
3196 7947
4731 1913
1972 4873
6277 2532
3398 1375
4612 1865
2338 937
3057 7600
1696 4193
91 230
936 2336
1805 4460
804 2012
2265 5605
4161 1685
1562 622
204 518
5633 2275
1913 4732
6551 2639
494 1242
3142 7814
2273 5628
2564 6357
1606 3971
6769 2726
1592 3935
4440 1797
7545 3034
2895 1170
595 1495
133 334
2798 1131
3780 1530
2417 5993
2444 978
3280 8157
3973 1607
5760 2327
5074 2056
1847 740
230 581
6638 2673
7349 2956
2067 5104
32 80
355 891
2995 7441
3175 7897
5479 2215
325 129
1752 4333
3998 1618
5143 2082
5813 2347
1015 2531
2448 980
1352 3343
2729 6777
1592 634
3153 7841
2343 5803
2763 6863
2059 5083
4642 1876
2427 6020
829 2071
5539 2239
698 1749
1555 620
2773 6885
5751 2323
3443 1393
2712 1093
119 301
2839 7046
1614 643
2407 5968
1296 515
283 715
1044 2599
4660 1884
912 2273
4501 1821
2445 6063
939 374
851 339
1577 3900
5211 2110
97 244
6219 2509
1249 497
3131 1267
1549 618
6355 2563
4542 1838
2832 1145
881 2200
2989 1210
1789 715
470 185
6242 2518
2318 5738
6808 2741
2290 5670
962 2403
2875 7137
7190 2895
3250 8084
6158 2483
3017 1221
5203 2107
1863 4609
2324 5754
4 11
5338 2159
7264 2924
1544 3816
2196 5431
3393 1373
573 227
885 2209
2004 4952
3381 1368
5015 2031
3798 1537
7678 3088
3392 1372
6505 2621
4657 1882
3505 1418
3202 7960
2939 1189
3266 8123
1839 736
5451 2204
700 1754
7033 2833
2763 1115
3314 1340
556 1398
1103 2734
4116 1666
598 236
988 2467
5689 2299
8229 3310
4712 1905
2186 5402
7020 2828
653 1636
636 1597
4142 1677
3968 1605
2413 966
2134 5272
7281 2930
6595 2656
2588 1039
1911 4727
7714 3102
8097 3256
6930 2791
2197 880
3022 7511
68 169
5694 2301
2647 6572
2071 5113
318 798
2949 7329
2187 5407
2502 1003
1289 3182
2974 7390
2817 6990
3072 7640
4029 1631
4407 1783
3066 7624
3092 7689
5424 2194
2488 6168
2173 870
2253 5574
992 2476
2901 1173
2380 5896
2553 1024
7042 2837
3097 7703
2426 971
868 2168
2997 7447
3241 1312
5685 2297
931 371
1820 4499
2065 5098
7015 2826
1100 2726
3486 1410
2550 6321
312 124
614 1540
415 1041
2553 6329
768 306
4617 1867
933 372
6429 2591
2634 6538
1909 764
2912 7235
760 1898
628 1577
3555 1438
2843 7056
2758 6848
474 186
820 2050
2079 5136
1624 4014
2384 5907
3164 1280
1627 649
691 1731
7106 2863
3289 8181
2855 7088
44 108
4071 1649
2084 5149
268 675
6801 2739
2179 872
3496 1415
4016 1625
7866 3162
93 234
1114 2759
322 807
4306 1742
5703 2305
2088 5159
922 367
7471 3006
5644 2279
1277 508
2584 6409
5601 2263
2336 5784
1033 2575
4595 1858
5458 2207
2610 6477
422 1058
1319 525
1860 4600
3365 1362
1947 4813
2670 6631
1582 3912
3134 1268
1833 734
3173 7892
1053 420
2301 5695
999 2492
5641 2278
453 178
1431 568
4431 1794
7541 3033
2926 7269
233 590
6221 2510
3696 1493
831 2076
916 2284
910 2270
4159 1684
3277 8148
2506 6212
5026 2036
3541 1432
7984 3211
1300 517
6249 2521
1011 404
5164 2090
7368 2965
742 295
3232 8039
1146 2834
6467 2605
2627 6518
1194 475
543 1366
726 1815
4452 1802
3089 1250
2849 7073
3352 1356
7523 3026
3082 7662
2348 941
526 1322
7657 3080
8188 3292
507 1274
1812 725
2323 5752
1798 4442
3785 1532
907 362
1126 2787
1683 4156
1014 2526
7976 3208
2946 7323
7234 2911
5919 2389
2471 6130
1312 522
6183 2494
955 381
2661 6609
88 220
2773 1120
6992 2817
542 214
7139 2876
560 1408
2066 827
695 1741
5371 2173
7288 2933
3735 1510
1112 443
2900 7203
5750 2322
1007 2511
2136 5278
75 30
892 2227
1021 2546
2913 7237
1873 4633
4459 1804
1470 3633
5882 2374
7066 2846
4487 1816
1438 3553
2005 4953
729 289
5383 2178
566 1426
540 1358
829 330
4263 1724
1775 4386
229 579
104 260
1531 3784
1266 3128
1238 3060
410 1027
4074 1650
2309 5714
911 2272
49 20
846 2114
1506 3725
369 926
5588 2259
5386 2179
4794 1940
4539 1837
768 1919
5395 2183
6816 2745
851 2126
428 1074
25 63
1192 474
778 1945
3297 8201
2704 1089
2373 5878
7156 2882
3346 1354
2793 6934
1786 4414
2540 6295
1567 3874
1519 606
4261 1723
4183 1693
280 111
1484 591
3284 8168
6420 2588
549 1380
2230 5517
134 54
248 623
7677 3088
3293 8191
2303 5699
1619 645
3586 1451
7667 3083
2862 7104
3010 7481
3227 8027
295 743
630 251
865 2161
3074 1243
2453 6085
84 210
1198 2964
2140 857
604 239
1425 566
1800 720
1286 3176
2831 7026
3081 7661
3865 1563
3669 1483
1953 4828
1697 4196
1500 3711
2132 853
2226 5507
2229 5515
1457 3602
290 731
4974 2014
138 349
2808 6970
1994 4926
7356 2959
7160 2884
3645 1474
7393 2975
6901 2779
2952 7338
589 1479
2401 5954
2788 6923
3801 1538
2993 1212
1082 2689
4294 1737
2525 6258
1066 425
849 338
557 220
1536 612
1202 478
199 506
2884 7162
619 1552
2858 7096
559 1405
409 1025
1441 573
990 2471
3054 7593
953 2379
3097 7701
2049 820
871 2177
4697 1899
3122 1263
1738 694
2762 1115
6781 2731
3165 7874
2455 6089
677 269
2689 6679
5 14
2068 5105
294 740
6519 2628
6181 2493
2619 6501
1003 2501
2577 6390
764 305
3308 8224
2278 914
2582 1036
2058 5079
2280 5645
2790 6927
2256 5580
253 637
2452 6083
3380 1368
3169 7884
3179 1288
6920 2787
2332 934
79 197
2583 6407
5225 2115
6314 2547
862 2154
58 144
925 2308
3280 1326
1320 3265
1980 4894
5585 2258
565 1421
5171 2093
7519 3024
4614 1866
7273 2927
2270 5619
1370 3387
985 2459
7404 2979
2565 1029
175 448
2579 6396
4165 1686
2130 5262
1076 2674
1354 538
634 252
2093 5170
780 1950
2792 1128
1464 3618
1845 739
6844 2756
3257 8099
1713 4237
2706 6721
7183 2892
572 1440
3050 7584
7810 3140
1911 765
5908 2384
3211 1300
4054 1642
6074 2449
3708 1499
32 13
388 152
7276 2929
188 477
6353 2562
4838 1957
2085 5152
2637 6546
7381 2971
473 1189
6766 2725
3938 1593
3253 8092
2075 5127
771 1929
2594 6436
7663 3082
249 99
479 1204
2242 5544
524 206
609 1528
539 213
749 1869
2871 7129
870 347
6530 2631
2335 5779
5566 2250
3509 1420
1557 621
1030 2569
6756 2721
1650 658
206 522
2999 7453
4148 1679
4021 1627
8124 3266
5096 2064
148 376
5945 2398
2564 6359
907 2261
7838 3152
3983 1611
2475 6138
3465 1402
373 937
938 2342
3098 7705
2720 6753
2629 1057
3106 1257
1016 2533
80 199
8128 3268
1692 4181
389 975
2827 7018
5558 2247
1719 4251
2341 5796
7298 2937
1889 756
7334 2951
1654 4084
3566 1443
47 114
2264 5604
2610 1048
1010 2517
519 205
3339 1350
2446 6066
3478 1407
2500 1002
8129 3269
1214 2999
1601 3957
333 836
5391 2181
6445 2597
5435 2198
1213 2997
2436 975
3057 7601
1160 462
2388 5918
2738 6798
133 336
500 196
7011 2825
2597 6446
1054 2623
1163 2878
2641 6558
3886 1572
2666 6622
2310 5717
413 162
6565 2644
979 2447
648 1626
5780 2335
6944 2797
3090 7683
262 659
3252 8089
1023 2551
3254 1316
52 130
697 1746
7521 3025
467 1176
3025 1224
4207 1701
2042 5040
1186 472
7700 3096
97 39
1668 665
1172 2899
2278 5640
1998 799
2652 6584
1313 523
3813 1543
3113 7742
2626 6515
3070 1242
1351 3341
1726 4266
4850 1963
2365 947
2573 6379
8187 3292
139 350
2092 5167
3434 1389
6447 2598
1594 3940
4630 1872
2235 5529
3447 1394
638 254
5317 2151
2861 1156
1152 2851
536 1348
1467 584
2081 833
2773 6884
616 1545
920 2295
2411 5978
3282 8161
4392 1777
2164 5349
4870 1971
6225 2511
3463 1401
5647 2280
2998 7449
6369 2569
2758 6849
1631 651
730 289
6713 2702
5831 2354
2945 7320
1342 3318
7397 2977
3401 1376
2224 5502
2964 7365
5802 2343
1174 2902
1544 615
110 45
1687 4168
4544 1839
2255 5578
4551 1842
2821 1140
4149 1680
844 2109
3224 8018
6220 2509
3002 1215
729 1821
6170 2489
1160 2870
8085 3251
512 1288
2547 6312
5946 2399
3094 7693
1981 4896
2493 6179
7985 3212
6231 2514
1747 698
4 2
7274 2928
1812 4478
1718 4249
500 1258
1424 3521
5097 2065
2996 7442
7375 2968
2218 5487
228 575
6685 2691
7969 3205
847 2117
4490 1817
7113 2865
256 644
3545 1434
1958 4839
2087 5157
767 306
2845 1150
1588 3924
335 133
1566 624
1691 4179
1413 3492
5947 2399
923 2304
1457 3601
1862 4605
1963 785
4248 1718
5666 2288
4330 1751
1836 4537
2460 6103
3114 7744
4075 1651
2311 927
279 704
1365 543
7594 3055
1272 506
1903 4706
7671 3085
7118 2868
4289 1735
2618 1052
1125 2785
23 9
3161 7862
2368 948
750 1872
1090 2706
5665 2288
545 1370
1733 4282
1489 3684
647 1623
2870 7124
5861 2366
3111 1259
1315 3251
1185 2931
1258 3109
5194 2103
2589 1040
2055 5073
806 2017
4400 1780
8227 3309
3036 7549
168 427
1544 3815
4060 1645
2021 4989
244 615
2620 6502
1693 4184
3265 8122
1764 4358
1452 578
5492 2220
3312 1339
106 43
2954 7344
7782 3129
1213 2996
2733 6789
1717 685
7591 3053
7041 2837
2830 1144
1475 3648
1600 3954
1143 2827
1304 519
1797 719
7149 2879
1990 4916
2495 6184
564 1418
2247 900
7764 3122
3294 8195
3154 7843
5668 2289
850 2124
2924 7265
1435 3547
6792 2735
4673 1889
7507 3020
1890 4676
3074 7644
2601 6457
2522 6250
2607 1047
2855 7086
7937 3192
41 17
2201 881
1815 4486
1662 663
3326 1345
7631 3069
3181 1289
6911 2783
451 1133
1642 655
7656 3079
6232 2514
6087 2454
5300 2145
5495 2221
6372 2570
4567 1848
3219 8006
2432 6032
3330 1347
124 50
3008 1217
6262 2527
8073 3245
1366 3374
2866 1158
1294 3194
2614 1050
5486 2218
2640 6554
3377 1367
609 1526
2638 6547
3837 1552
7990 3213
2237 5533
1526 3772
112 281
915 2282
3966 1604
2349 941
669 266
1305 3223
1020 407
4150 1680
2526 6260
1353 3345
4646 1878
2466 6118
1664 664
2194 879
6402 2582
6831 2751
2528 6265
1229 3037
5372 2174
1007 402
1025 2555
2145 859
2110 5212
2187 5406
7322 2946
3168 1282
3752 1517
2203 882
180 457
1477 588
5470 2212
4860 1967
1703 4213
530 1334
6474 2609
1159 2869
3266 1321
7618 3064
8202 3298
4190 1695
5674 2292
3032 7539
319 800
2109 5209
4902 1984
246 620
3158 7854
3176 7898
2097 5180
1759 4349
973 389
212 536
449 1129
259 652
2483 6157
107 44
2657 6599
2463 6110
1922 4751
1154 2857
7157 2883
941 2350
1853 4579
3179 7906
2360 5844
6052 2441
1365 3373
6421 2588
2822 7004
184 469
8121 3265
1818 4495
413 1035
2571 6375
990 2472
2604 1046
233 588
2859 1155
303 120
160 406
5702 2304
7172 2888
101 254
7245 2916
1273 3144
765 1912
1300 3210
1665 4112
2236 5530
1975 4881
919 2292
476 187
2182 874
3138 7803
3146 7824
4450 1801
7134 2873
979 2446
3083 7665
6268 2529
5295 2143
1248 496
5582 2257
121 304
2068 5107
2676 6645
1743 696
2327 5761
2458 6097
899 2244
1022 2548
433 170
2450 981
6203 2503
6129 2471
1522 3763
3274 1323
4204 1700
7528 3028
1751 699
2472 6132
326 817
4726 1911
6449 2598
1696 676
2104 5197
4699 1900
151 385
7154 2882
1612 3985
6060 2444
2824 7008
3825 1547
6574 2648
2030 5013
6022 2428
1601 3959
1299 3207
7598 3056
2221 890
4556 1844
1017 2534
1250 497
1445 3571
2431 973
2833 7031
2778 1122
1070 427
265 106
6199 2502
472 1187
6280 2533
492 1236
2391 957
1603 3963
691 274
7522 3025
1399 556
3340 1351
863 2155
2054 5070
5450 2203
6935 2793
5051 2047
2111 5215
1386 3427
3812 1542
1338 3310
892 355
7406 2980
1228 489
823 2058
2130 852
1060 2637
365 915
610 1529
1230 490
1343 3322
1177 2910
3199 1296
2125 5249
2048 5055
2739 1105
386 968
2678 1078
5315 2150
393 985
2361 5849
6143 2477
21 51
5016 2032
1796 718
2295 5681
341 855
2490 6172
618 1551
3132 7791
3083 1248
2204 882
1927 770
6236 2516
5997 2419
3803 1539
1656 4089
6324 2551
3776 1528
5062 2051
1052 2619
179 455
7886 3170
134 339
1083 432
2621 1053
1485 3673
1669 4124
268 107
414 1036
2925 1183
2544 6304
5725 2313
1411 3487
3765 1523
1443 3568
874 2183
6148 2479
7251 2918
5913 2386
3173 7893
4312 1744
2166 5355
2742 1107
1131 2799
7220 2906
2210 5465
2932 7284
6298 2542
8217 3304
2535 1017
740 1849
6626 2668
421 1056
2705 6718
2820 6998
2483 6156
494 194
599 1502
6251 2522
1125 448
403 1008
2988 7423
1114 2761
627 1574
125 315
1515 604
5304 2146
871 2176
8065 3242
3011 1218
2118 847
4017 1626
7108 2863
7467 3004
1741 4302
2283 915
1491 3688
4722 1909
272 109
2060 5086
5385 2178
2803 6956
7223 2907
5817 2349
3262 8112
1936 774
4580 1853
6235 2516
1844 4557
4785 1936
255 640
2275 5632
210 532
1940 776
3517 1423
1704 680
4300 1740
7835 3151
6254 2523
7255 2920
4816 1948
2050 5059
4195 1697
2657 6598
2917 7249
527 1325
173 442
5889 2377
1716 4245
6915 2785
1301 3214
1056 2626
1287 3177
2299 5690
584 1466
3239 1311
1776 709
1997 4934
1578 3902
748 297
2707 1090
717 1793
3212 7987
3049 7581
4521 1830
365 144
2512 6226
1276 3151
237 94
2844 7058
2649 1065
8014 3222
3115 7746
3591 1453
241 96
161 411
2904 7215
146 370
590 1482
1414 3495
2650 6579
4503 1822
6356 2563
7224 2908
1579 629
1180 2916
2996 7444
8023 3225
1971 4869
3137 7801
2392 957
3867 1564
3155 7845
905 361
821 2053
6358 2564
4423 1790
1084 2693
2418 5995
5311 2149
7465 3003
1269 3135
3166 7876
5436 2198
2045 818
611 242
1995 4930
1243 3072
5613 2267
1412 3490
2263 5600
4834 1955
27 67
7187 2894
3683 1489
8046 3235
3057 7599
5682 2295
334 839
7614 3063
2757 6847
3223 8017
1346 3329
3084 7669
503 198
221 559
2160 864
6981 2813
2977 7399
1658 661
2968 1200
1978 4889
1407 3480
2214 5476
1868 4621
4922 1993
1094 2714
3842 1554
5652 2283
1018 2538
699 277
1382 550
193 493
6601 2658
2703 6715
8145 3276
488 1224
4488 1816
7342 2954
204 82
7986 3212
7736 3111
1561 3861
7246 2916
6830 2751
1191 474
1436 571
1182 470
1379 548
2435 6039
2155 5326
2929 1184
2896 7193
773 1934
2412 965
2586 1038
670 1681
1254 499
5145 2083
1165 2882
232 586
1139 2819
945 376
1964 4854
4932 1996
3804 1539
4569 1849
839 2095
2267 5612
6655 2679
2462 6107
5243 2122
1689 4173
4008 1622
387 969
1646 4064
2568 6367
1538 613
6055 2442
5740 2319
6166 2487
2670 1074
5350 2164
1491 3689
566 224
2196 879
265 667
1657 4093
2133 5270
22 9
2029 811
311 780
4885 1977
2026 5003
5536 2238
2086 5155
965 2410
2315 5730
5512 2228
1844 4555
1957 783
2187 876
1111 2752
1719 4252
433 1087
1005 2507
252 100
558 221
1214 2998
1581 3910
960 2399
3273 8139
595 1494
2200 5441
3929 1590
2015 4976
311 782
2566 6364
66 164
3107 7725
2188 5408
4003 1620
274 109
2926 7270
7258 2921
7339 2952
557 1401
4659 1883
3178 7904
2474 6136
1977 790
4056 1643
429 1075
2533 6279
196 79
2587 1039
323 811
2980 7405
392 983
4107 1663
3060 7608
968 2420
6482 2612
7738 3112
5764 2328
135 55
764 1908
2676 6647
3071 7636
3145 7822
13 33
6760 2723
1020 2542
1673 4134
4733 1913
5550 2244
5768 2330
5990 2416
2893 7186
174 446
1674 668
3682 1489
3075 7647
3182 7912
6523 2629
6009 2423
2856 7090
2344 5804
572 1439
3044 1231
7806 3139
841 2100
2083 834
2082 833
1394 3445
5892 2378
345 137
781 1953
3120 7759
2193 5423
7369 2966
2206 5457
7948 3196
5202 2106
1886 4666
7957 3200
2578 6394
7283 2931
1092 435
2714 6739
1273 506
1429 567
5313 2150
4320 1747
1983 792
1607 3972
1392 3442
1569 3879
138 348
2113 5220
5552 2245
1667 4118
2447 6067
2364 5857
145 369
2756 6842
2771 1119
1397 3453
48 20
7920 3185
4152 1681
4944 2001
2440 6049
1559 621
5084 2059
3296 1332
4268 1727
1731 4278
5120 2073
2692 1084
1226 3031
3233 8041
4877 1973
6676 2687
2690 6683
1317 3256
5020 2033
5147 2083
2263 5602
1295 3197
3238 8054
8110 3261
3826 1548
7861 3160
1957 4837
505 199
2260 5592
899 358
788 314
3716 1502
1247 3082
4012 1624
486 1219
7480 3010
4484 1814
3288 8179
2156 863
7366 2964
3206 7972
959 2397
3272 1323
5594 2261
2883 7158
942 2352
3257 8100
5775 2333
2793 6936
3133 1268
2888 7173
5031 2038
2591 6428
4456 1803
1113 2757
956 2389
537 212
6552 2639
1020 2543
3876 1568
1866 748
2171 5366
436 1095
2450 6078
195 78
2015 4977
7983 3211
981 392
4067 1648
6800 2738
49 122
2957 7350
1031 2571
5649 2281
384 961
1278 3158
347 137
822 2054
754 1883
1834 4532
28 70
4208 1702
5587 2258
5928 2392
2181 873
1725 4264
3243 1312
816 2041
2567 6365
3311 1339
87 218
630 1581
1562 3864
155 395
132 333
3145 7823
2395 5936
3460 1400
4406 1782
3002 7460
7263 2923
2300 5692
7268 2925
751 299
4671 1888
818 2044
747 297
1195 2954
1373 546
390 153
2782 1124
1982 792
2570 6373
3260 1318
2977 1204
276 697
1517 605
5991 2416
1155 2860
2274 912
12 30
1571 3885
3018 7502
8185 3291
3286 8174
6493 2617
308 774
3118 7752
5238 2120
2512 6228
2546 6311
213 85
2727 6771
2430 972
216 549
7277 2929
1952 4823
1415 3497
3021 7509
6541 2635
2086 5154
6532 2632
4048 1640
7400 2978
7421 2987
4493 1818
1859 4598
4363 1766
868 346
3180 7909
1577 3898
1386 3429
2505 6209
4963 2009
312 784
1817 4492
1259 3112
95 240
7355 2959
1869 4623
2336 5782
718 1795
1219 3013
228 91
1952 4824
606 1520
1170 465
4962 2009
6215 2507
1427 3528
2160 5339
116 292
1057 422
4905 1985
4945 2002
3182 7913
7630 3068
323 810
5255 2128
2830 7024
1920 4746
2253 903
7757 3120
5925 2391
3204 7966
3033 7540
7555 3038
8120 3265
4421 1789
541 213
82 33
1460 3609
1329 528
1245 3077
3040 1230
1607 640
352 139
3667 1482
2574 1032
1266 504
72 29
4644 1877
3201 1296
87 35
4436 1796
2114 5222
208 83
2898 7198
771 1930
630 1582
2923 1182
2514 1008
2784 6912
3 8
3552 1437
3023 7515
708 1774
1141 454
5308 2148
577 1451
8045 3234
6263 2527
2698 6703
2163 5348
5953 2401
752 1876
985 2458
1770 706
610 1530
2726 6767
3302 8211
4255 1721
3055 1235
2906 1175
1725 4265
3102 1255
2847 7067
2614 6487
2232 5522
1726 689
1316 524
6412 2585
3287 8176
1086 2697
977 2442
3168 7882
2889 7176
5288 2140
2075 830
2497 6189
1190 2942
4616 1866
3035 7547
506 1271
7726 3107
4260 1723
3015 1220
2346 940
6577 2649
2753 6834
194 495
8228 3310
5777 2334
2076 5129
40 99
59 147
2840 7050
1009 2515
797 1994
2172 5368
2856 7091
1598 3949
1404 3471
2056 822
4674 1889
7241 2914
2356 943
374 940
481 189
8103 3258
7079 2852
6882 2772
4715 1906
122 308
1267 504
1222 3022
3297 8200
4383 1774
439 1101
5452 2204
4836 1956
2273 5627
272 686
72 178
61 152
1150 457
2346 5809
8206 3300
7196 2897
955 2386
7768 3123
6716 2704
1108 441
240 607
1239 3063
4620 1868
303 761
429 1077
8093 3254
4068 1648
1083 2690
914 2280
4480 1813
1703 4211
2717 1095
3152 7839
2152 5320
1890 4675
267 670
2839 7047
2942 7313
2293 5676
5110 2070
613 1537
1926 4760
2142 857
2286 5660
3642 1473
96 243
4076 1651
7659 3080
4541 1838
4635 1874
3100 7710
4975 2014
2889 7177
6392 2578
6093 2456
743 1856
809 2024
2307 5710
5769 2330
7037 2835
3090 7684
5902 2382
6691 2693
2711 6733
1333 3298
1570 625
7411 2983
2328 933
1629 4026
1012 2522
1357 540
2914 1179
2338 5789
2336 5783
269 108
6922 2788
767 1916
127 51
2617 1051
1085 432
3362 1361
1996 798
151 384
1590 3931
7997 3216
2648 1064
739 1846
7222 2907
7484 3011
7266 2924
5938 2396
6829 2750
5706 2306
290 115
1542 3811
635 253
275 110
6331 2553
2802 6955
7670 3085
85 211
3277 8150
7488 3013
3573 1445
1989 795
3150 7834
1063 2643
641 1609
6536 2634
6782 2731
2117 5230
257 647
3431 1387
5885 2375
798 1995
5828 2353
1484 3672
7982 3210
5454 2205
1363 3367
2918 7252
2704 6717
7506 3020
143 362
1472 586
5246 2123
2138 5285
8234 3312
5088 2061
1595 635
1768 705
233 93
3454 1397
2648 6575
5855 2364
1665 4113
281 708
1325 3279
1375 3400
1004 2504
3516 1423
2025 5001
556 220
4462 1806
737 1842
2595 6441
7054 2842
1699 4202
2775 1121
356 894
534 211
684 1713
2136 5279
321 804
5221 2113
799 318
711 282
7557 3039
1366 3376
6937 2794
733 1829
4308 1743
56 139
370 929
2979 7403
3468 1403
2472 6131
5965 2406
2025 5000
514 1293
1571 3884
2098 5182
449 176
2664 6617
3 7
3616 1463
195 496
6555 2640
2850 7075
225 569
3996 1617
2249 901
2237 5534
2073 5121
3308 1337
1493 3695
1645 4061
1887 4669
349 875
7826 3147
1863 747
6404 2582
3702 1496
1832 4528
1501 3713
2216 5483
3581 1449
6516 2626
2673 6639
3179 7905
2835 7036
5785 2337
2075 5126
1710 683
1836 4536
662 1660
1875 4639
5624 2272
567 1427
3035 1228
1129 2795
2033 5018
4720 1908
3192 1293
3344 1353
1011 2520
435 1093
10 4
7924 3186
1046 2605
463 1165
2815 1138
7095 2858
3186 7923
2561 6349
5781 2335
4225 1708
1846 4561
6580 2650
1390 3437
1508 601
3107 7727
5527 2234
1278 508
3729 1507
605 1518
401 1003
7191 2895
174 444
5940 2397
720 1799
2468 989
8143 3275
7248 2917
5493 2220
1079 2681
1355 3349
980 2449
1959 4842
3130 7785
1147 2838
337 134
923 2303
4815 1948
7642 3073
8183 3290
3439 1391
5139 2080
170 69
2302 5697
7895 3174
5163 2090
473 186
373 147
2797 1130
2165 5353
8136 3272
7639 3072
2948 7327
6330 2553
2260 5591
4847 1961
2453 6084
2427 971
277 110
7732 3109
996 2487
547 1375
7043 2838
1140 2820
2879 7148
5846 2360
1793 4430
4705 1902
5087 2061
2052 5064
1596 3946
2112 5218
7818 3143
2284 5656
4594 1858
6088 2455
137 346
7316 2943
2610 6476
402 158
1424 566
274 690
1749 4324
2629 6524
581 1460
920 2294
3168 7880
7429 2990
7914 3183
190 484
994 2481
1765 4360
1907 4717
1947 4814
1350 3337
378 149
447 175
6680 2689
1492 3693
5599 2262
2998 7450
2236 5532
993 2480
1231 3042
7780 3129
2785 6916
1834 735
2394 958
2505 6207
598 1501
1402 3467
287 726
1417 3501
829 2072
232 587
385 964
2315 928
2775 6889
4099 1660
2848 1151
104 42
1862 4607
2 5
1602 3961
3160 7859
7907 3180
1679 4147
1542 3810
6272 2530
6991 2817
2324 931
320 803
641 255
2491 6174
1198 2962
1308 3230
5429 2196
6940 2795
1611 642
5377 2176
371 146
1866 4615
2358 5839
1946 4811
2812 6979
3017 7499
2421 969
1418 3504
2115 846
2382 5901
2885 7164
1716 4244
412 1033
3082 7664
6581 2650
6114 2464
5242 2122
2320 5743
367 920
851 2127
7367 2965
2732 6785
278 111
15 6
2409 5973
2740 1106
2876 7140
564 1420
3091 1251
1424 3519
2636 1060
1202 2971
3632 1470
1941 776
2460 6102
7784 3130
5455 2205
6291 2539
188 76
1364 3369
3967 1605
504 198
7828 3148
938 373
6855 2760
2581 1036
2119 5234
5131 2077
5468 2211
1145 455
934 2330
75 186
3217 7999
638 1601
151 61
809 323
429 1076
1439 3556
623 1564
162 412
2377 952
1653 659
2759 6852
5989 2416
2257 5584
1210 482
2550 1023
1773 708
5865 2368
1995 4928
2823 7007
5177 2096
309 775
1589 633
183 465
1171 465
480 189
2758 6850
284 113
4132 1672
1759 702
3796 1536
2490 6173
1807 4466
886 353
3987 1613
1666 4115
3593 1454
455 1144
4821 1951
2387 5915
2234 895
687 1720
601 1507
1249 3087
7232 2911
954 2383
464 1167
4983 2018
5342 2161
7635 3070
1472 3639
1632 4032
2154 5323
1860 4601
304 763
713 1784
2899 7199
2976 1204
2329 5767
4126 1670
431 1082
2970 1201
1291 3188
1762 4354
4217 1705
2791 6931
2978 7402
7844 3154
2752 6833
4285 1734
2508 1005
1771 707
1309 3235
2840 7049
2329 5765
1834 4531
592 1485
103 258
1599 3953
3220 8010
2948 7326
359 142
6342 2558
1469 585
1795 4434
6758 2722
5966 2406
1881 4655
2707 6722
8048 3236
1989 4914
3255 8095
4745 1919
5022 2034
7792 3133
1941 4796
3196 7946
2940 1189
7971 3206
1166 464
5137 2080
3878 1569
2676 6646
3263 8115
6794 2736
5616 2268
3649 1476
1303 518
5835 2356
6693 2694
1902 4704
2611 6478
3995 1617
2041 5038
4036 1634
744 1858
2756 1113
327 820
2007 4959
4429 1793
1549 3829
4197 1698
2594 6438
1523 3766
8173 3286
1583 3913
6306 2545
687 273
1788 4419
1249 3086
2646 6571
4599 1859
807 2019
234 591
4481 1813
4966 2011
207 526
932 371
1529 3779
1850 4572
639 1605
510 1283
2462 6108
5675 2292
756 1888
1854 4582
6111 2463
2681 6659
5335 2158
560 221
7437 2993
1264 3123
6491 2616
6150 2480
917 2289
6858 2761
2290 918
2209 5463
4465 1807
2254 5576
5250 2125
2305 924
1431 3538
2286 916
835 2086
3670 1483
1238 493
2885 7165
1447 3577
2663 6616
909 362
2403 5957
1283 3169
5575 2253
1616 3993
759 303
1551 3833
97 245
105 43
360 142
2365 5859
398 157
1144 2828
2935 7295
4534 1835
387 970
454 1142
487 1223
2699 6705
3481 1408
484 1216
3016 1220
1132 2800
2153 862
874 348
7881 3168
4471 1809
2404 5959
1479 3659
7428 2990
2823 7006
970 2423
673 1688
7849 3156
2969 7377
7152 2881
1335 3303
2248 5560
499 1253
638 1603
7805 3138
7348 2956
2962 7362
4010 1623
3101 1255
2122 849
5477 2214
2513 6230
1862 746
2907 7221
1790 715
825 329
1410 561
4292 1737
473 1190
6473 2608
1145 2833
7302 2938
5790 2339
3206 7970
3163 7867
3087 7674
7894 3174
8231 3311
7743 3114
2318 5737
1108 2745
1493 3694
791 315
2252 5571
1588 3926
858 2144
6377 2572
1331 3295
2476 6141
1154 2858
3409 1379
1783 712
3405 1377
7610 3061
2491 6176
7238 2913
2299 5691
1297 3204
3101 7712
1046 417
5923 2390
3897 1576
3909 1581
525 1320
3294 8193
6924 2789
1646 657
3353 1357
2972 7384
3569 1444
362 908
193 492
7470 3006
4515 1828
550 217
6807 2741
1492 3692
487 191
1245 3078
1789 4422
482 189
1423 3518
2663 6615
1263 502
1787 4417
1181 2920
1148 2841
1696 4191
4433 1794
537 1350
5787 2337
2003 4948
4626 1870
2685 6671
1555 3846
1675 668
3094 1252
1529 3778
1197 476
1903 762
2618 6497
2100 5186
1405 3474
6065 2446
1445 3572
2759 6851
5363 2170
1001 2498
4448 1801
305 121
3087 7675
45 18
1892 4681
1670 666
172 70
4645 1877
16 6
2900 7202
7617 3064
91 36
1072 2666
7489 3013
2079 5135
1584 3917
782 1955
721 1802
182 464
4023 1628
1781 4403
1528 3777
6917 2786
2287 5664
3641 1473
7750 3117
929 2317
3214 7991
446 1120
1657 661
1772 4379
2297 921
5745 2321
2727 6772
664 1665
69 171
1303 3219
1117 2766
427 1071
2431 6030
2269 5617
2977 7398
1617 644
1176 2908
7479 3009
831 2078
8159 3281
5625 2272
1369 3384
2584 6408
850 2125
5630 2274
7192 2896
1843 4553
7230 2910
1917 4740
1659 662
368 145
1710 4229
6283 2535
701 278
2355 5832
5812 2347
2333 5774
215 546
2197 5432
147 372
7335 2951
2050 5061
7722 3105
4250 1719
7816 3142
1088 433
2496 1000
643 1615
5814 2348
7155 2882
754 1882
424 167
2901 7207
5214 2111
273 109
8106 3259
3218 8002
2627 6517
1609 3978
4982 2017
92 232
325 814
3248 1314
794 316
1983 4900
7950 3197
6198 2502
5806 2344
2702 6711
1268 504
4276 1730
1908 4719
2214 887
3738 1511
2418 968
7413 2984
4362 1766
2173 5370
2801 6952
4525 1831
2715 6741
2082 5144
6211 2506
2020 807
5174 2095
812 2032
198 80
1657 4091
4232 1711
419 1049
153 62
4716 1907
2965 1199
3183 7916
277 698
4160 1685
1567 624
2792 6933
6137 2474
2991 7432
2897 7194
1557 3849
3354 1357
1366 3375
1812 4477
895 356
1031 411
293 738
1421 3511
625 249
1367 3378
753 1878
2245 5553
4695 1898
1360 541
2853 7081
2169 5361
5017 2032
1921 4749
436 171
2470 6128
947 2367
394 988
2840 1148
1097 2721
131 330
234 592
269 676
3128 7778
4408 1783
2806 6964
663 264
2254 5577
4690 1895
2811 6978
2199 5438
4696 1898
7119 2868
4803 1943
1984 4901
2464 6113
4985 2019
1579 3904
126 317
487 1221
1964 785
77 190
57 140
893 2230
1078 2677
928 370
7612 3062
76 189
5109 2069
3224 1306
2406 963
2509 1006
1616 644
1516 604
6058 2443
8052 3237
2593 6435
2884 7161
1668 4121
428 1073
3066 7622
3043 7566
2141 5290
4092 1657
7076 2850
5118 2072
6033 2432
341 856
1450 3584
6197 2501
2574 6381
6636 2672
466 1173
3142 7815
3426 1385
5464 2209
1471 3637
2557 1026
6913 2784
3630 1469
907 2263
151 383
3048 7578
2 1
2678 6651
7561 3041
1590 3930
1700 678
639 1606
4375 1771
2449 6073
2500 6195
7493 3015
5979 2411
1927 4763
1516 3750
1183 2926
1993 4924
33 83
2637 6545
5475 2214
6064 2446
6310 2546
2530 1015
5984 2413
1043 2597
1463 3615
2898 7197
3054 1235
477 1199
3099 7706
7483 3011
1584 3916
2075 5125
4886 1977
881 351
6500 2619
1865 748
5696 2302
1185 2930
1901 4703
2869 7123
608 1525
8154 3279
1198 2963
2602 6460
7478 3009
2069 828
1463 3617
6440 2595
7219 2906
2113 5219
555 1395
407 1018
553 218
1361 541
1474 587
1416 563
390 978
2657 6597
2025 809
510 1281
52 128
1819 728
3200 1296
3703 1496
452 1136
3008 7476
6695 2695
4861 1967
1361 3361
1841 4548
2747 6821
112 46
5376 2175
7748 3116
7853 3157
6119 2466
3095 7695
2943 7315
1406 559
5 12
989 2470
5713 2308
131 331
7592 3054
2711 6731
7981 3210
501 1259
1524 608
3868 1564
2645 6569
201 511
144 366
7464 3003
3271 8133
1640 4049
3041 1230
1005 402
3167 1282
2775 6891
1540 3805
6161 2485
2732 1102
1533 3789
967 2416
8005 3219
1903 4707
528 208
2986 7417
4851 1963
2056 5075
3149 7830
2265 5606
5179 2097
5554 2246
2590 1040
1081 2686
2982 7410
795 317
1415 3498
3105 7721
2615 6490
3370 1364
7770 3124
6962 2805
3230 8034
6167 2488
586 1471
512 1287
826 2065
1153 2854
3025 7520
6400 2581
4938 1999
2762 6860
3083 7666
389 974
1257 500
1921 4748
4275 1730
5808 2345
855 2136
3257 1317
1921 768
6986 2815
5301 2145
75 185
1925 4759
2219 5489
3070 7633
307 122
1459 3606
4110 1664
343 861
511 1284
2008 4960
2889 7175
1527 3773
1729 690
180 458
367 921
7762 3121
4656 1882
6371 2569
2873 1161
7353 2958
247 621
1896 4692
1266 3127
2846 7065
5367 2172
1900 4701
1873 4632
733 1831
6051 2441
595 1493
755 1884
2794 1129
1848 4566
7180 2891
1280 509
2323 5753
1552 3836
1952 4825
889 354
958 2395
704 1764
1144 2829
7121 2869
8216 3304
2212 886
4167 1687
2585 1038
1637 4041
2947 7324
2683 6664
1127 2789
2340 5793
1041 2591
4514 1827
953 380
602 1510
2483 995
6318 2549
602 1511
805 2014
399 157
626 249
3680 1488
1608 3975
5039 2042
3094 7692
645 1618
329 826
375 943
3248 8078
7654 3078
2733 6787
3028 7529
7918 3184
8155 3279
6641 2674
5032 2039
3153 7840
1803 4454
5394 2183
6594 2656
1405 3473
666 1669
684 1714
1000 2495
5336 2159
2900 1173
4366 1767
1822 4504
1784 4410
5264 2131
876 2188
616 1546
7051 2841
1952 781
469 1179
2871 1160
2069 5108
6942 2796
2320 5742
1187 2935
2837 7040
4359 1764
2687 1082
26 10
7899 3176
2658 6600
1098 2723
4242 1715
555 1394
2219 5490
1306 520
1852 742
3357 1359
2932 7285
4799 1942
2337 937
1292 3191
1203 2974
7968 3205
2922 7261
2961 7360
3245 8072
1224 3026
4356 1763
301 755
3883 1571
7936 3191
1974 4879
1284 3171
6464 2604
1279 3160
802 2005
682 1708
1063 424
2880 7150
1253 3097
1462 582
1570 3881
5329 2156
3809 1541
1481 590
6945 2797
5629 2273
2612 6481
2806 1134
2368 5864
1042 416
1179 2915
7351 2957
4884 1976
4382 1774
110 276
7325 2947
617 1547
1378 548
1935 4782
1557 3850
7915 3183
268 674
1412 3489
1736 4290
2611 1049
2802 1132
8009 3220
4090 1656
6973 2809
2659 6603
2960 7357
4820 1950
2560 6348
1465 583
3307 1337
1941 4797
2117 5231
2625 6512
1610 3979
3366 1363
1714 4239
4805 1944
439 172
6567 2644
3359 1360
2147 859
2131 5263
2043 5043
161 409
2138 5283
3198 1295
3002 7462
4007 1622
2874 7136
5985 2414
4220 1707
1014 405
4298 1739
1953 4827
2020 4988
3830 1549
3184 7919
1869 4624
1616 3992
1472 3638
6908 2782
1965 4856
3084 1248
711 1780
912 364
2101 5189
6870 2766
1153 459
1534 3790
480 1206
3119 7756
4216 1705
2132 5267
995 397
1725 689
2081 5141
3205 1298
6709 2701
1072 427
2318 929
700 1755
1833 4530
2057 5078
