68825
1 0 1 1 0 0 1 1 1 0 1 1 0 0 0 0 0 1 0 1 0 1 0 1 0 0 0 0 1 1 0 1 1 1 0 1 0 0 0 0 1 0 1 0 1 0 0 1 1 1 0 1 1 1 1 0 0 1 0 0 1 0 0 0 1 0 0 1 0 1 0 1 1 0 1 0 0 0 0 0 1 0 1 0 0 1 0 0 0 0 1 0 0 0 0 0 0 0 0 1 0 1 0 1 0 1 1 0 1 0 1 0 0 0 1 1 0 0 0 1 1 0 1 0 1 1 1 0 0 0 0 0 0 1 1 1 1 0 0 0 0 0 0 1 1 0 1 1 1 1 0 1 1 0 1 1 1 1 1 0 0 0 1 1 0 0 0 1 0 1 1 0 1 1 1 1 0 1 1 1 1 1 0 0 1 1 0 0 1 1 1 0 1 1 0 1 0 1 1 0 1 1 0 1 0 1 1 1 0 1 0 1 0 0 0 0 1 1 0 0 1 1 1 1 0 1 0 0 0 1 1 0 1 1 1 0 0 1 0 1 0 1 1 1 1 0 1 0 1 1 1 1 1 1 0 0 0 0 0 0 1 1 0 1 1 0 1 1 1 1 1 1 1 1 1 1 1 0 1 0 0 1 1 1 1 0 0 0 0 0 1 0 1 1 0 0 1 0 0 1 1 0 1 1 0 1 0 1 0 1 1 0 0 1 0 1 0 1 0 0 1 0 1 0 0 1 0 1 0 1 0 0 1 1 1 0 1 1 1 1 1 0 0 0 0 1 1 1 0 1 1 0 1 1 1 1 0 0 1 1 1 0 0 0 1 0 1 1 1 0 0 1 0 0 0 0 1 0 1 0 1 0 0 1 1 1 1 0 0 0 0 1 1 0 0 1 1 0 0 0 1 0 0 1 0 1 0 0 0 0 0 1 0 0 0 0 0 0 0 0 1 0 0 1 1 0 0 0 0 0 0 1 1 0 1 0 1 1 0 1 0 0 1 1 1 1 0 0 0 1 0 0 1 1 1 0 0 0 1 1 1 1 1 0 0 0 1 1 0 1 0 0 0 1 1 0 1 0 1 0 1 1 1 1 1 1 1 0 1 0 0 0 1 0 0 0 0 1 0 0 0 0 1 0 1 1 0 1 0 0 1 0 1 1 1 0 1 0 1 1 1 1 0 1 0 0 0 1 0 1 0 0 1 1 0 1 1 1 0 1 0 0 0 0 1 1 1 1 0 0 0 0 1 1 1 0 0 1 0 1 1 1 1 0 1 1 0 0 1 0 0 1 0 0 0 1 0 0 1 1 1 1 1 1 1 1 0 1 0 0 1 0 1 1 1 0 0 0 0 1 0 0 0 1 0 0 0 1 1 0 0 1 0 1 0 1 1 0 0 1 1 0 0 0 1 1 0 1 1 0 0 0 1 1 0 1 1 0 0 0 1 0 1 0 1 1 1 1 1 1 0 1 0 1 1 0 0 1 0 0 1 1 0 0 1 0 1 0 1 0 1 0 1 1 0 1 0 1 1 0 0 0 1 0 1 0 0 0 0 0 1 0 0 0 0 0 1 0 0 0 0 1 1 0 0 0 1 0 1 1 1 0 0 1 0 1 1 0 1 0 0 0 0 1 0 1 0 0 0 1 1 0 1 0 1 0 1 0 1 0 0 0 0 1 1 1 1 0 0 1 0 0 0 0 0 0 0 1 0 1 0 0 0 1 0 0 1 0 1 0 1 0 1 0 1 0 1 0 1 1 1 0 0 0 1 0 0 1 0 0 1 1 0 0 0 0 0 1 0 0 1 0 1 0 0 0 0 0 0 0 0 1 1 1 1 1 1 0 1 1 1 1 0 0 0 0 1 1 1 0 1 0 1 0 1 1 0 0 0 0 1 0 1 1 1 1 0 0 0 0 1 0 0 0 1 1 0 1 0 0 0 0 1 1 0 0 0 0 0 0 1 1 1 1 1 1 0 1 0 0 1 1 1 0 1 0 1 1 0 0 1 1 0 0 1 1 0 1 1 0 0 1 1 1 1 0 0 1 1 1 0 1 0 0 0 1 1 0 0 0 0 0 0 1 1 0 1 1 1 1 0 0 0 1 0 1 0 1 0 0 1 0 1 1 0 0 0 1 1 1 1 0 1 1 0 0 1 1 0 0 0 1 1 0 1 1 0 1 0 1 0 1 1 0 0 0 0 1 1 0 1 1 1 0 1 1 0 1 1 1 0 1 0 0 0 1 0 0 1 1 0 1 0 0 1 1 0 1 1 1 0 1 0 0 1 0 0 1 0 1 1 1 1 0 1 1 0 0 1 0 1 0 1 0 1 0 1 1 0 1 0 0 0 0 1 0 0 0 1 1 1 0 1 0 1 0 1 1 1 0 1 1 0 0 0 0 1 1 1 1 0 0 0 0 1 0 1 1 0 1 1 1 1 1 0 1 1 1 1 1 0 0 0 1 1 1 0 0 1 1 1 1 0 1 0 1 1 1 1 1 0 1 1 1 0 0 0 1 0 0 0 0 1 1 1 1 1 0 0 1 0 0 0 1 1 0 1 0 1 0 0 1 1 0 1 1 1 0 1 1 1 1 0 1 0 0 0 0 1 0 0 1 0 0 1 0 0 0 0 1 0 0 1 0 0 0 1 1 0 1 0 0 0 0 1 0 1 1 0 1 0 0 0 1 1 1 0 1 0 1 0 0 0 1 0 1 0 1 0 1 0 1 1 1 1 0 1 1 0 1 1 0 0 1 0 0 0 1 1 0 0 0 0 1 1 1 1 1 1 1 1 0 0 0 0 1 1 0 1 1 1 1 1 0 0 0 0 0 1 0 0 1 0 1 0 1 0 1 1 1 0 1 1 1 0 0 0 1 1 0 0 1 1 0 0 1 0 1 0 1 1 0 1 0 0 0 0 0 0 1 1 1 1 0 0 1 1 1 1 1 0 0 1 0 1 1 1 1 0 0 1 1 0 0 1 0 1 0 0 0 0 0 1 0 1 1 0 1 0 1 0 0 1 0 0 0 0 1 0 1 1 1 1 0 1 1 1 0 1 1 1 1 0 1 1 0 1 0 1 0 0 1 0 0 1 0 0 0 1 0 0 1 0 1 0 1 1 1 1 1 1 1 0 0 0 0 1 1 0 0 0 1 0 0 1 0 0 1 1 1 0 0 1 1 1 1 0 1 0 0 0 0 0 0 0 1 1 1 0 0 0 1 1 0 1 0 1 1 0 1 1 0 0 1 0 1 0 1 0 0 1 1 1 0 1 1 0 1 0 0 0 0 0 0 1 0 0 0 1 0 0 1 0 1 1 0 0 0 0 1 0 0 1 0 0 0 1 1 1 1 1 1 0 1 0 0 1 1 1 1 0 1 1 1 1 1 1 0 0 0 1 1 1 1 0 0 1 0 1 0 1 1 1 0 0 1 0 1 0 0 1 0 0 1 0 1 1 0 1 1 0 0 1 0 0 0 0 1 0 1 1 0 1 0 1 0 0 1 1 1 0 0 0 0 1 1 1 0 0 1 0 0 1 1 0 0 0 0 0 0 0 0 0 1 0 0 0 0 0 1 1 1 1 0 1 1 1 0 1 0 1 0 1 0 1 1 1 0 0 1 0 1 1 0 1 0 0 0 0 0 1 0 0 0 0 0 1 0 0 1 1 0 0 0 0 1 1 0 1 0 0 0 1 0 0 0 1 1 1 0 0 0 0 0 0 0 0 1 1 0 0 0 0 0 1 1 0 0 0 1 0 0 1 0 1 1 0 0 0 0 0 1 0 1 1 1 0 1 1 1 0 1 1 0 1 0 0 1 0 1 0 0 1 0 1 0 1 1 1 1 0 0 0 1 1 1 0 0 0 0 1 1 1 0 1 1 0 1 1 0 0 0 0 1 1 1 1 0 0 0 0 1 1 1 1 1 0 0 0 0 0 1 0 0 1 1 0 1 1 0 1 1 0 0 0 0 0 0 1 1 1 0 1 1 1 1 0 0 0 1 1 1 1 0 0 1 1 0 1 1 1 1 0 0 0 1 1 1 1 0 1 0 0 1 1 1 1 1 1 1 0 1 0 1 0 1 1 0 0 0 1 1 1 1 1 1 1 1 1 1 1 1 1 1 0 0 1 1 0 1 0 1 1 1 1 0 0 1 0 1 1 1 0 1 1 0 1 0 1 1 1 0 0 1 0 1 1 0 1 0 0 1 0 0 1 1 1 1 0 1 0 1 0 1 1 1 0 1 1 0 0 1 1 0 1 0 1 0 0 1 1 0 1 0 0 0 0 1 1 0 0 1 0 1 1 0 0 1 1 0 1 0 0 1 1 1 0 0 1 1 0 0 1 0 0 1 0 1 1 0 0 1 0 1 0 0 1 0 1 1 1 0 0 0 0 0 1 1 1 0 0 0 1 1 0 1 0 1 1 1 1 1 0 1 0 1 0 0 0 1 0 0 0 1 1 1 0 1 1 1 1 1 1 1 1 0 1 1 0 0 1 0 1 1 1 0 0 0 1 1 0 1 0 0 1 1 1 0 0 0 1 1 1 1 1 0 1 0 0 0 1 1 0 0 1 1 0 1 1 1 1 0 0 1 1 1 1 0 1 1 0 0 0 1 1 1 0 1 1 1 0 0 1 0 1 0 1 0 0 1 1 0 0 1 1 0 0 1 1 0 1 1 1 1 0 1 0 0 0 0 1 0 1 0 1 0 1 1 1 1 1 0 0 1 1 1 1 0 0 1 0 1 0 0 1 1 1 1 1 0 0 1 1 1 0 0 1 0 1 0 0 1 0 1 1 0 0 0 1 1 0 0 0 0 1 1 1 1 0 1 0 1 0 0 1 0 0 1 0 0 0 0 0 0 0 0 0 0 1 0 1 1 0 1 0 0 1 1 0 1 1 1 0 1 0 0 0 0 0 1 1 1 0 0 1 1 1 1 0 0 1 1 1 0 1 1 0 1 1 0 0 1 1 1 0 0 1 0 1 0 1 1 0 1 0 1 0 1 0 0 0 0 0 1 1 1 0 0 1 0 0 0 0 0 0 0 0 0 0 0 0 0 0 0 1 0 1 1 0 0 0 0 0 1 0 1 1 0 0 1 1 0 0 0 0 1 0 1 0 0 1 0 0 1 0 1 1 1 1 0 0 1 0 1 0 0 1 1 1 0 0 0 0 1 1 0 1 1 0 1 1 0 1 0 1 0 0 1 1 0 0 0 1 0 1 0 0 1 0 1 1 0 1 0 0 1 0 0 0 0 1 0 0 1 1 0 1 0 1 0 0 0 1 1 0 0 1 1 0 1 0 0 1 1 0 0 0 1 1 1 1 0 1 0 1 0 1 0 1 0 1 0 1 1 0 1 0 0 0 0 1 0 0 1 1 0 1 1 1 0 1 1 0 0 0 1 0 1 1 1 1 1 1 1 0 1 1 0 0 1 0 1 1 0 0 0 1 1 1 0 1 1 1 1 0 0 1 1 1 0 0 1 1 1 0 0 1 0 0 1 0 0 1 0 0 0 1 1 0 0 1 1 0 0 0 0 1 1 1 0 1 1 0 0 0 1 1 0 1 0 1 1 1 0 0 1 0 0 0 0 1 0 1 1 1 1 1 1 0 1 0 1 1 1 1 0 1 0 0 1 1 1 1 0 1 0 0 1 0 1 1 0 0 0 1 1 1 0 1 1 1 1 1 0 0 0 0 1 0 0 0 1 1 1 1 1 1 1 0 1 0 0 1 0 0 0 1 1 1 0 0 1 0 1 1 0 0 1 1 0 1 0 0 0 1 1 1 1 0 0 1 0 0 0 1 1 1 1 1 1 1 1 1 0 1 1 1 1 1 0 1 1 0 1 0 0 0 0 1 0 1 0 1 1 1 1 1 1 0 0 0 1 1 1 0 1 0 0 0 1 0 1 0 0 0 0 0 1 0 1 0 0 1 0 0 1 1 1 0 1 1 1 1 1 1 1 0 0 1 0 0 1 0 1 0 1 0 0 0 1 0 1 0 0 0 0 0 1 1 0 0 0 0 1 0 1 1 0 1 1 1 1 1 1 1 0 1 0 1 0 1 0 1 0 1 1 1 1 0 1 1 1 1 0 0 0 0 1 0 0 1 1 0 1 0 1 1 0 0 1 0 0 1 0 1 1 1 0 1 0 0 0 0 1 1 0 1 1 1 1 1 0 0 1 0 0 1 1 1 0 0 0 1 1 1 1 1 0 1 1 1 1 0 0 1 1 1 1 0 0 0 1 0 1 0 1 1 1 1 0 1 1 1 0 0 0 0 0 0 1 1 1 0 0 0 1 1 0 0 0 1 1 1 1 0 0 1 1 1 0 0 0 1 0 1 0 0 1 0 1 0 1 0 1 1 0 0 0 0 1 0 0 1 0 0 1 1 1 0 0 0 1 1 0 1 1 1 1 0 0 0 0 0 1 0 1 1 0 1 1 1 1 1 0 1 0 1 0 1 1 1 1 1 1 0 1 1 1 1 0 0 1 1 1 1 0 0 1 1 0 1 1 0 1 1 0 0 1 0 1 0 1 1 1 0 1 1 1 0 1 0 0 0 0 0 1 1 1 1 0 0 1 1 0 0 1 0 0 1 0 0 1 0 0 1 0 1 1 0 1 0 0 1 0 1 0 1 0 1 0 0 1 1 0 1 1 1 0 1 0 1 0 1 1 1 0 0 0 0 0 1 0 0 1 1 0 0 0 0 0 0 0 0 1 1 0 0 0 0 0 1 0 1 0 0 0 0 1 0 0 1 0 0 0 1 1 1 0 1 0 1 0 0 1 0 1 0 0 1 0 0 1 1 0 1 1 0 0 1 1 1 1 1 0 0 0 1 1 0 0 0 0 1 1 1 0 1 1 0 1 1 1 1 0 0 0 0 0 1 0 0 0 0 1 1 0 0 1 0 1 0 1 1 1 0 0 1 0 1 1 1 0 0 0 0 1 0 0 0 1 1 1 1 1 1 1 1 0 1 0 1 0 1 1 0 0 0 0 0 0 1 0 0 0 1 1 1 1 0 1 0 1 1 1 1 0 0 1 1 0 1 0 0 0 0 0 0 0 0 0 0 0 0 1 0 1 1 0 1 0 0 1 0 1 0 1 0 0 1 0 0 1 1 0 0 0 0 1 1 0 1 0 0 0 0 0 0 0 1 0 0 1 1 1 1 1 0 0 0 1 0 1 0 1 0 0 0 1 0 0 1 0 1 0 0 0 0 1 1 1 0 0 1 0 1 1 0 0 0 0 0 1 1 0 1 1 0 0 1 0 0 1 1 0 1 1 1 1 0 1 0 0 0 1 1 0 0 0 1 1 0 0 0 0 1 1 0 1 1 1 0 0 1 0 1 1 1 1 1 1 1 0 0 0 1 0 0 0 1 0 0 1 1 1 0 1 1 0 1 1 1 0 0 1 0 0 1 0 1 1 0 0 0 0 0 1 1 1 0 0 0 1 1 0 1 1 1 0 0 1 1 1 1 0 0 0 1 1 1 1 1 1 1 1 1 1 1 0 0 0 0 1 1 0 1 0 0 0 1 1 1 1 0 0 1 1 0 0 0 1 1 1 0 1 0 0 1 0 1 1 0 0 0 1 1 1 1 0 0 1 0 0 1 0 1 0 0 0 1 1 0 1 0 1 1 0 0 0 1 0 0 1 1 0 1 0 0 0 0 0 0 1 0 0 1 1 0 1 0 0 1 1 1 0 1 1 0 1 0 1 0 0 1 1 1 0 0 1 0 0 0 0 0 0 0 1 1 1 1 0 1 0 1 1 1 1 0 1 1 1 0 0 1 0 1 1 1 0 0 0 1 0 1 1 1 1 1 1 1 0 0 1 1 1 1 1 1 0 1 1 0 0 1 0 0 0 1 0 1 1 1 0 0 1 1 0 0 0 0 0 1 1 0 1 1 0 1 1 1 1 0 1 0 0 1 0 0 1 1 1 0 1 0 0 0 1 1 1 1 0 0 1 1 1 1 1 1 1 1 0 0 1 0 1 1 0 1 1 1 1 0 0 0 0 0 1 0 0 0 1 0 1 0 0 1 1 1 0 0 1 1 1 1 0 0 1 1 0 1 0 0 0 1 1 0 0 0 1 0 1 0 0 0 0 1 1 1 1 0 1 1 1 0 1 0 0 1 0 1 1 0 1 0 1 0 0 1 0 1 1 1 0 1 0 1 0 0 1 0 1 1 0 1 0 0 0 1 1 0 1 0 1 1 1 1 0 0 1 0 1 1 1 0 1 0 0 0 1 0 0 0 1 0 0 1 0 1 1 0 0 1 1 1 0 1 1 0 1 1 0 1 1 0 0 0 0 0 0 1 1 1 0 1 0 0 0 0 1 1 0 1 1 1 1 0 1 0 0 0 1 0 0 1 0 1 0 1 1 1 0 0 1 0 1 0 0 1 1 0 0 1 1 0 1 0 0 0 1 1 0 0 0 0 1 0 0 0 0 0 1 1 1 1 1 0 0 1 1 0 1 0 0 0 0 1 0 0 0 1 0 0 1 0 1 0 1 0 1 1 1 0 0 0 0 1 0 0 1 0 0 1 0 0 0 0 0 0 0 1 0 0 1 1 0 0 0 0 0 1 1 0 0 1 0 1 1 1 1 0 0 0 0 0 1 0 0 0 1 0 0 1 1 0 1 1 0 0 1 0 1 0 0 0 1 0 1 1 0 1 1 0 1 1 0 0 1 1 1 0 0 1 1 1 1 1 0 1 1 0 1 0 0 1 0 1 1 0 1 0 1 1 0 1 0 0 0 0 0 0 0 1 0 0 0 0 0 1 0 0 0 0 0 0 1 0 0 1 0 0 0 0 1 1 0 1 0 0 0 1 1 1 1 1 1 0 0 0 1 1 1 1 1 1 0 1 1 1 0 1 1 1 0 1 1 1 0 1 1 0 1 1 0 1 1 1 0 0 0 0 0 0 1 0 0 0 0 1 1 0 0 0 1 1 0 1 0 1 1 1 0 1 1 0 1 0 1 1 0 0 1 0 0 1 1 0 1 1 1 0 0 0 1 0 0 0 0 1 0 0 1 1 1 1 1 0 0 0 1 0 1 1 1 1 0 1 1 0 0 0 0 1 1 1 0 0 0 0 0 1 0 0 0 1 1 1 0 1 0 1 1 1 0 1 1 0 1 1 0 1 0 1 0 0 0 0 0 0 1 0 0 1 0 0 0 1 1 1 0 0 0 0 1 0 0 1 0 0 1 1 1 0 1 1 0 1 0 1 1 1 1 0 0 1 1 1 1 1 1 0 1 0 1 0 1 0 1 0 0 1 1 1 1 0 1 1 0 0 1 1 1 0 1 0 1 0 0 0 1 0 0 0 1 1 0 0 0 0 1 0 0 0 0 0 0 1 1 0 1 1 1 1 1 0 0 0 1 1 0 1 1 1 1 1 1 0 0 1 0 0 1 1 1 1 1 0 0 1 0 0 1 1 0 0 1 1 0 0 1 0 1 0 1 0 0 0 1 1 0 1 1 0 1 0 1 1 1 1 0 0 0 1 0 1 0 1 1 0 0 1 0 0 0 1 1 1 0 1 1 1 0 0 1 1 1 0 0 0 1 0 1 0 1 0 0 1 1 0 1 0 1 1 1 0 0 0 0 1 1 0 0 0 1 0 1 0 0 0 1 1 0 1 0 0 1 1 0 0 1 0 0 0 1 1 0 0 0 0 1 1 1 1 1 0 0 1 0 0 1 1 0 0 1 0 0 1 0 0 0 0 1 0 0 1 1 0 1 1 0 1 1 0 0 1 1 1 1 1 1 1 0 1 1 0 1 1 0 0 0 1 1 1 0 1 0 0 1 1 1 1 1 1 0 0 0 1 1 0 1 1 1 1 0 1 1 0 1 0 1 1 0 0 0 1 1 0 0 1 0 1 1 0 1 1 1 1 0 1 0 0 0 1 0 0 0 0 0 1 1 0 0 1 1 0 1 1 1 1 1 0 0 1 0 0 0 0 1 0 1 1 1 1 0 0 0 0 0 1 0 1 1 1 1 0 1 0 0 1 0 0 0 0 0 0 1 1 1 0 0 0 0 0 1 0 0 0 1 0 1 1 0 1 1 0 1 1 1 0 1 0 0 0 0 0 1 0 0 0 0 1 1 1 1 1 1 1 0 0 0 1 0 1 0 1 1 0 0 1 1 1 0 1 1 0 0 0 1 1 1 1 1 0 1 0 0 0 0 0 1 1 0 0 0 1 1 1 1 0 1 1 0 1 0 0 1 0 1 1 1 0 1 1 0 0 0 0 1 1 0 0 0 0 0 0 0 0 0 1 0 0 1 1 1 1 1 0 1 0 1 0 1 1 1 1 0 0 0 1 0 1 1 0 0 0 0 1 1 1 0 1 0 0 1 0 0 0 1 1 1 1 1 0 0 0 1 1 0 1 0 0 0 0 1 0 1 1 0 1 0 0 0 0 1 0 1 1 1 0 0 1 1 0 1 0 0 0 1 0 0 0 0 0 0 1 0 1 0 0 0 0 0 1 1 0 1 1 1 0 0 1 0 0 1 0 0 1 1 1 1 0 0 0 0 0 0 1 1 1 1 1 0 0 0 0 1 1 0 1 0 0 1 0 1 0 0 0 0 0 0 1 0 1 1 1 1 1 0 0 1 1 0 0 1 1 0 0 0 1 0 1 1 1 0 1 0 1 1 1 1 1 0 1 0 0 1 1 0 0 1 1 0 1 0 1 0 1 1 1 0 1 0 0 0 1 1 1 0 0 0 1 0 1 0 1 1 0 0 1 1 0 1 1 0 1 0 1 1 1 0 1 1 0 1 0 0 1 1 0 0 0 0 0 1 1 1 0 1 1 1 0 0 0 0 1 0 1 0 0 0 0 0 0 0 0 0 1 1 0 0 1 0 0 1 1 0 0 0 0 1 1 0 0 0 0 1 0 1 1 1 0 1 0 1 0 1 1 0 0 0 1 0 0 0 0 1 0 1 1 1 0 1 1 0 1 1 1 0 0 1 1 1 0 1 1 0 1 0 1 0 1 1 0 0 0 1 0 1 0 0 0 0 0 0 0 1 0 1 0 0 1 1 0 1 1 0 0 0 1 0 1 0 1 1 1 1 1 1 0 0 1 0 1 1 0 1 0 1 1 0 1 0 0 1 0 1 1 1 1 1 1 1 1 0 1 0 0 0 1 1 0 0 0 0 1 1 1 0 0 1 1 0 1 0 0 1 0 0 0 0 1 1 1 0 0 0 1 1 0 0 1 0 0 0 0 1 1 1 1 1 0 0 1 0 1 0 1 1 1 0 1 0 1 1 1 1 0 0 0 0 0 1 1 1 1 1 1 1 0 0 0 1 0 1 1 0 1 0 1 1 1 1 1 1 0 0 1 1 0 0 0 1 1 0 0 1 0 1 1 0 0 1 0 1 1 1 1 1 0 0 1 1 1 0 1 0 0 0 0 0 0 1 1 0 0 1 0 1 0 1 0 0 1 1 0 0 1 0 1 1 1 0 0 1 1 0 0 1 1 0 0 0 0 0 1 0 0 1 1 1 0 0 1 1 0 0 0 0 0 1 1 0 1 1 1 1 0 0 0 1 1 1 0 0 1 0 0 0 0 0 0 0 0 1 1 1 1 0 1 0 0 0 1 1 0 0 0 1 0 0 1 1 1 1 0 0 1 0 1 1 1 0 0 0 1 0 0 1 0 0 1 1 1 1 0 1 0 1 0 1 1 0 0 0 0 0 1 1 0 1 0 0 0 0 1 1 0 0 0 0 1 0 1 1 1 0 0 1 0 1 1 1 1 1 1 1 0 0 0 1 0 0 0 0 1 1 1 0 1 0 1 0 1 0 0 0 1 0 0 0 1 1 1 1 1 1 1 0 0 0 0 0 0 1 0 1 1 0 0 0 0 1 1 0 1 0 1 0 1 1 0 1 0 1 0 0 1 1 1 1 0 1 0 1 0 0 0 0 1 1 0 1 0 0 0 0 0 1 1 1 0 0 0 0 1 0 1 1 1 0 0 0 0 0 1 0 1 0 0 0 0 0 0 1 1 0 1 1 0 1 1 0 1 1 1 1 1 1 0 0 1 1 0 1 1 0 1 0 0 1 1 0 1 1 1 1 1 0 0 1 1 1 0 1 0 1 1 0 0 0 0 1 1 0 0 0 1 0 0 0 1 0 0 1 0 0 1 0 1 0 0 0 0 0 1 0 1 1 1 0 0 0 1 0 1 0 0 0 1 0 1 1 1 1 0 1 1 1 0 1 0 0 0 1 1 1 1 0 1 1 0 1 0 0 1 0 0 0 0 1 0 1 1 1 1 1 1 0 0 1 0 1 1 0 0 0 1 1 1 1 0 1 1 0 1 1 1 0 1 0 0 0 1 1 0 1 0 1 1 0 1 1 1 0 0 1 1 1 1 0 1 1 1 1 0 1 1 1 0 1 1 0 1 0 0 0 1 1 1 0 1 1 1 0 1 0 0 1 0 1 1 0 1 1 1 0 1 0 0 0 1 1 0 1 0 0 0 1 0 1 0 1 1 1 0 0 1 0 1 1 1 1 1 1 0 1 0 0 0 0 0 1 1 0 1 0 1 0 1 0 0 0 1 0 0 0 0 0 0 1 0 0 1 0 0 0 0 0 0 0 0 1 0 0 0 1 0 0 0 1 0 0 0 1 0 1 1 0 0 0 1 0 1 1 0 0 1 1 1 0 0 1 1 0 0 0 0 0 1 1 1 0 1 0 1 0 1 0 0 1 1 0 1 0 0 0 0 0 1 0 0 0 1 0 1 0 1 0 0 0 0 1 1 1 1 1 1 1 0 0 1 1 1 1 0 1 0 1 0 1 0 1 1 1 1 0 1 0 0 1 0 0 1 1 0 1 0 1 0 0 0 0 1 0 1 0 0 1 0 0 0 0 0 1 0 0 0 0 0 0 0 1 1 0 1 1 1 0 0 0 1 1 1 0 1 0 0 0 0 0 0 1 0 0 0 0 1 1 0 1 0 1 1 0 1 1 0 1 1 0 0 0 1 0 0 1 0 1 0 0 0 1 1 0 0 0 0 1 1 0 0 0 0 0 0 0 1 1 1 0 1 1 1 1 1 1 0 0 1 1 0 1 1 0 1 0 1 1 1 1 1 0 0 0 1 1 1 0 1 0 0 1 0 1 1 0 1 1 1 0 0 1 1 0 1 1 0 0 0 0 1 1 0 0 0 1 0 0 0 0 1 0 1 0 0 0 0 0 0 1 0 0 0 0 0 1 0 1 1 0 1 0 1 0 1 0 0 1 0 0 1 0 0 1 0 0 0 1 0 1 0 0 0 0 0 1 0 1 0 0 1 0 1 1 0 1 1 0 1 1 1 1 1 0 0 1 1 1 1 0 0 0 1 1 1 1 1 0 0 0 1 1 1 0 0 0 0 1 1 1 1 1 0 1 1 1 1 0 1 1 0 0 1 1 0 1 1 0 0 1 1 0 0 1 0 0 0 0 0 0 0 1 1 0 0 0 0 1 0 0 1 0 1 0 0 0 0 0 0 1 0 1 1 0 0 1 0 0 1 0 1 0 1 1 1 0 1 1 0 1 1 0 0 1 1 0 0 0 1 0 1 1 1 1 1 1 0 1 0 0 0 0 0 0 0 1 1 0 0 1 1 0 1 0 1 0 1 1 1 1 0 0 0 0 0 1 0 0 0 1 0 0 0 1 1 0 1 0 0 1 1 0 1 0 1 0 1 1 0 0 0 1 1 1 1 0 0 1 0 1 1 1 0 1 1 0 1 1 0 0 0 0 1 0 0 1 0 0 0 1 1 1 1 1 0 1 0 0 0 0 1 1 1 1 1 0 0 1 0 1 1 0 0 1 0 0 0 0 1 1 0 0 1 0 1 0 1 0 1 0 0 0 1 1 0 1 1 1 1 0 0 0 0 0 1 0 1 1 1 1 0 1 1 1 0 0 0 0 1 1 0 1 0 0 1 1 0 0 0 1 1 0 1 0 1 1 1 1 1 1 0 1 1 1 0 1 0 0 1 0 1 0 1 1 1 1 1 0 1 0 0 1 1 0 1 1 1 1 1 0 0 1 1 1 0 1 0 0 1 1 1 0 1 1 1 0 0 1 0 0 1 0 1 1 0 1 0 0 1 1 1 1 0 1 1 1 0 1 1 0 0 0 0 1 0 1 1 1 1 1 1 1 1 0 1 1 1 1 1 1 1 1 1 1 0 0 1 0 0 1 0 0 1 1 0 0 0 0 1 1 1 0 1 0 1 1 0 1 0 0 0 1 1 1 1 0 1 0 1 1 1 1 0 0 0 0 1 1 0 0 1 1 1 0 0 0 0 0 0 0 1 0 0 1 1 0 0 1 1 1 0 1 0 1 1 1 0 0 1 1 1 1 1 0 1 0 0 0 0 1 1 0 0 0 1 1 1 1 1 1 1 0 0 0 1 0 0 1 0 1 0 1 0 0 1 1 1 1 0 0 0 1 1 0 1 1 0 0 1 0 1 1 0 0 1 0 0 1 0 0 1 1 0 1 0 1 0 0 0 1 1 0 0 0 0 1 1 1 1 1 1 1 1 0 0 0 0 0 0 1 0 1 1 0 1 0 0 0 0 1 0 0 0 1 0 0 0 1 1 1 0 1 0 0 0 1 1 0 1 1 1 1 0 0 0 0 0 1 1 1 0 1 1 0 0 0 0 1 1 0 1 0 1 1 0 1 1 1 0 1 0 0 0 1 1 1 1 0 0 0 1 0 1 0 0 0 1 0 0 1 1 0 0 1 0 1 0 1 0 0 0 0 0 1 0 0 0 0 1 0 0 1 1 0 0 1 0 0 1 1 1 1 0 0 0 0 1 1 1 1 0 0 1 0 1 0 0 1 0 0 0 0 0 1 0 0 1 1 1 1 1 0 0 0 0 1 1 1 0 0 1 1 0 1 0 0 0 0 1 0 0 0 0 1 1 0 0 1 1 1 0 1 1 0 0 1 1 0 1 1 1 1 1 0 1 1 1 1 0 0 1 0 0 1 0 0 1 0 1 1 1 0 1 1 0 1 0 1 0 1 0 0 1 0 1 1 0 1 1 0 0 1 0 1 1 0 0 1 0 0 0 1 0 1 1 0 1 0 1 0 1 0 1 1 1 1 1 1 1 1 0 0 0 1 1 1 1 1 0 1 0 0 0 0 1 0 1 1 0 0 1 1 1 1 1 1 1 0 0 1 0 0 1 1 1 1 0 0 1 1 0 0 0 1 1 0 0 1 0 1 1 0 0 0 1 0 0 1 1 0 0 1 0 1 0 1 1 1 0 1 1 1 0 0 0 1 0 0 0 0 0 1 0 0 1 1 0 1 0 1 0 1 1 1 0 1 0 1 0 1 1 0 1 1 0 1 0 0 0 1 0 1 1 0 1 1 0 1 1 1 0 1 0 0 1 1 0 0 0 0 1 1 0 0 1 0 1 1 0 1 0 0 1 1 0 1 1 1 0 0 0 0 0 1 1 1 0 0 1 0 0 0 0 1 1 1 0 0 1 0 0 1 1 0 1 1 0 1 0 0 0 0 0 1 0 1 0 0 0 1 1 0 1 0 1 0 1 0 1 1 1 1 0 1 1 1 0 1 1 1 1 0 1 0 1 0 1 0 0 0 0 0 1 0 0 1 0 0 1 1 0 0 1 0 1 0 1 1 1 1 1 1 0 0 0 0 0 0 1 1 1 1 1 0 0 0 1 1 0 1 1 0 0 0 0 1 1 1 1 0 1 0 1 1 1 1 1 0 0 1 0 0 0 1 1 0 1 0 1 0 0 0 0 0 1 1 1 1 1 1 1 0 1 1 0 1 1 1 0 1 1 0 1 0 0 1 0 1 0 1 0 0 0 0 1 0 0 1 1 1 0 0 1 1 1 1 0 1 1 0 0 1 1 1 0 1 1 0 0 0 1 1 0 1 1 0 1 0 0 1 0 1 1 0 0 0 0 0 1 1 0 1 0 0 0 0 0 1 1 0 1 1 0 1 0 0 0 1 0 0 0 0 1 0 1 0 0 1 0 0 1 0 1 1 0 0 0 0 0 0 1 1 1 0 0 0 0 0 0 1 1 1 1 1 0 0 0 1 0 0 0 1 1 1 1 1 1 1 0 1 0 0 1 0 1 1 1 0 1 1 1 1 0 1 1 1 1 0 0 1 1 1 1 1 1 1 1 1 0 1 1 0 1 0 1 0 0 1 1 0 0 1 0 1 0 1 1 1 1 0 0 0 1 0 0 1 1 0 1 1 1 0 0 0 0 0 1 1 0 0 0 1 1 0 1 1 0 1 0 0 0 1 0 0 0 0 0 0 0 1 0 0 0 1 0 0 1 0 0 1 0 0 0 0 1 0 0 0 1 1 1 1 1 1 0 0 1 0 1 1 0 0 0 0 1 0 0 0 0 1 0 1 0 0 1 0 1 1 0 1 0 1 0 1 1 1 1 1 0 0 0 1 1 1 0 0 0 1 0 1 0 0 1 0 0 1 0 1 0 1 0 1 0 1 1 1 0 0 0 1 1 0 0 1 0 0 0 0 0 0 0 1 1 0 0 0 1 1 0 0 1 1 0 1 1 1 1 1 1 0 1 1 0 0 1 0 0 0 0 0 0 0 1 0 1 1 1 0 0 0 0 0 1 1 1 1 0 0 0 1 1 1 0 1 0 1 0 0 0 0 1 1 1 0 1 0 0 1 1 1 1 0 1 0 1 1 1 0 0 1 1 1 0 1 0 0 0 0 1 1 1 1 1 1 1 0 1 0 0 1 1 0 1 1 0 0 1 1 1 1 1 0 1 1 1 0 1 0 0 0 1 0 1 0 1 1 1 1 0 1 0 1 0 1 0 1 0 0 1 1 1 1 0 1 1 1 0 0 1 1 1 1 0 0 1 1 0 0 0 0 1 0 0 1 0 0 0 1 0 0 1 1 1 0 0 1 1 0 1 0 1 0 0 1 0 0 0 0 0 0 0 0 0 1 0 0 0 0 0 1 0 1 0 0 0 0 0 0 0 0 0 0 0 1 0 0 0 0 0 0 1 1 1 1 1 0 0 0 0 1 0 0 1 0 1 1 1 0 0 0 1 1 1 1 0 1 0 0 0 1 1 0 1 1 0 0 0 0 1 1 1 1 0 0 0 1 0 0 1 1 1 0 0 1 0 0 0 0 1 0 1 0 0 1 0 0 1 0 1 1 0 1 1 1 1 1 0 0 1 1 0 0 0 1 1 1 0 1 1 0 1 1 0 0 0 1 1 1 0 0 0 1 0 0 1 0 0 0 1 1 0 0 1 1 0 1 0 0 0 1 1 0 0 0 0 1 1 1 1 1 1 0 1 0 1 1 1 1 0 1 0 0 0 1 0 0 1 0 1 0 0 1 0 1 0 1 1 1 1 0 0 1 1 0 0 0 1 0 1 1 1 1 1 0 1 1 1 0 1 0 1 1 1 1 0 0 1 1 1 1 1 1 1 0 1 1 1 1 1 1 1 1 0 1 0 0 0 0 1 1 0 0 1 1 0 1 1 1 0 0 1 1 1 1 0 1 1 0 1 1 1 0 1 0 0 1 0 0 0 1 1 1 0 0 1 1 1 1 1 0 0 1 1 1 0 1 0 0 0 0 1 0 0 1 0 0 1 1 1 0 1 0 0 0 0 0 1 1 1 1 0 0 0 0 1 1 1 1 0 1 0 0 0 0 1 0 1 1 0 0 1 1 1 1 1 1 1 0 0 0 0 0 0 0 1 0 1 0 1 0 0 1 0 0 1 1 1 1 1 1 0 0 1 1 0 1 0 1 1 0 1 0 1 1 1 1 0 0 1 1 1 0 0 0 1 1 1 1 1 0 0 0 0 0 1 0 1 1 1 0 1 0 0 1 1 0 0 1 1 1 1 0 1 0 1 1 1 1 0 0 1 0 0 0 1 1 1 0 1 1 1 0 0 1 1 0 1 1 1 1 1 0 1 0 1 0 1 1 0 0 1 0 1 1 1 1 1 1 0 0 1 0 0 0 0 0 1 0 0 0 0 0 0 0 0 0 1 0 0 0 1 0 0 0 1 0 1 1 1 0 1 1 1 0 0 0 1 0 1 1 1 0 1 0 1 0 1 1 1 1 1 0 1 0 0 1 1 0 0 0 0 1 1 0 0 1 1 1 1 0 1 1 0 0 0 1 0 1 1 1 0 0 0 0 0 0 1 0 1 1 0 1 0 0 0 1 0 0 1 1 0 1 1 0 0 0 1 1 0 1 1 1 1 0 0 1 0 0 0 0 1 0 1 0 0 0 1 0 0 0 1 1 1 0 0 0 0 0 0 0 0 1 1 0 1 0 0 0 1 0 1 0 0 1 0 0 0 1 1 0 1 0 1 1 1 1 0 1 0 0 0 1 0 0 0 1 1 0 0 0 1 1 1 0 1 0 0 0 0 0 0 0 1 1 0 1 1 0 1 0 0 1 0 1 0 0 0 0 0 1 1 0 1 0 1 1 1 1 0 0 0 0 1 1 1 1 0 1 0 1 0 1 0 0 1 1 0 0 1 0 0 1 0 1 0 0 0 1 0 1 0 0 1 1 1 1 0 1 0 0 1 1 0 0 1 0 1 1 0 1 0 0 0 1 0 1 0 0 1 1 0 1 1 1 1 1 1 0 1 1 1 0 0 1 1 1 1 1 1 0 0 0 1 0 0 1 1 1 1 1 0 0 1 1 1 0 1 1 0 0 1 0 0 0 0 0 1 1 0 1 1 1 1 1 0 0 1 0 1 0 0 1 0 0 0 0 0 1 1 1 1 1 1 0 1 1 0 1 0 0 0 1 1 1 0 1 0 0 1 1 0 0 0 1 1 1 0 1 1 0 1 0 0 0 1 0 0 0 0 1 1 1 1 1 0 0 0 0 1 0 1 0 0 0 0 0 1 0 1 1 0 0 0 1 1 1 1 1 1 0 0 1 0 1 1 1 1 1 0 1 0 1 0 1 0 0 0 0 0 0 1 1 1 0 0 1 0 0 1 1 0 0 0 1 0 0 0 0 1 0 0 1 0 0 1 1 1 0 0 0 0 0 1 0 1 0 1 0 1 0 0 0 1 1 1 0 0 1 0 0 0 0 0 0 1 1 0 1 0 0 1 0 0 0 0 0 0 0 0 1 0 1 1 0 1 1 0 1 1 1 1 0 1 1 0 1 0 0 1 1 1 0 1 1 0 1 1 0 0 0 0 1 0 0 0 0 1 1 0 1 1 0 1 0 0 1 0 1 0 1 1 0 1 0 0 1 1 1 1 0 1 0 0 1 1 1 1 1 0 0 0 1 1 0 0 0 0 0 1 1 1 1 0 1 1 1 0 1 0 0 1 0 1 1 0 1 0 1 1 0 0 0 0 1 0 0 0 1 0 1 1 0 1 0 0 0 1 1 1 1 1 1 1 0 0 1 0 1 0 1 0 0 0 1 1 1 0 0 1 0 0 1 0 0 1 0 1 0 1 0 1 1 0 1 1 1 1 1 1 1 1 0 1 0 0 1 1 0 1 0 0 0 1 1 0 0 0 0 1 0 1 1 0 1 0 1 0 1 0 0 1 1 1 1 0 0 0 1 1 0 0 0 0 1 1 1 1 0 1 1 1 1 1 1 0 1 1 1 1 1 1 0 1 0 1 1 0 1 0 1 1 0 1 0 1 0 1 0 1 1 0 1 1 0 0 1 1 0 1 0 1 1 1 1 0 1 1 1 1 0 1 0 0 1 1 1 0 0 1 0 1 1 0 0 0 1 0 1 1 1 1 0 0 0 1 0 1 0 1 1 1 0 1 0 1 1 1 0 0 1 0 0 1 1 0 1 0 0 0 1 1 1 1 1 0 1 0 0 1 0 0 0 1 1 0 0 0 1 1 1 1 0 1 1 0 0 0 0 0 0 1 0 1 1 0 1 1 0 0 0 1 1 0 1 0 0 0 0 1 1 0 0 1 1 1 0 1 0 0 0 0 1 0 1 0 1 1 1 0 0 0 1 0 0 1 0 1 1 0 0 0 0 0 1 0 0 0 0 0 0 0 1 0 1 0 1 1 0 0 1 0 0 1 0 1 0 1 0 1 1 0 1 1 1 1 0 0 0 0 0 0 0 0 0 1 1 1 1 0 0 1 0 0 0 1 0 0 1 1 1 0 0 1 1 1 1 1 1 1 1 0 1 0 1 1 0 1 0 0 0 0 0 0 0 0 0 1 0 1 1 0 1 0 1 0 0 1 0 0 0 0 1 0 1 1 1 1 1 0 1 1 1 0 1 0 0 1 0 1 0 1 1 0 0 0 1 0 0 1 1 0 0 0 1 0 0 0 1 0 1 1 0 1 1 0 0 0 0 0 0 1 1 0 0 0 1 1 0 1 1 0 1 1 1 1 0 1 1 0 0 0 0 0 1 1 0 1 1 0 1 0 1 1 1 1 1 0 1 0 1 0 1 1 0 1 1 0 0 0 1 1 1 0 0 0 1 1 0 1 0 1 0 1 1 1 1 0 1 0 0 0 0 0 0 0 1 0 0 1 1 1 0 0 1 0 1 0 1 0 1 1 1 1 0 1 0 1 0 1 1 0 0 1 0 1 0 0 0 1 0 0 1 0 0 0 1 1 0 0 1 1 0 0 0 1 1 0 0 0 0 0 1 0 1 1 0 0 0 1 0 1 0 0 1 0 1 1 1 1 1 0 1 1 1 0 1 0 1 1 1 1 1 0 1 1 1 0 1 1 0 1 1 0 0 1 1 0 0 0 0 1 0 0 1 0 0 1 0 1 1 1 1 0 0 0 0 1 0 0 1 1 0 0 1 0 1 1 1 0 0 0 0 0 1 1 0 1 1 1 1 0 1 1 1 0 1 0 0 1 1 1 0 0 1 1 0 0 0 0 0 0 0 0 0 1 0 0 1 0 0 0 0 1 1 1 1 0 0 0 0 0 1 0 1 0 1 0 1 1 1 1 0 0 0 1 0 0 0 0 1 0 1 1 1 0 1 1 1 0 0 0 0 1 1 0 1 0 1 0 1 1 1 1 1 0 1 0 0 0 1 0 1 1 0 1 0 1 1 1 0 0 1 0 1 0 1 1 0 0 0 0 1 0 0 0 1 0 1 1 0 1 0 1 1 1 1 0 0 1 1 1 1 1 1 0 0 1 0 0 0 0 1 0 0 1 1 0 0 1 0 1 0 1 1 1 0 0 1 0 0 0 0 0 1 1 0 1 1 1 0 1 1 1 0 1 0 1 0 1 0 1 1 1 1 1 0 0 0 1 1 0 0 1 1 0 1 0 0 0 1 0 1 0 1 0 0 0 1 0 1 1 1 0 0 0 1 1 0 1 0 0 1 0 0 1 1 0 0 1 1 0 0 0 1 0 0 0 0 1 0 1 1 1 1 0 0 0 1 1 1 0 1 0 0 0 1 1 1 1 0 0 1 1 0 0 1 0 0 0 1 1 0 1 1 1 0 0 1 0 1 1 1 1 0 1 1 0 0 0 0 1 0 0 1 1 1 0 0 1 1 0 0 0 0 0 0 1 0 1 0 0 0 1 1 0 1 0 1 0 1 1 1 1 0 0 1 0 0 0 1 1 1 1 1 1 1 1 0 0 0 0 1 0 1 0 1 0 0 1 0 1 1 1 1 0 1 0 1 0 1 1 0 1 1 1 1 0 0 0 0 0 0 1 1 1 1 1 1 0 0 0 0 0 0 1 1 1 1 1 1 0 0 0 0 1 1 0 1 1 0 0 1 0 1 1 0 1 1 1 0 1 0 1 1 0 0 1 0 0 0 1 0 1 1 1 1 0 1 1 1 1 0 0 0 0 0 1 1 0 0 0 0 0 0 0 0 1 1 0 1 0 1 1 1 1 0 0 1 1 1 0 0 1 0 1 1 1 0 1 0 0 1 1 0 0 0 0 1 1 1 0 0 1 0 0 0 1 1 0 1 0 1 1 0 0 0 1 1 1 1 0 1 1 0 1 0 1 0 0 0 0 1 1 0 1 1 0 1 0 1 1 0 1 0 1 1 1 0 0 1 1 1 1 0 0 0 1 0 1 1 0 1 0 1 1 1 1 0 0 0 0 0 1 0 0 1 0 0 1 1 1 1 0 0 0 0 1 1 1 0 0 0 1 1 0 1 0 0 0 1 1 1 1 1 0 0 1 0 1 1 0 1 0 0 1 1 0 1 1 0 1 1 0 1 0 0 1 1 0 0 0 1 0 1 1 0 0 0 0 0 0 0 0 1 1 1 0 1 0 0 1 0 1 0 0 0 0 0 1 1 0 1 0 0 1 1 1 1 0 0 1 0 1 0 0 0 0 1 0 0 1 1 1 1 1 1 1 1 1 1 1 1 1 1 0 1 1 1 0 1 0 1 0 0 1 1 0 0 1 1 0 0 1 1 1 1 0 0 1 1 0 1 1 0 0 1 1 0 0 1 0 1 1 1 0 0 1 0 0 0 0 1 0 1 0 1 1 0 0 1 0 0 0 0 0 0 0 1 0 0 1 0 0 0 1 0 0 0 0 0 1 0 0 1 0 0 1 1 0 0 1 1 0 1 0 0 1 1 0 0 0 1 1 0 0 0 0 1 0 1 1 0 0 0 1 1 0 1 1 1 1 1 0 1 0 0 1 0 0 1 0 1 1 1 1 0 0 0 1 1 1 0 0 0 1 1 0 0 1 0 0 0 1 1 0 1 0 0 1 0 0 0 1 1 1 1 0 0 0 0 1 0 0 0 1 1 0 0 1 0 1 1 1 1 0 0 1 1 0 1 0 1 1 1 1 0 1 0 1 1 0 0 0 1 1 0 0 0 1 1 1 1 0 1 1 1 1 0 1 1 1 1 0 1 1 1 0 0 1 0 1 1 1 0 1 0 1 1 0 1 0 0 0 1 1 0 1 1 0 0 1 1 1 0 1 0 1 0 0 0 0 1 1 1 1 0 0 1 1 0 0 1 1 0 1 1 0 0 1 1 0 0 1 0 1 1 1 0 0 0 1 0 0 0 0 1 1 0 1 0 0 1 1 1 1 1 0 0 0 1 0 1 1 1 0 0 1 0 1 0 1 0 1 1 0 0 1 1 0 1 1 1 0 0 1 0 0 1 0 1 0 0 0 1 0 0 1 1 0 0 0 1 0 0 1 0 1 1 0 0 0 0 1 1 1 1 0 1 0 0 0 1 0 0 1 1 0 1 0 0 0 0 0 0 0 1 0 1 0 0 0 1 0 0 1 0 0 0 1 1 0 0 1 1 0 0 1 0 0 0 0 0 0 0 0 1 0 0 0 0 0 1 1 1 1 0 1 1 0 0 0 1 0 1 1 0 1 1 1 0 1 0 0 1 1 0 0 1 1 1 0 0 0 0 1 0 0 1 0 1 0 1 0 0 1 1 1 0 1 1 1 0 0 0 1 1 0 1 0 0 1 1 0 1 0 0 0 1 1 1 0 0 1 1 0 1 0 1 1 0 0 1 1 0 1 0 0 1 1 1 0 0 1 1 0 1 1 0 0 1 0 1 0 0 1 0 1 1 0 1 0 0 0 0 0 0 0 1 0 1 0 0 0 0 0 0 0 1 0 1 0 1 1 1 1 1 1 0 1 0 0 1 1 1 0 0 1 0 1 1 1 0 1 0 1 1 1 0 1 1 1 0 0 1 1 1 0 0 0 0 0 0 1 1 0 1 0 0 1 1 0 0 1 0 1 1 0 1 0 1 1 0 0 0 0 1 1 1 1 1 1 1 0 0 0 0 0 1 1 0 0 0 1 0 0 1 0 0 0 1 1 1 1 1 1 0 1 0 1 1 0 0 1 0 1 1 1 1 0 1 1 1 0 1 1 1 0 1 1 1 0 1 0 0 1 0 1 1 0 0 1 1 0 0 0 0 0 0 1 1 1 1 1 0 0 1 0 1 0 0 1 1 0 0 0 0 0 0 1 0 1 1 0 1 1 1 0 1 0 1 1 1 1 1 1 1 0 0 1 0 1 1 1 1 0 1 0 1 0 1 0 1 0 0 0 0 1 1 1 1 1 0 0 1 0 1 1 1 1 1 1 0 0 0 0 0 1 1 1 1 1 1 0 0 1 1 1 1 1 0 1 0 0 0 0 1 1 1 1 1 1 1 0 0 1 0 0 1 1 1 1 0 0 0 0 1 1 0 0 0 1 0 0 0 1 0 1 1 0 1 0 1 1 0 1 1 0 0 1 0 0 1 0 0 0 1 0 1 1 1 0 0 1 1 0 0 0 1 0 1 1 0 1 1 0 0 1 1 1 0 0 0 0 0 1 1 1 1 1 1 0 0 0 0 0 1 1 1 0 0 1 1 1 1 0 1 1 0 0 0 1 1 1 1 1 0 1 1 1 1 1 1 1 1 1 1 0 1 0 0 1 1 0 1 0 0 1 1 0 0 0 0 0 0 1 0 0 1 1 1 0 0 1 0 0 1 1 1 0 1 0 1 0 0 1 0 1 0 0 1 0 0 0 0 0 0 1 0 0 1 0 0 0 1 1 1 1 0 1 0 1 1 1 1 1 1 0 0 1 0 1 0 1 1 0 1 0 1 1 1 0 0 0 0 1 1 0 1 1 0 0 1 0 1 0 0 1 1 1 1 1 0 1 1 0 1 1 1 0 1 1 0 0 0 0 0 0 1 0 0 1 0 1 0 0 1 1 1 0 0 0 0 1 1 0 1 1 1 1 0 1 0 1 1 0 0 1 0 1 1 0 1 0 0 1 0 0 0 1 1 1 1 1 0 0 0 1 0 1 1 0 0 0 0 1 1 0 1 0 0 1 1 1 0 1 1 0 0 1 0 0 0 0 1 1 0 1 1 0 1 1 1 1 0 1 0 0 1 0 0 0 0 0 1 1 1 1 1 1 1 0 0 1 0 0 0 0 0 0 1 0 1 0 0 1 0 1 0 0 0 0 1 1 1 1 0 0 1 1 1 0 0 1 0 1 0 1 0 0 1 0 1 0 0 0 1 1 1 1 1 1 0 1 1 1 0 0 1 1 0 0 1 0 0 0 0 0 1 1 0 1 0 0 1 0 1 1 0 0 1 0 1 0 1 1 0 1 0 1 0 1 1 0 1 1 1 1 1 1 1 1 1 0 1 1 0 0 1 0 1 1 1 1 1 0 1 0 0 1 1 0 0 1 0 0 1 0 1 0 0 0 1 1 1 1 1 1 1 1 0 1 1 1 0 0 1 1 1 1 1 0 1 0 0 0 1 1 0 1 0 1 0 1 1 1 0 1 0 0 0 1 0 1 0 1 1 0 0 1 0 1 0 0 0 1 1 0 1 0 1 1 0 1 0 0 1 1 1 0 1 1 1 1 0 0 1 1 1 1 1 0 1 1 0 0 0 1 1 0 1 0 1 0 1 0 1 1 0 1 1 1 1 0 1 0 0 1 1 1 1 1 1 0 0 1 0 1 1 1 1 1 0 0 1 1 0 1 0 1 0 1 0 0 0 1 1 0 0 1 0 1 0 0 1 0 1 1 0 0 0 0 0 0 1 0 0 0 1 0 1 1 0 1 0 1 0 1 1 0 1 0 1 0 1 1 0 1 0 1 1 0 0 0 0 1 0 1 0 0 1 1 0 0 0 0 0 0 1 0 0 1 0 1 1 0 0 0 0 1 0 0 0 1 1 1 1 0 1 1 0 1 0 1 0 1 1 0 1 0 0 1 1 0 0 1 0 1 0 0 0 1 0 0 0 0 1 0 0 1 1 1 1 0 0 1 1 1 1 1 0 1 1 1 1 0 1 1 0 0 1 1 0 0 0 0 1 0 1 1 1 1 1 1 0 1 0 0 0 1 0 0 0 0 1 1 0 0 1 1 0 1 0 1 1 0 1 0 1 1 1 1 1 1 1 0 0 1 0 0 0 1 0 0 1 0 0 1 0 1 1 0 0 1 0 0 1 0 0 0 1 0 0 1 0 1 0 1 1 0 0 0 0 0 0 1 0 1 0 0 1 1 0 0 0 1 0 0 0 0 0 0 1 0 1 1 0 0 1 0 0 0 1 1 1 1 0 0 1 0 0 0 0 0 1 0 0 1 1 0 1 1 0 0 1 0 0 0 1 0 1 1 0 1 0 0 1 1 0 0 0 0 1 0 1 0 0 1 0 1 1 0 1 1 0 1 1 0 0 0 0 1 1 1 0 1 0 1 0 0 0 1 1 1 1 1 1 1 0 0 1 1 1 0 1 1 1 0 1 1 0 1 1 0 1 1 1 1 1 1 1 1 1 0 1 0 1 0 0 1 1 0 0 1 1 1 1 1 0 1 0 1 1 1 1 0 0 1 0 0 1 1 1 0 1 0 1 1 0 0 1 0 0 0 1 0 0 0 0 1 0 1 1 0 0 1 1 0 1 0 0 1 0 1 1 0 0 1 1 0 0 1 1 1 0 0 0 1 1 0 0 0 1 1 0 1 1 0 0 0 0 0 1 0 1 1 1 0 0 1 0 0 0 0 1 1 1 0 0 0 1 0 0 1 1 0 1 1 0 0 0 1 1 1 0 1 0 0 1 1 0 0 0 1 1 1 1 0 1 0 1 1 0 0 1 0 1 0 0 0 0 0 1 1 0 1 1 1 0 1 1 0 0 0 1 0 1 1 0 1 1 1 0 0 1 0 1 0 0 0 0 0 0 0 1 1 1 1 0 1 1 1 0 0 0 1 0 1 0 0 1 1 0 0 1 1 1 1 0 1 0 0 1 1 1 1 0 1 1 1 1 0 1 1 1 0 1 0 1 0 0 1 1 0 1 1 1 0 0 1 0 1 1 1 1 1 0 0 0 0 0 1 0 1 1 0 1 1 1 0 1 1 0 0 0 0 0 1 1 0 0 0 1 1 0 0 0 1 0 1 1 0 0 1 0 0 1 0 0 0 0 1 1 0 0 0 0 1 1 1 1 0 1 0 0 0 0 1 1 0 0 0 0 0 0 1 1 0 1 0 0 0 0 1 0 1 1 0 0 1 0 0 1 0 1 0 0 1 1 0 0 0 0 1 0 0 0 0 1 0 1 1 1 0 1 1 1 0 0 0 0 1 0 1 1 1 0 1 0 0 1 0 0 1 0 1 0 1 1 0 0 1 1 0 1 1 0 0 0 1 0 1 0 1 1 0 0 0 1 1 0 0 0 0 0 1 1 1 1 0 0 0 0 0 0 1 0 1 0 1 0 0 1 0 0 0 1 0 1 1 0 1 0 1 1 1 1 1 0 1 0 0 1 0 1 0 1 1 1 1 0 0 0 1 1 0 1 0 0 1 0 1 1 1 0 1 1 1 0 0 1 0 0 0 0 0 1 1 1 0 0 1 1 0 1 1 0 1 1 1 1 1 1 1 0 0 1 0 0 1 0 0 0 1 0 0 0 1 1 0 0 1 1 0 1 1 1 1 0 1 0 0 1 1 0 0 0 0 1 1 0 0 0 1 0 0 1 0 1 0 0 0 1 1 0 0 1 1 1 0 0 0 0 1 0 1 1 1 0 0 1 1 1 0 1 1 0 0 0 1 1 0 1 0 1 0 1 1 1 0 1 0 1 0 1 0 1 0 1 0 1 1 0 0 1 1 1 1 1 1 0 1 1 0 0 0 0 0 0 1 1 1 1 0 1 0 0 0 0 0 1 1 1 1 0 1 1 0 0 0 0 1 0 1 1 0 0 0 1 1 0 1 0 1 0 1 0 0 0 1 0 1 0 1 1 1 1 0 0 1 0 1 1 1 0 1 1 0 0 1 0 0 1 1 1 1 0 1 0 1 0 1 1 0 1 0 1 0 0 0 0 1 1 0 0 0 1 0 0 0 1 0 1 1 0 1 0 1 0 0 0 0 1 1 1 0 0 0 0 0 0 0 1 0 1 0 1 0 0 0 1 1 1 1 1 1 0 0 0 1 1 0 1 1 0 0 0 0 1 1 0 1 1 1 1 0 0 1 1 1 1 0 1 1 0 1 1 1 0 1 0 1 1 1 0 1 0 1 0 0 0 1 0 0 1 1 1 0 1 0 1 1 0 1 0 1 0 0 0 1 0 0 0 1 1 1 1 0 0 0 0 0 0 0 0 1 1 1 0 1 1 1 1 1 1 0 0 0 0 1 0 0 1 0 1 0 0 1 1 0 1 1 0 0 0 1 1 1 0 1 0 0 1 1 1 0 1 0 0 0 1 1 1 0 0 0 0 1 0 1 1 0 0 0 1 1 1 1 0 0 1 1 1 1 1 0 1 1 0 1 1 1 1 0 1 0 0 0 1 1 1 1 0 1 1 1 1 0 0 1 1 1 1 0 1 0 1 1 1 0 0 1 1 0 0 0 1 1 0 0 0 0 1 0 1 0 1 0 0 1 0 0 1 1 1 1 0 0 1 0 1 0 0 1 1 0 1 0 1 0 1 0 1 1 0 0 1 0 0 0 0 1 0 1 0 1 0 0 0 0 1 0 0 1 0 1 1 1 1 1 1 0 0 1 1 1 0 1 1 0 1 0 0 0 0 1 0 0 1 0 1 0 0 0 1 0 0 1 1 0 1 1 1 0 1 1 0 0 0 0 0 1 1 0 0 0 1 0 1 0 0 1 0 0 1 0 1 1 0 1 0 1 0 0 1 1 1 0 0 1 1 1 1 1 0 0 0 1 1 1 1 0 1 0 1 1 0 0 1 1 1 0 0 1 0 0 0 1 1 0 0 0 1 1 0 0 1 1 1 0 0 1 1 1 0 1 0 1 1 1 0 0 0 1 1 0 0 0 0 0 0 0 0 1 1 0 0 0 1 1 1 1 0 1 1 1 0 1 0 0 1 1 1 1 0 0 0 1 0 1 1 1 1 1 0 0 0 0 1 0 0 0 0 1 1 0 1 1 1 1 1 1 1 0 1 0 0 1 0 0 0 1 0 1 0 1 0 1 1 0 1 1 1 1 1 0 1 0 0 0 1 0 0 0 1 1 0 0 0 0 0 1 1 1 1 0 1 1 0 1 0 1 1 1 0 1 1 0 0 0 0 1 0 1 0 0 0 0 1 1 1 1 1 1 0 0 1 1 1 1 1 0 0 1 0 1 0 0 1 1 1 0 0 0 0 1 1 0 0 0 1 0 1 0 1 1 0 1 1 1 0 0 1 0 0 0 1 1 1 0 1 0 0 0 1 1 1 0 1 1 0 0 1 1 0 1 1 1 0 1 0 1 1 0 0 1 1 0 1 0 1 0 0 0 1 1 0 0 1 0 0 0 1 1 1 1 1 1 0 1 1 0 1 0 0 1 1 0 1 1 1 0 1 0 1 1 1 1 1 0 1 0 0 1 1 0 0 0 1 0 0 1 0 1 0 0 1 0 0 1 1 0 1 0 1 1 1 1 0 1 0 0 0 1 1 0 1 0 1 0 0 0 0 0 1 1 0 0 0 0 1 1 1 1 1 0 1 1 1 1 1 0 1 1 1 0 1 1 1 0 0 0 0 0 1 0 1 1 1 1 1 0 0 0 1 1 0 0 1 0 1 1 0 0 1 0 1 0 1 0 0 1 1 0 0 0 1 0 0 0 0 1 0 0 0 0 0 0 1 0 0 1 1 0 0 0 1 1 0 0 0 1 0 0 0 1 1 0 0 0 1 1 1 1 0 0 0 0 0 0 0 1 0 1 1 0 1 1 0 0 1 0 1 0 0 1 0 0 1 1 1 0 1 1 0 0 1 0 0 1 0 1 0 1 0 0 1 0 0 1 0 1 0 0 0 0 0 1 1 0 1 0 0 1 0 0 0 1 0 0 0 0 0 1 1 1 1 1 1 0 0 1 0 0 0 0 1 0 1 0 1 0 0 0 1 0 1 1 0 0 0 1 0 1 1 0 1 0 0 0 0 0 0 1 1 0 1 1 0 1 1 1 1 0 1 1 0 0 1 0 1 0 1 1 0 0 0 1 0 0 0 1 0 0 0 1 0 1 0 0 0 1 0 0 1 0 0 0 1 0 0 0 1 0 0 0 0 0 0 1 0 0 1 1 1 0 0 0 0 0 1 1 0 0 1 0 0 1 0 0 1 0 1 0 1 0 1 1 0 1 1 0 0 0 0 1 0 0 0 0 1 1 0 1 0 0 1 1 1 1 0 1 1 0 0 0 1 0 1 0 0 1 0 0 0 1 0 1 1 1 0 0 1 0 1 1 0 0 0 1 0 0 0 0 1 1 0 0 1 0 1 1 0 0 1 0 1 1 1 1 1 1 1 1 1 1 1 1 1 1 1 0 1 1 1 1 1 1 0 0 1 0 1 1 1 0 1 0 1 1 1 0 0 0 0 0 0 0 0 1 0 0 1 1 1 0 0 1 1 0 0 1 1 1 1 0 1 1 0 1 1 1 1 0 1 1 0 1 1 1 0 1 0 1 1 1 0 0 0 1 1 0 1 0 1 0 0 0 0 0 0 0 1 1 0 1 0 0 1 0 0 0 1 1 0 0 0 0 1 1 0 0 0 1 1 0 0 1 1 0 0 1 1 0 1 0 0 0 0 0 1 0 1 1 1 1 0 1 1 0 0 0 0 0 1 1 0 0 0 0 0 0 1 0 1 0 1 1 0 0 1 1 0 0 1 1 1 1 0 1 0 1 0 0 0 0 0 1 0 1 0 1 1 1 1 0 1 1 0 1 0 0 1 1 0 0 1 1 0 0 0 1 1 1 0 0 0 1 0 1 0 0 1 1 1 0 0 0 0 1 0 1 0 0 0 0 1 0 0 1 1 1 1 1 1 1 1 0 0 0 0 0 0 1 0 1 0 0 1 1 0 0 1 1 0 0 0 0 0 0 0 1 1 0 1 1 1 1 0 1 0 0 0 1 0 0 0 1 0 0 0 0 1 1 0 0 1 0 0 1 0 0 0 1 0 1 1 1 0 0 1 0 1 0 0 0 1 1 0 0 1 0 0 1 1 0 0 0 1 0 0 1 1 0 0 0 0 0 1 0 0 1 0 0 1 1 0 1 0 1 0 1 1 1 1 1 0 0 0 1 0 1 0 0 0 1 0 1 0 1 0 1 1 1 1 0 0 0 1 1 0 1 0 0 0 1 1 1 0 1 1 0 1 1 0 1 1 0 0 0 0 0 1 1 1 0 0 0 0 1 0 0 0 0 0 1 1 0 0 1 1 0 1 1 0 1 0 0 0 1 1 1 1 1 1 1 0 0 1 0 1 1 0 1 1 1 1 1 0 1 0 1 0 1 0 1 0 1 1 0 0 0 1 0 0 1 1 0 0 0 1 0 1 1 0 1 0 0 1 1 0 1 1 1 1 1 0 1 0 1 0 1 1 1 1 0 0 1 0 0 0 1 0 0 1 1 0 1 0 1 0 0 1 0 1 0 0 0 1 0 0 0 0 0 1 1 0 1 0 1 1 1 0 1 1 0 1 0 1 0 1 1 1 0 0 0 1 1 1 1 0 0 0 1 0 0 0 1 1 1 1 1 1 0 0 1 1 0 1 1 1 0 1 1 0 0 1 1 0 0 1 1 1 0 1 1 1 1 1 0 0 0 1 0 1 1 1 0 1 0 1 1 1 0 1 1 1 0 1 0 1 1 0 1 0 0 1 0 1 1 1 0 1 1 0 0 1 0 0 0 0 0 0 1 0 1 0 1 1 0 0 1 0 1 1 0 1 0 0 0 0 0 1 1 1 1 0 0 0 0 0 1 0 0 1 0 0 0 1 1 0 0 0 1 0 0 0 0 0 0 0 0 0 0 1 0 0 0 1 0 1 1 1 1 1 0 0 1 1 0 1 1 0 0 0 1 1 1 1 0 1 1 0 0 1 0 0 1 0 1 0 1 0 1 1 1 1 0 0 0 0 0 0 1 1 1 0 1 1 0 0 1 1 1 0 1 0 1 0 1 0 1 1 1 0 1 0 1 0 1 0 1 0 1 0 0 1 1 1 1 0 1 1 0 0 1 0 0 1 0 1 0 1 0 1 1 1 0 0 1 1 0 0 0 1 1 0 0 0 0 0 1 0 0 0 1 1 1 1 0 0 0 0 0 1 1 0 0 1 0 1 0 1 1 0 0 1 0 1 0 0 1 1 1 1 1 1 1 1 0 0 1 0 0 1 1 0 1 1 0 1 0 1 1 0 1 0 0 0 0 0 0 0 0 1 1 0 0 0 1 1 0 0 0 1 0 0 0 1 0 1 0 0 1 0 0 0 0 0 1 0 0 0 0 1 0 0 1 1 0 0 1 0 1 1 1 0 1 1 0 0 1 1 1 0 1 0 0 1 1 1 1 0 1 1 0 1 1 0 0 1 0 1 1 1 1 0 1 0 0 0 1 1 0 1 1 0 0 0 1 0 1 1 1 1 0 0 0 0 1 1 0 1 1 1 0 0 1 0 1 0 1 0 1 1 0 0 1 0 1 0 1 1 1 1 0 0 0 1 0 1 1 0 0 1 0 1 1 0 0 1 0 0 1 0 0 1 0 0 0 1 0 1 0 0 1 1 1 0 1 1 0 0 1 0 1 0 0 1 1 0 0 1 0 0 0 1 0 0 0 1 0 1 1 0 0 1 0 0 1 0 1 1 1 1 0 1 1 1 0 1 1 0 1 0 1 1 0 1 0 1 1 1 0 1 0 1 0 1 0 0 0 0 1 0 1 0 1 0 1 1 0 0 0 1 0 0 0 1 1 0 0 1 0 0 0 1 0 0 1 0 1 1 0 1 1 1 0 0 1 0 0 1 1 0 1 0 1 0 1 0 1 1 1 0 1 1 0 0 1 1 1 0 1 0 1 1 1 0 0 0 0 1 0 1 1 1 0 1 1 0 1 1 0 1 1 1 0 0 0 0 1 1 1 0 0 1 1 1 0 0 0 1 0 1 1 0 0 1 1 1 0 0 0 1 1 1 1 0 0 1 1 1 0 0 1 0 0 1 1 1 0 1 1 0 1 1 1 1 0 1 1 0 0 0 0 0 0 0 0 1 1 1 0 1 0 0 1 0 0 1 0 0 1 0 0 1 0 0 0 1 1 1 0 1 1 0 1 1 1 0 0 0 1 0 0 1 1 0 0 1 0 0 0 1 0 0 1 1 0 0 0 1 0 0 1 0 0 1 1 1 1 0 1 0 1 1 0 0 1 0 0 0 1 1 1 0 1 0 1 1 1 0 1 0 0 1 0 1 0 1 0 0 0 1 1 0 0 1 1 1 0 0 1 0 0 0 1 1 0 1 0 1 0 1 1 1 1 0 1 1 1 0 0 1 0 0 0 1 1 0 1 1 1 0 0 0 1 1 0 0 0 1 0 0 1 1 0 0 0 0 1 0 0 1 0 0 0 1 1 0 0 0 0 1 0 0 0 1 0 0 0 1 1 1 1 0 0 1 0 0 1 0 1 0 0 0 0 1 1 1 1 0 1 0 0 1 1 1 1 1 0 1 1 1 1 0 1 0 1 0 1 0 1 0 1 1 0 0 1 0 0 1 0 0 0 0 0 1 1 1 1 0 1 1 1 0 0 0 0 0 0 0 0 0 0 1 1 1 0 0 0 1 0 0 1 1 1 1 1 0 0 1 1 1 1 0 1 1 0 1 1 1 0 1 0 1 1 1 0 0 1 0 0 0 0 0 1 1 0 1 1 0 0 0 0 1 0 1 0 0 0 1 0 1 1 0 0 1 1 1 1 0 1 1 1 1 1 1 1 1 0 1 1 0 1 1 1 1 1 1 1 0 1 1 0 0 1 0 1 0 1 1 0 0 1 1 1 0 0 1 1 0 1 0 0 0 0 1 1 1 1 1 1 1 0 0 0 0 0 0 0 0 0 0 1 0 0 0 0 0 1 0 0 0 0 0 1 1 1 1 1 0 0 1 1 1 1 1 0 1 0 1 0 0 0 1 1 0 0 1 0 0 0 0 1 1 0 1 0 1 0 0 1 0 1 1 0 0 0 1 0 1 1 0 0 1 0 0 0 0 0 0 0 0 1 1 0 1 1 0 1 1 0 0 0 1 1 0 1 0 1 0 1 1 0 1 1 0 0 1 0 0 0 1 0 0 1 1 0 1 0 1 1 1 1 0 0 1 0 0 0 0 0 0 0 0 1 1 1 1 1 1 1 1 1 0 0 0 1 0 1 1 1 0 0 0 0 1 1 1 0 0 0 0 1 1 1 0 1 0 1 1 1 0 1 0 0 0 0 0 1 0 0 1 0 0 1 1 1 0 1 1 0 0 1 0 0 1 1 1 0 0 1 0 0 0 0 0 0 0 1 1 0 0 0 0 1 1 1 1 1 0 1 0 0 0 0 0 0 0 0 0 1 1 0 1 0 0 0 0 1 0 0 0 1 1 0 1 1 0 0 1 1 0 1 0 1 0 0 0 0 0 0 1 1 1 0 0 1 1 1 0 0 1 1 1 1 1 1 1 0 0 0 1 1 1 1 0 1 1 1 0 1 0 0 1 1 1 1 1 1 1 0 1 0 0 0 0 1 1 0 0 0 0 0 1 0 0 1 1 1 1 0 1 0 0 1 1 0 0 1 1 0 1 1 1 0 0 0 1 0 1 1 1 0 1 0 0 1 1 0 1 1 0 0 1 0 0 1 1 1 0 0 1 1 1 1 0 1 0 1 1 1 1 0 0 1 0 0 0 1 0 0 0 0 1 1 0 0 1 0 1 0 0 0 1 1 0 0 1 0 0 1 1 0 0 1 0 1 0 1 1 0 1 1 0 1 0 0 0 0 0 0 0 1 0 0 1 0 1 0 0 0 1 0 0 1 1 0 0 0 0 0 0 0 0 1 1 1 1 1 0 1 1 1 0 0 0 0 0 1 1 0 0 0 1 0 0 0 1 0 0 1 0 1 0 1 1 1 1 0 0 1 1 1 1 0 0 1 0 1 0 0 0 0 0 0 0 1 1 1 1 0 1 0 1 0 0 1 1 1 1 1 0 0 1 1 0 1 0 1 0 0 1 0 1 1 0 1 0 1 0 1 0 1 0 1 1 1 0 1 1 1 0 1 0 0 1 0 0 0 0 1 1 0 0 1 1 0 0 0 1 0 0 1 1 0 0 1 1 1 1 0 0 1 1 1 0 1 1 0 0 1 0 1 1 1 1 0 1 1 1 1 0 0 0 0 1 0 1 0 1 0 0 0 1 0 0 1 0 0 1 0 1 0 0 1 0 0 1 0 0 1 0 0 1 0 1 1 1 1 1 1 1 1 1 0 1 1 1 0 1 1 0 0 0 0 1 1 1 0 0 0 1 1 0 1 1 0 1 0 1 1 0 1 1 0 1 0 1 1 1 1 1 1 1 0 0 0 1 1 1 0 0 0 0 1 1 0 0 1 0 0 1 1 1 1 1 1 1 1 0 0 0 1 1 0 1 1 0 0 0 0 1 0 1 0 1 0 1 1 1 0 0 1 1 0 0 0 0 1 1 0 0 0 0 1 0 1 0 1 1 0 0 1 0 1 0 1 1 0 0 0 0 0 1 1 1 0 0 1 1 1 0 1 0 1 1 0 1 1 0 0 0 0 1 0 1 0 1 1 0 1 1 1 1 0 0 0 0 0 0 0 1 1 1 0 1 0 0 1 1 1 1 0 1 0 0 0 0 0 0 1 1 1 1 1 0 0 0 0 1 0 0 1 1 1 1 0 1 0 0 0 1 0 1 0 0 1 0 0 0 1 1 0 0 1 1 1 1 1 0 1 0 0 0 0 0 0 0 0 0 1 1 1 0 0 1 1 1 1 0 0 0 1 1 0 1 1 0 0 1 1 1 0 0 1 0 1 1 0 1 1 0 1 0 0 0 1 0 0 1 1 1 1 1 1 0 0 1 0 0 0 0 0 0 1 1 0 0 1 1 1 0 0 0 0 0 0 0 0 1 1 0 1 0 0 1 1 1 0 0 0 0 0 0 0 0 1 1 1 0 1 1 1 0 0 1 0 0 0 0 1 1 0 1 1 0 0 1 0 0 0 1 0 0 1 0 0 1 0 1 1 1 0 0 0 1 0 0 0 1 0 0 0 1 0 0 1 0 0 0 1 1 1 0 0 1 1 0 0 1 0 1 1 1 1 1 0 1 1 1 1 0 1 0 0 1 1 1 1 0 0 0 0 0 1 0 0 1 1 1 0 0 1 0 1 0 1 0 0 0 1 0 1 0 0 0 1 0 1 0 0 1 0 0 1 0 0 0 0 1 0 1 0 0 1 1 0 0 0 0 1 1 1 0 0 1 1 0 1 0 1 1 0 1 1 0 1 1 1 0 1 1 1 0 1 1 0 1 0 1 1 1 1 0 1 0 1 0 1 0 1 0 1 1 0 1 1 1 0 0 1 1 0 0 0 0 1 1 1 0 0 1 1 0 0 0 1 1 0 1 0 1 0 1 0 0 0 0 0 0 0 1 0 0 0 1 1 0 1 0 0 0 0 1 0 1 1 0 1 0 0 1 0 1 1 0 0 1 0 0 1 0 1 1 0 1 0 0 0 0 1 1 0 0 1 0 1 1 1 0 0 0 1 1 0 1 0 1 0 0 1 1 0 0 1 1 0 0 1 0 1 0 0 0 0 0 0 1 0 0 0 1 1 0 0 0 0 1 1 1 0 1 1 1 0 0 1 0 1 1 0 1 0 1 0 0 1 1 1 0 1 0 1 0 1 1 1 0 1 0 1 1 0 0 0 1 1 1 0 1 1 1 0 1 0 0 1 1 0 0 0 0 1 0 0 1 1 1 0 1 1 0 1 1 1 0 1 0 0 1 1 1 1 0 0 0 1 1 0 0 1 1 0 0 1 0 1 1 1 0 1 0 1 1 0 0 1 0 1 0 1 1 0 0 1 0 1 1 0 0 1 0 1 1 1 1 0 0 0 0 0 0 0 0 0 1 1 1 0 0 1 1 1 0 0 0 1 1 1 0 0 0 0 1 1 0 1 1 1 1 0 1 1 1 0 0 1 1 0 0 1 0 0 1 0 1 1 1 0 1 1 0 0 0 0 1 0 1 0 1 0 0 0 1 0 0 1 1 0 1 0 1 1 1 0 1 0 1 1 0 1 0 0 1 0 0 0 0 1 0 0 0 0 1 0 1 0 1 0 0 1 1 0 1 1 1 1 1 0 1 0 1 0 1 0 0 0 0 1 1 0 0 1 1 1 0 1 0 1 0 0 0 1 0 0 1 1 0 0 1 1 1 0 0 1 0 1 1 1 0 1 1 0 0 0 1 0 1 1 1 1 1 1 1 1 1 0 1 1 1 0 0 1 0 1 0 0 1 0 0 0 1 1 0 0 1 0 0 1 0 1 0 1 0 0 1 0 0 0 1 0 0 0 1 1 0 0 1 1 1 0 1 0 1 0 0 1 1 1 1 1 0 0 1 1 0 0 0 1 1 1 1 0 1 0 0 1 1 0 0 0 1 1 0 0 1 0 1 1 1 1 0 0 0 0 1 1 0 0 1 0 1 0 0 1 1 0 0 0 0 1 0 1 0 1 0 1 1 1 1 0 0 0 1 1 1 1 0 1 1 0 1 1 1 1 1 0 1 0 0 1 0 0 1 1 0 1 0 1 1 0 0 1 1 1 1 1 1 0 1 1 0 1 1 0 0 0 0 1 1 0 1 0 0 1 0 1 0 1 1 1 0 1 0 1 1 1 0 0 1 0 0 0 0 0 1 1 1 1 0 1 1 1 0 0 1 0 0 0 0 1 1 0 0 1 1 0 0 1 1 1 0 0 0 1 1 1 1 0 1 0 0 0 0 0 0 0 1 1 0 1 1 1 0 0 0 0 0 1 0 0 0 1 1 1 0 1 1 0 0 0 0 0 1 1 0 1 0 0 0 1 0 0 1 1 0 0 0 1 1 0 1 1 0 1 0 1 1 1 1 1 1 1 0 0 0 1 0 0 1 0 1 0 0 1 1 0 1 1 1 1 0 1 0 0 1 0 0 1 1 1 0 0 1 0 0 0 0 1 1 0 0 1 0 0 0 0 1 0 1 1 0 0 0 0 0 0 1 1 1 1 1 0 1 1 0 1 1 0 1 0 0 0 0 1 1 0 0 1 1 1 0 1 1 0 0 1 0 1 0 1 1 1 1 0 0 0 1 1 0 0 0 1 0 0 1 1 1 1 1 0 0 0 0 1 0 0 1 1 1 0 0 0 1 0 1 0 0 1 0 0 0 1 0 0 0 0 0 0 0 1 0 1 0 0 0 1 1 1 0 1 1 0 0 0 1 1 0 1 1 1 0 1 0 0 1 1 1 1 0 0 1 1 1 1 1 0 0 1 0 0 1 0 0 1 1 1 1 1 1 0 1 0 0 1 1 0 0 0 1 0 1 1 1 1 0 0 1 1 0 1 1 1 1 1 0 0 1 0 1 0 1 0 1 1 1 1 0 1 0 1 0 1 0 1 1 0 1 1 0 1 0 1 1 1 1 1 0 0 0 0 0 0 0 1 1 0 0 1 1 0 0 0 1 1 1 1 1 1 0 0 0 0 1 1 0 0 1 0 0 0 1 0 0 1 0 0 0 0 0 0 0 0 0 1 1 1 1 1 0 0 0 1 1 1 1 0 0 0 1 1 1 1 1 1 0 0 0 1 0 1 1 0 0 1 0 1 1 1 1 0 1 1 0 0 1 0 1 0 1 0 1 1 0 1 1 1 1 0 1 1 0 1 0 1 1 1 1 0 0 0 1 1 0 0 0 1 1 1 1 0 0 0 0 1 0 0 0 1 0 0 1 1 1 0 0 0 0 0 0 0 0 1 1 0 1 0 0 0 0 1 0 0 0 0 1 1 1 1 1 0 0 1 0 0 1 1 0 1 1 0 0 0 0 0 1 1 1 0 0 1 0 0 0 0 0 1 0 1 1 1 0 0 0 0 0 0 0 0 0 1 1 1 1 1 1 0 1 1 0 1 1 1 1 0 1 1 1 1 0 0 1 1 1 0 0 1 1 1 0 0 0 1 1 0 0 0 0 0 1 0 1 1 0 0 0 1 0 0 1 0 0 0 0 0 0 1 1 1 0 1 1 1 0 1 0 0 0 1 0 0 1 0 0 0 0 0 0 0 1 0 0 0 1 1 1 1 1 1 0 1 0 0 0 1 1 1 0 1 1 1 0 0 1 1 0 0 0 1 1 0 1 1 1 1 0 0 0 0 0 0 0 1 0 1 0 0 0 0 1 1 1 1 1 1 1 0 1 0 0 0 1 0 0 0 1 0 1 1 1 0 0 0 0 0 0 1 0 1 0 1 0 1 1 0 0 1 1 1 0 0 1 0 0 0 0 0 1 1 0 1 0 0 1 0 1 1 0 0 0 0 0 1 0 1 1 0 1 0 0 1 0 1 0 1 1 0 1 1 1 0 1 0 1 1 0 0 0 1 0 1 0 0 0 1 0 0 1 0 1 1 0 0 0 1 0 1 0 0 0 0 0 0 1 0 1 0 0 0 0 0 0 1 1 1 0 0 0 0 0 0 1 0 0 1 0 0 1 1 0 0 1 0 0 0 1 1 0 0 0 0 1 1 0 1 1 1 0 0 1 1 0 0 0 1 0 0 1 0 0 1 0 1 0 0 1 1 0 0 1 0 1 0 0 1 1 0 1 0 1 0 1 1 1 0 1 1 1 1 0 0 1 0 0 1 0 0 1 1 1 1 0 0 0 0 0 0 0 0 0 1 0 0 0 1 0 1 0 1 0 1 1 1 0 1 1 0 1 0 0 0 1 1 0 1 1 1 1 0 1 0 1 0 0 1 1 1 1 1 0 0 0 0 1 1 0 1 0 1 0 0 1 0 1 1 1 1 0 0 0 1 0 0 1 1 1 1 0 1 1 1 1 0 1 0 1 0 1 0 1 1 1 0 1 0 1 1 0 1 1 0 0 1 0 0 1 0 1 0 1 0 1 0 0 0 0 1 0 0 1 0 1 0 0 1 1 1 0 0 0 0 1 0 1 0 0 1 0 1 1 1 1 0 1 1 1 1 1 0 1 1 0 0 1 1 0 1 0 1 1 0 0 1 1 1 1 0 1 0 1 1 0 0 0 1 1 0 0 1 0 0 1 0 0 0 0 1 0 1 0 1 1 1 0 0 1 1 1 0 1 1 0 1 0 1 1 1 0 1 0 1 1 1 1 1 0 0 1 1 0 1 0 1 0 1 1 1 1 0 0 1 0 0 0 1 0 0 0 0 0 1 0 0 0 0 0 1 1 0 1 1 0 0 1 1 0 0 1 1 0 0 1 1 0 1 0 1 1 0 0 0 1 0 0 1 1 0 0 1 1 0 0 0 1 1 1 1 1 0 0 1 0 0 1 1 0 0 1 0 1 0 1 0 1 1 1 0 0 1 1 1 1 1 0 1 1 0 0 0 0 0 1 0 0 1 1 0 1 0 1 1 0 0 1 1 1 0 0 1 0 1 0 1 1 0 0 0 0 1 0 0 1 0 0 0 0 1 1 1 0 0 1 1 1 1 0 0 0 0 0 0 1 1 1 0 0 0 0 1 0 0 0 1 0 1 0 1 0 0 0 0 1 0 0 1 0 0 1 1 0 1 0 1 0 0 1 1 0 0 1 0 0 1 1 0 0 1 0 0 0 0 0 1 1 1 1 1 0 1 1 1 1 0 1 0 1 0 0 0 0 1 1 0 1 0 0 0 0 0 0 0 1 0 1 1 1 0 0 0 1 1 0 0 0 1 0 0 0 1 1 1 0 0 1 1 1 1 1 0 0 1 1 1 0 0 1 1 0 0 1 1 1 0 0 1 0 0 0 1 1 1 0 0 0 0 0 0 0 1 1 0 1 0 1 0 1 1 0 1 0 0 0 0 1 1 1 1 0 1 0 1 1 0 1 1 0 1 0 0 0 0 0 0 1 1 0 0 0 0 0 0 0 1 1 1 1 1 1 1 1 1 0 0 0 1 1 1 0 1 0 0 1 1 0 1 1 0 1 0 1 1 0 1 1 1 1 1 1 1 0 1 1 0 1 1 1 1 0 1 0 0 1 1 1 0 1 0 0 1 0 1 1 0 1 1 1 0 1 0 1 0 0 0 0 0 0 0 0 0 0 0 0 1 1 1 0 1 1 0 0 0 1 1 1 0 1 0 0 1 1 0 0 1 0 0 0 1 0 0 1 1 1 0 1 1 1 0 1 1 1 1 1 0 1 1 1 0 1 1 1 0 0 1 1 0 0 0 0 0 1 1 0 0 0 0 0 1 1 1 1 0 1 1 1 0 0 0 0 0 0 0 0 1 1 1 0 0 1 1 0 1 1 1 0 1 1 0 1 1 0 1 0 0 0 0 1 1 0 1 1 0 1 1 1 0 1 1 1 1 0 1 0 0 1 1 1 0 0 0 0 0 1 1 1 0 0 0 1 0 1 1 1 1 0 1 0 1 1 0 0 1 1 0 1 1 1 0 1 1 1 1 0 1 1 0 0 1 0 1 0 0 0 0 0 0 1 1 1 0 0 1 0 0 1 1 0 0 0 1 0 1 1 0 1 0 0 1 0 0 1 0 1 1 0 1 1 1 0 0 0 0 1 0 1 1 0 1 0 1 0 1 1 1 0 1 1 1 1 1 0 0 1 0 0 0 0 0 1 1 0 1 0 0 1 0 0 1 1 1 1 0 1 1 0 1 0 0 1 0 0 0 1 0 1 1 1 0 1 0 1 1 0 0 0 1 0 1 0 0 0 0 1 0 1 0 0 0 1 1 1 0 0 0 1 1 1 0 0 1 0 1 0 1 1 0 0 0 1 1 0 1 1 1 0 0 1 1 1 1 0 1 1 1 0 0 1 1 1 0 0 1 1 1 1 1 1 1 1 0 0 1 0 0 0 1 1 0 0 0 0 0 1 1 1 0 1 0 0 0 0 1 0 0 0 0 0 1 1 1 1 1 1 0 0 1 1 1 1 0 1 1 1 0 0 0 1 1 0 0 0 0 1 0 1 1 1 1 1 0 1 0 1 0 1 1 1 1 0 0 0 1 1 1 1 0 1 0 1 1 1 0 1 1 1 0 0 0 0 1 0 1 0 0 1 1 1 1 1 1 0 1 1 0 0 1 0 0 0 1 1 0 1 0 0 1 1 1 1 1 1 0 1 1 0 1 0 1 0 1 0 0 0 0 1 1 1 0 1 1 1 0 1 1 0 1 1 0 1 0 0 1 0 1 1 1 1 0 0 0 1 0 1 0 0 1 0 0 0 0 0 1 1 0 0 0 0 1 1 1 1 1 0 1 0 0 0 1 0 0 1 1 0 1 1 1 0 1 0 0 0 1 1 1 0 0 0 0 0 1 1 1 1 1 0 0 0 1 1 0 1 0 1 0 0 0 0 1 1 1 0 0 1 0 1 1 0 0 0 0 0 1 0 1 0 1 1 1 0 0 1 1 0 1 0 0 1 1 1 0 0 1 1 0 1 0 0 0 0 1 0 1 0 0 1 1 0 0 1 0 0 0 1 1 1 1 0 0 1 1 0 0 1 1 1 1 1 1 1 1 0 0 1 1 1 1 0 0 0 1 0 0 0 1 0 0 1 0 0 0 0 0 1 1 1 1 0 0 1 1 0 1 0 1 0 0 0 1 0 0 1 0 1 0 1 0 0 0 1 0 0 0 0 0 0 0 0 0 1 1 1 0 1 0 0 0 1 0 0 0 1 0 0 0 1 1 1 1 1 1 1 0 1 0 1 0 0 0 0 0 0 1 0 1 0 0 1 1 0 0 1 1 0 1 1 0 1 0 1 0 1 1 1 0 0 1 0 1 0 1 0 0 0 1 1 0 0 1 1 0 1 1 1 1 0 0 1 1 0 1 1 0 0 1 1 1 0 0 1 1 1 0 1 1 1 1 0 1 1 1 1 1 0 0 1 0 1 0 1 1 1 0 1 0 1 1 0 0 1 0 1 1 1 1 1 1 0 1 1 0 0 0 1 0 1 0 0 0 1 1 0 1 0 1 1 0 0 1 0 1 0 0 0 0 1 1 1 0 0 0 0 1 1 1 1 1 0 0 1 0 0 0 0 1 1 0 1 1 1 0 0 1 1 0 0 0 1 1 1 1 1 1 0 1 0 1 0 0 0 1 0 1 0 0 1 1 0 0 1 0 1 1 1 1 1 1 1 1 0 0 1 1 0 1 1 0 0 1 0 0 1 1 1 1 1 0 1 1 0 0 0 0 1 1 1 0 0 1 1 0 0 0 0 1 0 1 1 0 1 1 0 0 1 0 1 0 1 1 1 0 1 0 0 0 1 0 1 1 0 0 0 0 0 0 0 0 0 0 1 0 1 0 0 0 0 0 1 1 0 0 1 0 0 1 1 0 0 0 0 0 0 1 1 1 0 1 1 0 0 0 1 1 1 0 0 0 0 1 1 1 0 1 0 1 1 0 1 1 0 1 0 0 1 0 1 1 1 0 1 1 1 1 1 1 1 1 0 0 1 1 1 1 0 1 0 0 1 0 1 0 0 1 0 1 0 0 1 1 1 1 1 1 0 1 1 1 0 0 1 1 0 0 0 0 0 1 0 0 1 0 1 1 0 1 1 1 1 1 0 0 1 1 0 0 0 1 0 1 0 0 1 0 0 1 0 1 1 0 1 0 0 0 1 1 1 0 1 0 1 0 1 1 0 0 1 0 0 1 1 0 0 0 1 0 1 0 0 1 1 1 0 1 1 1 1 1 0 1 1 0 1 0 1 1 0 1 0 1 1 0 1 0 0 0 1 0 0 0 0 0 1 0 1 1 0 1 1 0 1 1 0 1 1 1 0 0 1 1 1 1 0 1 1 1 1 0 0 0 1 0 1 1 0 0 0 1 0 1 0 1 1 0 0 0 1 0 1 0 0 0 0 1 1 1 0 0 1 1 0 0 0 1 1 0 1 0 1 1 1 1 1 0 1 0 1 0 1 1 0 1 0 0 0 1 0 1 1 0 0 0 0 1 0 1 0 1 1 0 0 1 0 0 1 1 0 1 0 0 0 0 0 0 1 1 0 1 1 1 1 0 1 1 1 0 1 0 0 1 1 0 1 1 1 1 1 0 0 0 1 1 1 0 0 1 1 1 0 1 0 0 1 1 1 1 1 1 1 0 0 0 1 1 1 1 0 0 0 1 1 0 0 0 1 0 1 1 0 1 1 1 0 1 1 0 1 0 0 0 0 0 0 0 0 1 1 0 0 0 0 1 1 0 1 1 1 1 0 1 1 1 1 0 0 1 0 1 1 0 0 1 0 0 0 1 0 0 0 1 1 0 1 0 0 1 1 0 0 0 1 0 0 0 1 1 0 1 0 0 1 0 1 0 0 0 1 1 0 0 1 1 1 0 0 0 1 0 0 0 1 1 0 0 0 0 1 1 1 1 0 0 1 0 0 1 0 1 1 0 0 0 1 1 0 1 1 1 1 0 1 0 1 0 0 0 0 1 1 1 1 1 0 1 1 0 1 0 0 0 0 0 1 0 0 1 1 0 1 0 0 0 0 1 0 1 0 1 1 1 0 1 0 1 0 1 0 1 0 0 1 1 1 0 0 1 1 0 1 1 1 1 0 0 0 1 0 1 1 1 0 0 1 0 1 0 1 1 1 0 0 0 0 0 0 1 1 1 1 1 0 0 0 1 1 1 0 1 1 1 0 0 1 0 0 1 0 0 1 1 0 0 1 0 1 0 1 1 1 0 1 1 0 0 1 1 0 1 1 1 0 1 0 1 0 0 0 0 0 0 1 1 1 0 1 1 1 1 0 0 1 1 1 1 1 0 0 0 1 0 0 1 0 1 1 1 1 0 1 1 1 0 0 0 1 1 1 1 0 0 0 0 1 1 0 1 1 0 1 1 0 0 1 0 1 1 1 0 1 1 1 0 1 1 1 1 1 0 1 0 1 1 1 0 1 0 1 0 1 0 1 0 0 1 1 1 1 0 1 1 0 0 1 1 0 1 1 1 0 0 1 0 0 0 1 0 1 0 0 0 0 0 1 0 1 1 1 1 0 1 1 0 1 1 1 1 1 0 0 1 1 1 1 0 1 1 0 0 1 1 1 1 1 1 1 1 1 1 0 1 1 0 0 0 0 1 1 0 1 0 0 1 1 0 0 0 1 0 0 0 1 0 1 1 1 0 1 0 1 1 1 0 1 1 0 1 0 0 1 1 0 1 1 1 1 0 0 1 1 0 0 0 1 0 1 0 1 1 1 1 1 1 0 1 0 1 1 0 0 1 0 0 1 0 1 1 0 1 1 0 1 1 1 0 1 1 0 0 0 0 1 0 0 1 0 1 0 1 0 0 0 1 1 0 1 1 1 1 1 0 1 1 1 1 1 0 1 0 1 1 0 0 0 1 1 1 0 1 0 0 1 0 0 1 0 0 0 1 1 0 0 0 1 0 0 0 1 1 1 0 0 1 0 0 1 0 0 0 1 0 1 0 1 1 1 0 1 1 0 1 0 1 1 0 1 1 1 1 0 0 0 0 1 0 1 0 0 1 0 0 0 0 0 0 1 0 1 0 1 1 0 0 1 0 1 1 1 0 0 1 0 0 1 1 1 1 0 0 1 1 1 0 1 1 0 1 1 0 0 1 0 1 0 0 0 0 0 1 0 0 0 1 0 1 1 0 1 1 1 0 1 0 0 1 0 1 1 0 1 1 0 1 0 0 0 1 0 0 1 0 0 1 0 0 1 0 1 1 0 1 0 1 1 0 0 1 1 1 0 1 0 0 0 1 1 1 0 0 0 0 1 0 0 1 1 1 1 0 0 0 1 0 0 0 0 0 1 0 1 1 1 1 1 1 1 1 1 0 0 0 1 1 0 0 1 1 1 0 1 1 1 1 0 1 1 1 0 1 0 0 1 1 1 1 0 0 1 0 1 0 1 0 1 0 1 0 1 0 1 0 1 1 0 1 0 1 1 1 1 0 1 1 0 0 1 1 0 0 1 0 0 0 0 1 1 1 1 0 0 0 1 1 0 0 0 0 0 0 1 1 1 1 1 0 0 1 0 1 0 1 1 1 0 1 1 0 0 1 0 1 0 1 1 1 1 0 0 1 0 0 0 1 0 0 0 1 1 1 0 1 1 0 1 0 1 1 0 0 1 1 1 0 0 0 0 1 1 1 0 0 1 0 1 1 0 1 1 1 0 0 0 1 0 0 0 1 1 0 0 1 0 0 1 1 1 0 0 1 0 1 1 0 1 1 0 1 1 1 0 1 0 1 1 0 1 0 1 1 1 1 1 0 1 0 0 1 0 1 0 0 0 0 1 0 0 0 1 1 0 1 1 1 1 1 1 1 1 0 1 0 1 1 1 1 1 0 1 0 0 1 1 0 1 0 1 0 1 0 0 0 0 0 0 0 0 1 1 1 0 0 0 0 0 1 0 1 1 0 0 1 0 0 1 0 0 1 1 1 1 0 0 0 0 0 0 1 1 1 0 1 0 0 1 1 1 1 1 0 0 0 0 0 0 0 0 1 0 1 1 1 1 0 1 0 0 1 0 0 0 1 1 0 0 1 0 1 0 1 1 1 1 0 0 0 0 1 1 1 0 0 1 0 1 0 0 0 0 0 0 0 0 0 1 0 0 1 1 0 1 1 0 1 0 1 1 1 1 0 0 1 0 1 0 0 1 0 1 1 1 1 0 1 1 1 1 0 1 0 0 0 0 1 0 0 1 0 1 1 1 0 1 0 0 0 1 0 0 0 0 1 1 1 1 1 0 0 1 1 0 1 0 0 0 0 0 1 1 1 0 0 0 1 0 1 1 1 0 0 0 1 0 0 0 0 1 0 0 1 0 0 0 0 0 1 1 1 0 0 0 1 1 1 1 1 0 1 1 0 1 0 0 0 1 1 0 0 0 1 1 1 0 0 1 1 0 1 1 1 1 1 0 1 0 0 1 1 0 0 0 0 1 1 0 1 1 1 1 0 0 0 1 1 0 1 0 0 0 1 1 0 0 1 1 1 1 0 0 1 1 0 1 0 0 1 1 1 1 0 1 1 0 1 0 0 1 1 0 1 0 1 1 1 1 0 0 0 1 1 0 1 1 0 0 1 1 0 1 1 1 1 1 1 0 1 0 0 1 0 1 1 0 1 0 1 0 0 0 1 1 1 0 1 0 0 1 0 0 0 1 0 1 1 1 0 1 1 1 0 1 1 1 1 0 1 1 0 1 0 1 1 0 1 0 0 1 1 0 0 1 0 0 1 1 0 0 0 0 1 1 1 1 0 1 1 1 0 0 0 0 1 0 0 0 0 1 1 1 0 1 0 0 1 1 1 1 1 0 0 0 1 1 0 1 0 1 1 0 0 0 0 1 0 0 1 1 0 0 0 1 0 1 1 0 1 0 1 1 0 1 0 0 0 0 1 1 1 1 0 0 1 0 0 1 0 0 1 0 0 0 1 0 0 1 0 0 1 1 1 1 1 0 0 1 0 0 1 1 1 1 0 1 0 0 1 1 1 1 1 1 0 1 0 0 0 0 1 1 0 1 1 0 0 1 0 1 0 1 0 1 1 0 1 1 0 0 1 1 0 1 0 0 0 0 1 1 1 0 0 1 1 1 0 0 0 0 0 1 0 0 1 0 0 0 0 1 1 0 1 0 0 0 0 0 1 1 1 0 0 0 0 0 1 1 1 1 0 0 1 0 1 1 0 0 0 1 1 1 0 1 1 1 1 0 1 0 0 1 1 0 0 0 0 0 0 0 1 1 1 0 1 1 0 1 1 0 1 1 1 0 1 0 1 0 0 1 0 0 0 0 0 0 1 0 1 1 1 0 1 1 0 1 1 1 0 0 0 1 1 1 1 0 0 1 0 0 0 1 1 1 0 1 1 1 0 0 1 0 0 0 1 1 1 1 1 1 0 1 0 0 1 1 1 0 1 1 1 0 0 1 1 0 0 1 1 0 1 1 0 0 1 0 1 0 1 1 0 1 0 0 1 0 1 1 1 1 0 1 0 1 1 1 0 1 1 0 0 0 0 1 0 1 1 1 1 1 0 1 0 0 1 1 1 1 1 1 1 1 0 1 0 1 1 0 1 1 1 1 1 1 0 1 0 0 1 1 0 0 0 1 0 0 0 0 0 0 1 0 0 1 1 1 0 1 1 0 1 1 0 0 1 0 1 0 1 1 1 0 0 0 0 1 0 0 1 1 1 0 1 1 0 0 1 1 0 0 1 0 0 1 0 0 1 0 0 0 0 0 1 1 1 0 0 1 1 1 0 1 0 0 1 1 1 1 1 1 0 1 1 0 0 1 0 0 0 1 0 1 0 1 1 0 1 1 0 0 1 1 1 0 1 0 0 1 0 1 1 1 0 1 1 0 1 0 0 0 1 0 0 1 1 0 1 0 1 1 1 0 1 0 1 0 0 0 1 0 0 0 0 1 1 1 1 1 0 0 0 1 1 1 0 1 0 0 1 0 0 0 0 1 1 0 0 1 0 1 1 0 1 1 0 1 0 0 1 1 0 1 0 0 0 1 1 1 0 1 0 1 1 1 0 0 0 1 0 1 1 1 0 1 0 0 0 0 0 1 0 0 1 0 0 1 1 0 1 0 0 0 0 0 0 0 0 0 0 0 1 1 0 1 0 0 0 1 1 1 1 0 0 0 0 0 0 1 1 0 1 0 1 1 1 0 1 0 0 0 1 0 0 1 0 0 1 1 1 0 1 0 1 0 1 1 1 1 0 1 1 1 0 0 0 1 1 1 1 0 0 0 0 0 0 0 1 1 1 0 1 0 0 0 1 1 1 1 0 0 0 1 1 1 0 0 0 1 1 0 1 1 1 1 1 0 0 1 0 0 0 1 1 1 1 1 0 1 0 1 0 1 1 0 0 0 1 1 0 0 1 0 1 0 0 0 1 0 1 0 1 0 1 0 1 1 1 0 0 1 0 1 1 1 1 1 1 0 0 1 0 1 0 0 0 1 0 1 1 1 1 1 1 1 0 1 1 0 0 0 0 0 0 0 0 0 0 1 1 0 0 1 0 1 0 0 0 1 1 0 0 0 0 0 1 0 1 0 0 1 1 1 1 1 1 0 1 0 0 0 0 1 1 1 1 0 1 0 1 0 1 1 1 0 1 1 0 0 0 1 0 0 0 0 1 1 0 1 0 1 1 1 0 1 1 0 1 0 1 1 0 1 0 1 1 1 0 1 0 1 0 1 0 1 1 0 1 0 1 1 1 0 0 1 0 0 0 0 1 0 1 0 0 1 1 0 0 0 1 0 0 1 1 0 0 0 0 1 0 0 1 1 0 0 0 1 1 0 1 1 0 1 1 1 0 0 0 1 1 0 0 0 0 0 0 0 1 0 0 1 0 1 0 0 0 1 0 0 1 1 1 0 1 0 0 1 0 1 0 1 1 0 0 0 1 0 1 0 1 1 1 1 0 1 0 1 0 0 0 1 1 1 1 1 0 1 0 1 0 0 1 0 0 0 1 0 1 1 1 1 1 0 1 0 1 1 0 1 1 1 1 1 1 0 1 1 0 0 0 1 1 1 0 0 1 0 0 0 0 1 1 0 1 0 0 0 0 0 0 0 0 0 1 1 0 0 0 0 0 1 0 0 0 0 1 1 1 0 0 1 0 1 0 0 1 1 0 0 1 1 0 1 1 0 0 1 0 1 1 0 1 0 1 1 1 0 0 1 0 0 1 1 1 0 0 1 1 0 1 0 1 1 1 0 1 0 1 0 0 1 0 0 0 0 1 1 0 0 0 0 0 1 0 1 1 1 1 1 1 1 1 1 0 1 0 1 0 1 0 0 1 1 1 0 0 0 1 0 0 1 0 1 1 1 0 0 0 0 1 0 0 1 1 1 1 0 1 1 0 0 1 0 1 0 1 1 1 0 0 1 0 0 1 0 1 1 0 0 1 1 1 0 0 0 1 1 0 0 1 1 1 1 0 0 0 0 1 1 0 0 0 0 0 0 1 0 1 0 1 1 0 0 1 1 0 1 1 0 1 0 0 0 0 0 1 0 1 0 1 0 0 1 1 1 1 0 1 0 1 1 0 0 0 0 0 0 0 0 1 1 1 0 1 1 1 1 0 0 1 1 0 0 1 1 1 0 1 0 0 1 1 1 1 0 0 0 0 1 0 0 0 1 1 1 0 0 0 1 0 0 1 1 0 1 1 1 1 1 1 1 1 0 1 1 0 1 0 0 1 0 0 0 0 1 1 0 0 0 1 0 1 1 1 1 0 1 0 1 0 1 1 0 1 1 0 0 0 1 0 1 0 0 1 1 0 0 0 0 0 0 1 0 1 1 0 0 0 0 1 0 1 1 1 1 1 0 1 0 1 1 1 0 1 0 0 1 1 1 0 0 0 0 0 0 1 1 0 1 1 0 0 0 0 1 0 0 0 1 1 0 1 1 1 0 1 1 1 0 1 1 0 0 0 1 1 0 1 0 0 1 1 1 1 0 1 0 0 0 1 0 1 0 1 1 0 1 0 1 1 0 1 0 0 0 1 1 1 0 0 0 0 1 1 1 1 0 0 0 1 0 0 1 0 0 1 1 0 0 1 1 0 1 1 0 1 0 0 1 0 1 0 1 0 0 1 1 1 1 0 0 0 0 0 1 0 1 0 0 0 1 0 1 0 1 0 1 1 0 0 1 0 0 0 1 0 1 0 0 0 0 0 0 0 1 0 0 1 0 0 1 1 0 0 1 1 0 1 0 0 1 1 0 1 0 0 0 0 0 1 0 0 0 0 1 1 0 0 1 1 0 0 1 1 1 1 0 0 1 0 0 1 0 0 1 1 0 0 1 0 1 0 0 0 1 1 1 0 0 1 0 0 1 1 0 0 1 1 1 1 1 0 0 0 0 0 0 0 1 0 0 1 1 1 0 0 0 0 1 0 1 1 0 0 0 0 1 0 0 1 1 1 1 0 1 0 0 0 0 0 1 1 1 1 1 1 1 0 0 1 0 1 1 1 1 0 1 1 1 0 1 1 0 0 1 0 1 0 0 0 1 1 1 1 1 0 0 1 0 1 1 0 0 0 1 0 0 0 0 0 1 1 1 1 0 1 1 0 0 0 0 0 1 0 1 1 1 1 0 0 1 1 0 0 1 0 1 0 0 1 0 0 0 0 1 0 1 1 1 1 0 0 1 0 0 1 1 1 0 0 1 1 0 1 1 0 1 1 0 1 1 0 1 0 1 1 1 1 0 1 0 1 1 0 0 1 0 0 1 0 0 0 0 0 0 0 1 1 1 0 0 0 0 0 0 0 0 0 0 0 0 1 1 0 0 1 1 0 1 1 0 0 1 1 0 1 1 1 1 1 1 0 1 0 0 0 0 0 1 1 0 1 1 1 1 0 0 1 0 1 1 1 1 1 1 1 0 1 1 1 1 0 0 1 0 1 1 0 0 0 1 0 1 0 0 0 0 1 1 0 0 1 1 0 1 1 1 1 1 1 0 0 1 0 1 1 1 1 1 0 0 1 1 1 1 0 0 0 1 0 1 1 0 1 0 0 0 0 0 1 1 0 1 0 0 1 0 0 1 1 1 0 0 0 1 1 0 0 0 0 1 0 0 1 0 0 1 0 0 0 1 1 0 0 0 1 0 1 0 0 0 1 1 1 0 1 1 0 0 0 1 1 1 1 0 1 1 1 1 0 1 1 0 1 1 0 0 0 0 0 0 1 1 1 0 0 1 0 0 1 1 1 0 0 0 1 0 0 1 0 1 0 1 0 1 1 0 0 1 1 1 0 1 0 0 1 0 0 0 1 0 1 1 0 0 0 1 0 0 0 1 1 1 0 0 0 0 1 1 0 1 0 0 0 1 0 0 1 0 0 0 1 1 0 0 0 0 0 1 0 0 0 0 0 0 1 1 0 1 0 1 0 0 1 0 0 1 1 0 0 0 1 1 1 1 1 1 0 0 0 0 0 1 1 1 0 1 1 0 0 1 1 1 0 1 1 1 0 0 1 1 1 1 0 0 1 1 1 0 0 0 1 0 0 1 1 0 0 0 0 1 0 0 0 1 1 0 1 0 1 0 1 1 1 1 1 0 0 0 0 1 1 1 1 0 0 0 0 1 0 1 0 1 1 0 0 0 1 1 1 1 0 1 0 0 0 1 0 0 0 1 0 0 1 0 0 1 0 0 1 0 1 1 1 1 1 1 0 1 0 0 0 1 1 1 1 0 0 0 1 0 0 0 0 0 1 1 1 1 0 1 1 0 1 0 0 1 1 0 1 1 0 1 0 0 0 0 0 1 1 0 0 0 1 1 1 0 1 1 1 1 0 1 1 1 1 1 1 0 1 0 1 1 1 1 0 0 0 0 0 0 0 1 0 0 1 0 1 0 1 1 0 0 1 0 0 1 1 0 0 0 0 0 1 1 0 1 0 0 0 0 0 0 1 0 0 1 0 1 0 0 1 0 0 1 0 1 1 0 1 1 1 1 1 0 0 1 0 0 0 0 0 1 0 0 1 1 1 1 1 0 0 0 0 0 1 0 1 0 1 0 1 1 0 1 0 0 0 0 1 1 1 0 0 0 1 0 1 1 1 1 1 0 0 0 1 1 0 0 0 1 0 0 0 1 1 1 0 1 1 0 1 0 0 1 0 0 0 1 1 1 1 0 1 0 0 1 1 0 0 0 1 0 0 1 1 1 1 0 0 1 1 1 0 1 1 0 1 0 1 0 1 1 1 0 1 0 0 0 1 0 0 1 1 1 0 1 0 1 1 0 1 0 1 1 1 0 0 0 0 0 0 0 1 1 1 1 0 1 1 1 1 0 0 1 1 0 0 0 0 0 1 0 0 0 0 1 0 1 0 0 0 0 0 0 1 0 1 0 1 1 0 1 0 0 0 1 0 0 1 1 0 0 0 1 1 0 0 0 1 0 0 0 0 0 1 0 0 0 0 0 0 1 0 1 1 0 0 1 1 1 0 0 0 0 0 1 1 0 1 1 0 1 0 0 1 1 1 1 0 0 1 1 1 1 0 0 1 1 1 0 1 1 0 1 0 1 0 0 1 1 1 0 1 1 1 0 1 1 0 1 0 0 0 0 1 1 0 1 0 0 1 1 1 1 0 1 1 0 0 0 1 1 0 0 0 0 0 1 0 0 1 1 0 1 0 1 1 1 1 0 0 0 0 1 0 1 0 0 0 1 0 1 1 0 1 1 1 0 0 1 1 1 1 0 0 0 0 0 1 1 0 1 1 1 0 1 1 0 0 0 1 1 0 1 0 1 0 1 1 1 0 0 1 0 1 1 1 0 1 0 1 1 0 1 0 0 1 0 0 1 1 0 0 0 1 1 1 1 0 0 1 0 1 0 1 0 0 0 0 1 0 0 0 0 1 0 1 0 1 1 1 1 0 1 0 0 0 1 0 0 0 1 1 1 0 0 1 0 0 1 0 1 0 0 0 1 0 1 1 1 1 0 0 1 0 1 1 1 0 0 0 0 0 1 1 0 1 0 0 1 0 0 1 0 0 1 0 0 1 0 0 1 0 1 0 1 0 0 0 0 0 0 1 1 1 1 0 0 1 0 0 1 1 1 1 1 0 1 1 0 1 1 0 0 0 0 1 0 1 1 1 0 0 0 0 0 0 1 0 1 1 1 1 0 1 0 1 0 1 0 1 1 1 1 0 1 0 0 1 1 0 0 0 1 1 0 0 1 0 1 1 0 0 0 0 0 1 0 1 0 0 1 0 0 1 0 1 1 0 1 0 1 1 1 0 0 1 1 0 1 1 0 1 0 0 1 0 1 0 0 1 1 1 1 0 1 1 0 1 1 0 0 0 1 1 0 1 0 0 1 0 1 1 0 1 1 1 1 0 1 1 1 0 1 0 0 0 0 1 0 0 0 1 0 0 0 0 1 1 1 0 0 0 1 1 0 0 1 0 1 1 1 1 1 1 0 0 1 0 0 0 1 1 1 1 1 0 0 0 0 0 0 0 0 0 1 0 0 0 0 0 0 0 0 0 0 1 1 1 1 0 0 0 0 1 1 0 0 1 1 0 0 0 1 1 1 0 0 1 0 1 1 0 0 1 0 0 0 1 1 1 1 0 0 1 0 0 1 1 0 0 1 0 0 0 1 1 0 1 1 0 1 1 0 1 1 1 0 0 0 1 0 1 1 1 0 0 1 1 1 0 1 0 0 1 0 1 0 1 0 1 0 1 1 0 1 1 1 1 1 0 0 1 0 0 1 0 1 1 0 1 0 0 1 1 0 0 1 1 1 1 1 1 1 0 1 0 0 0 0 0 1 0 1 1 0 1 1 1 1 1 1 1 0 0 1 0 1 0 1 0 0 0 1 0 1 1 0 1 1 0 1 1 0 1 1 0 1 0 0 0 0 0 0 0 1 0 0 0 1 0 1 1 1 1 1 1 0 1 1 1 0 1 1 0 0 0 0 0 1 0 1 1 1 0 1 1 0 0 0 1 1 0 0 0 1 0 0 1 1 0 0 1 0 1 1 0 1 0 1 1 0 0 0 0 1 0 0 1 1 1 0 1 1 1 0 1 0 1 1 0 1 0 1 0 1 1 1 0 0 0 0 0 1 0 0 0 1 1 1 0 0 0 0 0 1 1 0 0 1 1 0 0 0 0 1 0 1 1 1 0 0 0 1 1 0 0 1 1 1 0 0 1 0 0 0 1 0 1 1 0 0 1 0 0 0 0 1 1 1 1 0 1 1 1 1 1 0 1 1 1 0 0 0 1 0 1 1 1 1 0 1 1 0 1 0 0 0 0 0 1 1 1 1 1 1 0 0 1 1 0 1 1 1 0 0 0 1 0 1 0 1 1 0 0 1 0 0 1 0 1 0 0 1 1 1 1 0 0 1 1 1 1 0 1 0 1 0 1 1 1 1 1 0 0 0 1 0 0 0 0 1 1 1 0 1 0 1 0 1 0 0 0 0 0 1 1 0 0 1 0 0 1 1 0 0 0 1 1 0 1 0 0 1 0 1 0 0 0 1 0 1 1 0 0 0 1 0 1 1 0 1 1 1 1 0 0 0 1 0 1 1 0 1 1 0 0 0 0 0 1 0 1 0 1 0 0 1 0 0 0 1 1 0 1 1 1 1 0 0 1 1 0 0 1 1 0 0 1 0 1 1 1 0 1 1 0 0 0 0 1 0 0 0 0 1 0 1 1 1 0 0 1 1 1 0 1 1 1 1 1 0 0 1 0 0 0 0 1 1 1 0 1 1 1 1 0 1 1 1 0 1 0 1 1 0 1 0 1 1 1 0 1 1 1 0 1 1 1 1 0 1 0 0 1 0 1 0 0 0 1 0 1 0 1 0 1 1 0 1 0 0 0 0 0 1 0 1 0 0 0 1 1 0 0 1 0 1 1 1 1 1 0 1 1 1 1 0 1 0 1 0 1 0 0 0 1 0 1 1 0 0 0 1 0 1 1 1 0 1 0 1 0 1 0 0 1 0 0 1 1 1 1 1 0 1 0 0 0 0 0 0 0 0 0 0 1 0 0 1 0 0 0 1 0 1 1 1 1 0 1 1 0 1 1 0 1 1 0 0 1 0 1 0 0 0 1 1 1 0 0 0 0 0 0 0 0 0 1 1 1 0 0 0 1 0 0 0 0 0 0 1 0 1 0 0 1 0 1 0 1 0 0 0 1 1 1 1 1 1 0 1 0 0 0 1 1 0 1 0 0 0 1 0 1 1 0 0 0 0 1 1 1 0 1 0 0 0 1 0 1 1 1 1 0 1 1 0 0 0 1 0 1 0 1 0 1 0 1 1 0 0 0 1 1 0 0 0 0 1 1 0 1 1 1 0 1 0 1 1 0 0 1 1 1 0 1 0 1 1 0 0 1 0 1 0 0 0 0 1 1 1 0 0 0 0 0 0 1 0 0 1 1 0 1 1 1 1 0 0 0 1 0 0 1 1 1 0 0 1 0 1 0 1 0 1 0 0 0 1 0 0 0 1 0 1 1 1 1 1 1 0 0 1 0 1 1 0 1 1 1 1 1 0 0 1 0 0 1 0 1 0 0 0 0 0 0 0 0 1 0 1 1 1 0 1 1 1 0 0 1 1 0 0 0 1 0 1 0 0 1 0 0 1 1 1 0 0 0 0 0 1 1 0 1 0 1 1 1 1 1 0 1 1 0 0 1 0 1 0 0 0 1 0 1 0 0 1 1 1 1 0 0 1 0 0 0 1 1 1 1 0 1 0 1 1 0 1 1 1 1 0 0 0 0 0 0 1 1 0 0 1 0 0 0 0 1 1 0 0 1 0 1 1 0 1 0 1 0 1 1 0 1 0 1 0 0 0 1 0 0 0 0 0 1 0 0 0 1 1 1 0 0 1 0 1 0 0 1 1 1 0 0 1 0 0 1 0 0 0 1 1 1 1 0 1 0 0 1 0 0 0 1 0 1 0 0 0 0 0 1 0 1 1 1 0 1 0 1 0 0 1 0 1 1 0 1 0 1 0 0 1 0 0 0 0 1 0 1 1 1 0 0 0 0 1 1 1 0 1 0 0 0 0 0 1 1 1 1 1 0 0 1 1 0 0 1 0 0 1 0 1 1 1 1 1 0 0 1 0 0 1 1 0 0 1 0 1 0 1 0 0 1 1 0 1 0 0 0 0 0 0 1 1 1 1 1 1 0 1 1 0 1 0 1 0 1 0 0 0 1 1 0 1 1 1 0 1 1 0 1 0 0 0 1 0 1 0 0 1 0 1 1 1 0 0 1 1 1 1 1 1 1 1 0 1 0 1 1 0 1 1 0 0 0 1 0 1 1 0 0 0 0 0 0 1 0 1 0 0 0 0 1 1 0 0 1 0 0 0 0 0 1 1 0 0 1 1 1 0 0 1 1 0 1 0 0 1 0 1 0 0 0 1 0 1 0 1 1 1 0 0 1 0 0 1 0 1 0 1 1 0 1 0 1 1 1 0 1 0 0 0 0 1 0 0 0 1 0 0 1 1 0 0 1 1 1 0 1 0 1 0 1 0 0 0 0 0 1 1 0 0 0 1 0 1 1 0 1 0 0 0 1 1 1 0 0 0 1 0 1 0 0 1 1 1 1 1 1 0 0 0 0 1 1 1 1 1 1 0 0 0 1 1 1 0 1 0 1 0 1 1 1 1 0 1 1 0 1 1 1 0 0 0 1 0 0 1 0 0 1 0 1 0 0 1 1 0 0 1 1 1 0 1 0 1 0 1 0 0 0 0 0 1 1 0 0 1 1 0 1 0 1 0 1 0 0 0 1 0 0 0 1 1 0 0 1 1 0 0 0 0 0 0 0 0 1 0 1 1 1 0 0 1 0 0 1 0 1 1 0 1 1 0 1 1 1 0 1 1 1 0 0 1 0 0 1 1 1 0 0 0 0 0 0 1 0 0 0 0 1 1 0 0 0 1 0 1 0 0 1 0 0 1 0 1 1 1 1 0 1 1 0 1 1 1 0 1 0 1 0 1 1 0 1 1 0 1 1 0 1 1 0 0 1 1 1 1 0 1 1 0 1 1 0 0 0 1 0 0 1 0 0 0 1 0 1 0 1 1 0 1 1 1 0 0 1 0 0 0 1 1 1 0 0 1 1 0 1 0 1 1 1 1 0 0 1 0 0 0 1 0 1 1 1 0 1 0 1 0 1 0 1 1 0 1 0 0 1 1 1 1 0 0 1 0 0 1 0 1 0 1 1 1 1 1 1 1 1 1 1 1 1 1 0 1 1 0 0 1 0 0 0 1 0 1 1 1 0 1 0 1 1 1 1 1 1 1 1 0 1 1 0 1 0 0 0 0 1 1 0 0 0 0 0 0 1 1 1 0 0 0 1 1 1 0 1 1 1 0 1 0 0 1 0 1 0 0 1 0 0 1 0 1 1 1 1 1 0 0 1 1 0 1 0 0 1 0 1 1 0 0 1 0 0 0 0 1 1 0 0 1 1 0 0 0 0 0 0 1 0 0 1 0 0 0 1 0 0 0 1 0 0 0 0 0 0 0 1 0 0 1 1 1 0 0 0 1 0 1 0 0 1 1 1 0 0 0 1 1 1 1 1 0 0 1 0 1 0 0 0 0 0 0 1 0 0 0 1 0 0 0 1 1 0 0 1 0 1 1 0 0 0 1 1 1 0 0 1 1 0 1 0 1 0 0 1 1 0 0 1 1 1 0 0 1 0 1 1 1 0 0 1 0 1 0 1 0 0 0 0 0 1 0 0 0 1 0 0 1 0 0 1 1 1 1 1 1 1 0 0 0 1 1 1 1 0 0 0 0 1 1 1 1 0 0 1 0 1 1 1 0 1 1 0 0 0 0 0 0 1 1 0 0 0 0 1 1 0 0 1 1 0 0 1 0 1 1 0 1 1 1 0 0 0 0 0 0 0 0 1 0 0 1 0 0 0 1 1 0 1 0 1 1 0 0 0 1 1 1 1 0 1 1 1 0 0 0 0 1 1 1 1 0 0 1 1 0 1 0 0 0 0 0 1 1 0 0 0 1 0 1 1 0 1 1 0 1 1 0 1 1 1 0 1 1 1 0 1 0 0 0 0 0 0 1 1 1 0 0 1 1 0 1 1 1 0 1 0 0 0 0 1 1 0 1 0 0 1 1 0 1 1 0 0 0 0 1 0 1 1 1 1 0 1 0 1 1 1 0 1 1 1 1 1 0 1 1 0 1 0 1 1 1 1 0 1 0 0 1 1 1 0 1 1 0 0 1 1 1 1 0 0 1 1 1 1 0 1 1 0 1 1 0 0 1 0 1 1 0 1 1 0 1 1 0 1 1 0 0 0 0 1 1 1 1 0 0 1 1 1 0 0 0 1 0 1 1 1 0 1 1 1 1 1 1 1 1 1 1 1 1 0 0 0 1 0 1 1 1 1 0 0 0 1 0 0 1 0 1 0 0 1 1 0 0 1 0 0 0 0 1 1 1 1 1 1 1 0 1 0 0 1 0 0 0 0 0 1 0 0 0 1 1 1 0 1 0 1 0 0 0 1 0 1 1 0 1 1 1 0 1 0 0 0 0 0 0 0 1 1 0 0 0 0 0 1 0 0 0 1 1 1 1 0 1 0 0 0 1 0 1 0 0 0 1 1 1 0 0 0 0 1 0 1 1 1 1 1 1 1 0 1 1 0 0 1 1 1 0 0 0 0 1 1 1 1 0 1 1 0 0 1 0 1 0 0 1 1 0 0 0 1 0 0 0 1 1 1 0 1 0 0 0 0 0 1 0 1 0 1 1 0 0 1 1 1 0 1 0 0 1 0 0 1 1 1 0 0 1 0 1 0 1 0 0 1 0 0 0 1 1 0 0 0 0 1 1 0 0 1 0 1 1 1 1 0 0 0 1 1 1 1 0 1 1 1 1 0 0 0 0 0 1 0 1 0 1 0 1 0 1 0 1 1 0 0 0 0 1 0 0 0 1 0 1 0 1 0 1 0 1 0 1 1 0 0 1 0 0 1 1 0 0 0 1 1 0 0 0 1 0 0 1 1 1 0 0 1 0 0 0 0 0 1 0 1 1 1 0 0 1 0 0 0 0 1 0 1 0 1 0 1 1 1 1 1 0 0 0 1 0 0 0 0 1 0 1 1 0 1 1 0 0 1 0 1 0 1 1 1 1 0 0 1 0 1 1 0 0 1 0 0 1 0 0 0 0 1 0 1 0 0 0 1 1 1 0 0 1 0 0 0 0 1 0 1 1 1 1 1 1 0 1 1 1 1 0 1 0 0 1 0 1 1 0 1 1 0 0 1 1 1 0 1 0 1 0 0 0 0 1 1 1 1 1 0 1 1 0 0 0 1 0 0 0 1 1 0 0 0 1 0 0 0 1 1 1 1 1 0 1 0 0 1 0 1 1 1 0 0 1 0 1 0 0 1 1 1 0 1 1 0 0 1 1 1 0 1 0 0 0 0 1 0 0 1 1 1 1 1 0 0 0 1 0 0 0 0 0 1 0 1 1 1 1 1 1 1 1 0 1 0 0 0 1 1 0 0 1 1 0 0 1 0 1 0 1 1 0 0 0 1 0 1 0 1 1 0 0 0 1 1 0 0 0 0 0 1 1 0 0 0 0 1 0 1 0 1 1 0 1 0 0 1 0 0 1 0 1 1 0 0 0 0 1 1 1 1 0 0 0 1 0 0 1 0 0 1 0 1 1 1 1 1 1 0 1 0 1 0 0 0 0 0 1 1 0 0 0 0 1 0 0 0 1 1 0 0 1 0 0 1 0 0 0 0 0 0 1 1 1 1 1 1 0 1 0 0 1 0 0 0 1 0 1 1 0 1 0 0 1 1 1 1 0 0 1 0 0 0 0 1 0 1 0 0 0 0 0 0 0 1 1 1 1 1 0 1 1 0 1 1 0 1 1 1 0 1 1 0 0 1 1 1 0 0 0 1 0 0 1 1 0 1 1 0 0 1 1 0 1 1 1 0 1 0 0 1 1 0 0 1 0 0 1 0 0 1 1 0 0 1 0 0 1 1 0 0 1 1 1 0 1 0 1 1 0 1 1 1 0 0 0 1 0 0 0 0 0 1 0 1 1 1 1 1 0 1 0 0 1 1 1 1 0 1 1 1 1 1 1 1 1 0 1 1 1 1 1 0 1 1 0 1 0 0 1 0 1 1 1 0 1 1 0 0 0 0 1 1 0 1 1 0 0 0 0 1 1 1 1 1 0 0 1 0 1 1 0 1 1 0 1 0 1 0 1 1 0 1 1 1 1 0 0 0 0 1 1 0 1 1 0 0 1 1 1 1 0 0 0 1 0 1 1 0 0 0 1 0 1 0 0 1 0 0 1 1 0 1 1 0 0 0 0 1 1 1 0 0 0 0 1 0 0 0 1 1 1 0 0 1 1 1 1 0 0 1 0 1 1 1 0 0 0 1 0 0 1 0 1 1 1 1 0 0 1 1 0 1 1 1 1 1 0 1 1 1 1 0 0 1 1 0 0 1 1 0 1 0 1 1 0 1 1 0 1 0 1 0 1 1 1 0 1 1 1 0 0 1 0 0 1 1 0 1 1 1 0 0 0 0 1 0 1 0 1 1 0 0 1 1 1 1 1 0 0 1 0 0 0 1 0 0 0 0 0 0 1 1 1 0 0 0 1 0 1 0 1 0 0 1 1 1 0 1 1 0 1 0 0 0 1 0 1 0 0 1 1 0 0 1 1 0 1 1 0 0 0 0 1 0 0 0 1 0 0 0 0 0 0 0 1 0 1 0 1 1 1 1 0 1 0 0 1 1 1 0 0 1 1 0 1 1 1 0 0 0 0 0 0 1 1 0 1 0 0 1 1 0 0 0 1 0 1 0 0 0 0 1 1 1 0 1 1 0 0 0 0 0 1 0 0 1 1 1 1 1 0 1 1 0 1 0 0 0 0 0 0 0 1 1 0 0 1 1 0 1 1 0 0 0 0 1 0 0 1 0 0 0 0 0 1 0 0 0 0 0 0 1 1 1 0 0 1 1 1 1 1 0 0 1 0 1 0 1 0 1 1 0 0 1 1 0 1 0 1 1 0 1 0 0 0 0 0 0 1 1 1 0 0 1 1 1 0 1 0 0 0 0 0 0 0 0 0 1 1 0 0 0 0 1 1 0 1 1 0 0 1 1 0 0 0 0 1 1 1 1 1 1 1 0 1 0 1 1 1 1 0 0 1 1 1 0 0 1 0 1 1 1 0 0 1 0 1 0 0 1 0 1 1 0 0 0 1 1 1 1 0 1 0 1 0 0 1 1 1 0 0 1 0 0 1 1 1 0 0 0 1 1 1 1 1 1 0 1 1 0 1 0 1 1 0 1 0 0 1 1 1 1 1 1 0 0 0 0 1 0 0 1 0 0 0 1 1 0 1 0 0 1 1 0 0 1 1 0 1 0 1 0 0 0 1 1 1 1 1 0 1 0 1 0 1 1 1 1 1 1 1 1 1 1 0 1 1 0 0 1 1 1 0 1 1 0 0 1 1 1 1 0 1 0 1 0 1 1 0 0 0 1 0 0 0 0 0 1 1 1 0 1 1 1 1 1 1 1 0 0 1 1 0 0 0 0 0 1 1 0 1 0 0 0 1 1 0 0 1 1 1 1 0 1 0 1 0 1 1 0 1 0 0 1 0 0 0 1 0 1 0 1 0 0 1 1 1 1 0 0 1 0 0 0 0 0 1 1 0 0 1 1 0 1 0 0 1 1 1 1 0 0 1 1 0 0 0 1 0 0 1 0 1 1 0 0 0 1 0 0 0 0 0 0 1 0 1 1 1 0 0 0 0 1 1 1 1 1 0 0 0 1 1 0 1 0 1 0 1 0 0 1 0 0 1 1 0 1 0 1 0 1 0 0 1 1 1 0 0 1 0 0 1 0 0 0 0 0 0 0 0 1 1 1 0 1 1 1 0 1 0 0 1 1 0 1 0 0 0 1 0 1 1 1 0 1 0 1 1 0 1 1 1 1 1 1 1 1 0 1 1 1 0 1 1 1 1 1 0 0 1 0 0 0 0 1 1 1 1 1 1 1 0 0 0 1 0 1 1 1 0 1 1 1 1 0 0 1 0 1 1 0 1 0 0 0 0 1 0 0 1 0 0 0 1 0 0 0 1 0 0 1 1 0 1 0 0 1 1 0 0 1 1 0 1 0 0 1 0 1 1 1 0 1 0 0 1 0 1 1 1 1 1 1 0 1 0 1 0 1 1 1 1 0 0 1 0 0 1 1 1 1 0 0 0 0 0 0 1 0 0 1 1 1 0 1 0 1 0 0 0 0 0 1 1 1 0 0 0 1 1 1 0 0 0 1 1 1 1 0 1 1 0 1 0 1 1 0 0 0 1 1 0 0 1 0 1 1 0 1 0 0 0 1 1 0 0 1 0 0 0 0 1 1 1 0 1 1 0 0 0 1 1 0 1 0 0 1 0 1 1 1 1 1 0 0 0 0 1 0 1 1 1 0 0 1 1 0 1 1 1 1 0 1 0 0 0 1 0 1 1 0 1 1 1 1 1 1 0 1 0 1 1 1 0 1 1 0 1 1 1 1 0 1 0 0 0 1 0 0 1 1 0 1 0 1 1 1 1 0 0 0 0 0 1 0 1 0 0 0 0 1 1 1 1 0 1 1 0 0 1 1 1 1 1 1 1 1 1 0 1 0 0 1 0 1 1 1 0 0 1 1 1 0 1 0 1 0 1 0 1 0 0 0 1 0 0 0 1 1 0 1 1 1 1 0 0 0 0 1 0 0 1 1 1 1 0 1 0 0 0 1 1 1 1 0 0 0 1 1 1 0 1 0 1 0 0 0 0 0 1 0 1 0 0 0 0 1 0 1 0 1 1 1 0 1 1 1 1 0 1 0 1 0 1 1 0 0 0 1 1 1 1 0 1 0 1 1 1 1 0 0 1 0 0 0 1 0 1 1 0 1 0 1 1 1 0 1 0 1 1 1 1 1 1 0 1 1 0 1 0 0 0 1 1 0 1 1 0 0 1 0 1 1 1 0 1 1 1 1 0 1 1 0 1 0 0 0 1 0 0 1 1 1 1 1 0 0 0 1 1 0 0 1 1 1 0 0 1 0 1 0 1 1 0 0 1 1 1 1 0 0 0 0 0 0 0 1 0 1 0 0 0 0 1 1 1 1 1 1 1 0 1 1 0 1 0 1 1 0 1 1 0 0 1 0 1 0 1 1 0 1 1 1 0 1 1 1 0 0 0 1 0 0 1 0 1 0 1 0 0 1 1 0 0 1 0 0 0 0 0 0 1 0 1 0 0 0 0 1 0 0 0 1 1 0 0 0 1 1 1 1 1 1 1 1 1 1 1 0 0 0 0 1 0 1 0 0 1 0 1 0 0 0 0 0 0 0 1 0 0 1 0 0 1 1 0 0 1 0 0 0 0 0 1 1 0 0 0 0 1 0 1 0 0 1 0 1 1 0 1 1 1 0 0 0 1 0 1 1 0 1 0 1 1 0 0 1 1 0 1 1 0 0 1 1 1 1 0 1 0 1 0 1 0 1 0 1 1 0 1 1 0 0 1 1 1 1 1 1 0 0 0 0 1 1 1 1 1 1 0 0 0 1 1 1 0 1 1 1 1 1 0 0 0 0 0 0 0 1 0 0 1 1 0 0 1 1 0 1 1 0 1 0 1 0 1 0 0 1 1 0 0 1 0 1 0 1 0 1 0 1 0 1 1 0 1 1 0 1 1 0 0 0 1 1 0 1 1 1 1 1 0 1 0 1 1 0 1 0 0 1 0 1 0 1 0 1 0 0 1 0 1 0 0 1 0 0 0 0 0 0 1 1 1 0 0 0 0 0 1 0 1 1 0 1 0 1 0 0 0 0 0 1 1 1 0 0 0 1 0 1 0 1 0 0 1 0 0 0 1 1 0 0 0 1 0 0 0 0 1 0 0 0 1 1 0 1 1 1 1 0 0 0 0 1 1 0 0 0 0 0 1 0 1 0 1 1 1 1 0 0 0 0 1 0 1 1 0 1 1 0 0 1 1 1 0 0 1 1 0 1 0 1 1 0 0 1 0 1 0 1 0 1 1 0 1 0 1 1 1 1 0 0 1 0 0 0 0 1 0 0 1 1 1 1 1 0 1 0 1 0 1 1 1 0 0 1 0 0 0 1 1 1 1 1 0 0 0 0 1 0 0 1 0 0 0 1 1 0 0 1 0 0 0 1 0 0 1 1 1 0 0 0 0 0 0 1 0 0 0 0 1 1 1 1 1 0 0 0 0 1 1 0 1 0 0 0 1 0 1 0 1 0 1 0 1 0 1 0 0 1 1 0 1 0 1 0 1 1 1 0 1 0 1 1 0 1 0 1 0 1 0 1 0 1 1 1 1 1 1 0 0 1 0 1 0 0 0 0 0 0 1 1 0 1 1 0 1 0 0 1 1 0 1 0 0 0 0 0 1 1 1 1 1 0 0 0 1 0 0 1 1 1 1 0 0 1 0 0 1 1 0 0 0 1 0 0 0 0 0 0 0 1 1 0 0 0 0 0 1 0 1 0 1 0 0 0 0 0 0 0 0 0 0 1 1 1 1 0 1 1 0 0 0 1 1 0 0 0 1 0 0 1 1 0 1 1 0 1 1 0 1 1 1 0 1 1 1 0 1 1 1 0 0 1 0 0 0 0 0 1 1 1 0 1 1 1 0 1 0 0 0 1 0 0 0 1 0 0 1 0 0 0 1 1 0 1 1 0 1 0 0 0 0 1 1 1 0 1 0 1 0 0 1 1 1 0 0 0 1 0 1 1 0 0 0 1 1 1 1 1 1 1 1 1 1 0 1 0 0 0 1 0 1 1 1 0 0 1 1 1 1 0 1 1 1 1 1 1 1 0 0 0 0 0 1 0 1 1 1 0 1 0 0 1 1 0 1 0 1 0 0 1 1 0 1 0 1 0 1 1 1 1 1 0 1 0 0 0 1 1 0 1 0 1 0 0 1 1 0 1 0 1 0 1 1 0 0 1 0 1 0 0 1 0 0 0 0 1 1 0 0 1 0 0 1 0 1 1 1 1 0 0 0 0 0 0 1 1 0 1 0 1 1 1 1 0 0 1 0 0 0 0 1 0 0 0 1 0 0 1 1 1 0 0 0 1 0 0 1 1 1 1 1 0 0 0 1 1 0 1 0 0 0 0 0 1 1 1 1 0 0 0 1 0 0 0 0 1 0 1 0 1 0 0 1 0 0 1 0 1 0 1 0 0 0 0 0 0 0 1 0 0 0 1 0 1 0 1 0 0 1 1 1 1 1 0 1 1 1 1 0 1 1 1 1 1 0 0 1 0 0 1 1 0 1 0 0 0 1 0 0 0 1 1 1 0 1 0 0 0 1 0 0 1 0 0 0 1 1 0 1 1 0 1 1 0 1 0 1 1 0 0 1 0 1 1 0 1 0 0 1 0 1 0 0 0 1 1 1 0 0 1 1 1 0 0 0 0 0 0 1 0 1 1 0 1 0 1 0 0 1 0 0 0 0 1 0 0 1 1 0 1 1 0 1 1 1 1 1 1 0 0 1 1 1 0 1 1 0 1 0 1 0 0 0 1 0 1 1 1 0 1 0 1 0 1 1 0 0 1 1 1 1 1 0 1 0 1 0 1 0 0 0 0 1 0 0 1 0 1 0 0 1 0 1 0 1 0 1 1 0 0 0 0 1 1 1 1 1 1 0 0 1 1 0 1 0 0 0 1 0 1 0 1 0 0 1 1 1 1 1 0 0 0 0 1 0 0 1 1 1 1 1 1 0 0 0 0 0 1 1 0 1 0 1 1 0 0 0 0 0 1 1 1 1 1 1 1 1 0 1 1 0 0 0 0 1 0 1 0 1 0 0 0 0 0 0 1 1 0 0 0 0 0 0 1 0 1 1 0 0 0 1 0 0 1 1 1 1 0 1 1 0 1 1 1 0 1 0 0 1 0 0 1 0 1 1 0 1 1 0 1 1 0 1 0 0 1 1 0 0 1 1 0 1 1 1 0 1 0 1 0 0 0 1 1 1 0 0 0 1 1 1 0 1 1 0 1 0 0 0 0 0 0 1 0 1 0 0 1 1 0 0 0 1 0 0 1 1 0 0 1 0 1 0 1 0 1 1 0 0 0 1 0 1 0 0 1 0 1 1 0 0 1 1 0 0 0 0 1 1 1 1 0 1 0 1 0 1 0 0 1 0 0 0 1 0 1 0 1 1 0 1 1 0 1 0 0 0 1 1 1 0 1 0 0 1 1 0 0 1 0 0 0 0 1 1 0 0 1 0 0 0 1 0 0 0 1 1 1 1 0 1 0 1 1 0 0 1 0 0 0 1 1 0 0 0 0 0 0 0 0 1 0 0 1 0 0 1 0 0 1 1 1 1 0 1 1 0 0 1 0 0 1 0 1 1 0 1 0 1 1 0 0 0 0 1 0 0 0 1 1 0 0 1 0 0 0 0 1 0 1 1 1 0 0 1 1 0 1 1 0 1 0 0 0 0 0 0 0 0 0 1 0 1 1 0 1 1 1 1 1 1 0 0 1 1 1 1 1 0 0 1 1 1 0 0 0 1 0 0 1 1 0 0 1 1 1 1 0 1 0 0 0 0 0 0 1 1 0 0 0 0 0 0 1 0 1 1 0 1 1 0 1 0 0 1 0 0 0 0 1 0 0 0 1 0 0 0 1 1 0 1 0 1 1 1 1 0 1 0 1 1 1 0 0 0 0 0 1 1 1 0 0 0 0 0 0 1 1 0 0 1 1 0 0 0 0 1 1 0 0 0 1 0 0 1 1 1 1 0 1 1 0 1 0 0 0 0 0 1 0 0 1 0 0 1 0 1 0 1 1 1 1 0 0 0 1 0 1 0 0 0 0 1 1 1 0 1 1 0 1 1 1 1 0 1 1 1 0 1 1 0 1 1 1 1 0 0 0 0 0 0 0 1 0 0 0 1 0 1 1 0 0 1 0 1 1 0 0 1 1 1 0 0 0 1 1 1 1 0 1 1 0 1 0 0 0 0 0 0 1 1 1 0 1 1 1 0 1 1 0 1 1 1 1 0 0 0 0 1 0 1 0 0 1 0 1 0 0 1 1 0 1 1 1 1 1 1 1 1 0 1 1 1 0 1 1 0 0 0 1 0 0 0 1 0 1 0 0 1 1 1 0 1 1 1 1 1 1 0 0 0 1 0 0 0 0 1 1 0 0 0 1 1 0 0 1 1 0 1 0 0 1 0 1 0 0 0 0 0 1 0 1 1 0 0 0 0 0 0 0 1 0 0 0 1 1 1 0 1 0 1 0 0 1 0 0 1 0 1 0 0 1 0 0 0 1 0 1 0 0 1 0 1 1 0 0 0 0 1 1 0 0 0 1 1 1 0 1 1 1 1 1 0 1 0 0 1 0 0 0 1 1 1 0 1 1 1 1 0 0 1 1 1 0 0 1 1 1 1 0 1 1 1 0 1 0 1 1 0 0 1 0 0 1 1 1 1 1 0 0 1 0 0 1 0 1 1 1 1 0 1 1 1 0 1 0 0 1 0 0 1 0 0 0 0 0 1 0 0 1 0 1 0 0 0 1 1 1 1 0 1 0 0 1 1 1 0 0 0 0 1 1 1 1 0 1 0 0 1 0 1 1 0 1 0 1 1 1 1 1 1 1 0 0 0 0 0 0 1 1 1 0 0 0 0 1 0 1 0 1 1 0 0 1 0 0 0 0 0 1 0 1 0 0 1 1 0 0 1 1 0 1 1 0 0 0 0 0 1 0 1 0 1 0 0 0 1 0 0 0 1 0 1 0 1 1 1 1 0 1 1 1 0 0 0 1 1 0 0 1 1 1 1 0 1 0 1 1 1 0 0 0 1 1 1 1 0 1 0 1 0 1 0 0 1 0 0 1 1 0 0 1 0 0 1 1 1 0 0 1 0 1 1 1 1 0 0 1 1 0 1 0 1 0 1 0 1 1 1 1 1 1 0 1 0 0 1 0 1 0 0 1 1 0 0 1 0 1 0 1 0 1 1 0 1 1 0 0 1 0 0 1 0 0 1 1 1 0 1 1 1 0 0 1 0 0 1 1 0 1 1 0 0 1 1 1 1 1 1 1 1 1 0 0 0 0 1 1 0 1 1 0 1 1 1 1 1 1 1 1 0 1 1 0 1 1 0 1 1 1 0 1 1 0 1 0 1 0 1 1 0 1 0 1 1 1 1 1 0 1 1 1 1 0 1 1 0 0 1 0 0 0 1 1 1 1 1 1 1 0 1 1 0 0 1 1 1 1 0 1 0 0 0 1 0 1 1 1 0 0 1 0 0 0 1 0 1 0 1 1 0 0 0 0 1 1 1 0 0 1 0 0 1 0 0 1 0 1 1 1 0 1 0 0 0 1 1 0 0 1 1 0 1 0 1 0 1 0 1 0 0 1 1 1 0 0 1 0 0 1 0 0 0 0 0 1 0 1 1 1 0 1 1 1 0 1 1 1 0 1 0 0 0 0 0 0 0 1 1 1 0 1 1 0 1 0 0 0 0 0 0 1 0 0 1 1 1 1 0 1 1 1 1 1 1 1 0 0 0 1 0 1 1 1 0 1 1 0 0 1 1 0 1 1 0 1 1 0 0 0 0 1 0 1 1 0 1 0 0 0 0 0 1 1 1 1 1 0 1 1 0 0 1 1 1 1 0 1 0 1 0 0 0 1 0 0 0 0 0 1 1 1 0 0 1 0 0 1 0 1 1 0 0 1 1 1 0 1 1 1 1 0 0 0 0 1 0 1 1 0 1 1 1 0 1 1 0 1 1 1 0 0 0 1 0 0 1 1 0 0 0 1 1 1 0 1 1 1 1 1 0 1 0 0 0 1 1 0 0 1 1 1 1 0 0 1 1 0 0 1 0 1 1 0 1 1 1 0 1 0 0 0 1 1 1 0 1 1 0 0 0 1 0 1 0 1 1 1 0 1 0 1 0 0 0 1 0 1 1 1 1 1 1 1 0 1 0 1 1 0 0 0 0 0 0 1 1 1 0 1 1 1 1 0 0 0 0 0 0 0 0 1 0 1 1 1 0 1 1 1 1 0 1 1 1 0 1 0 0 1 1 0 1 1 0 1 0 1 0 0 1 1 1 0 0 1 1 1 0 0 0 0 0 0 0 0 0 1 1 0 0 1 1 0 1 1 0 1 0 0 0 1 1 0 0 0 1 1 1 0 1 0 1 1 0 0 1 1 0 1 1 0 1 1 1 1 0 0 0 0 1 1 1 1 0 1 1 0 0 1 0 1 0 0 1 1 0 0 1 0 1 0 1 1 0 1 0 0 1 0 0 1 1 0 0 0 0 1 1 1 0 0 0 1 1 1 0 1 1 0 0 0 0 1 0 1 0 0 0 1 1 1 0 0 0 0 0 0 0 0 1 1 0 1 0 1 1 0 1 1 0 1 1 1 1 0 1 0 1 0 1 1 0 0 1 0 0 1 1 0 1 0 0 1 0 1 0 1 1 0 0 0 1 1 0 0 1 0 0 1 1 0 1 1 1 0 1 1 0 1 1 0 1 1 1 0 1 0 1 1 0 1 0 0 0 0 0 0 0 1 1 0 1 1 1 1 0 1 0 1 1 0 1 0 0 1 1 0 1 1 1 1 0 1 1 1 1 0 0 1 1 1 0 1 1 1 0 0 0 1 1 1 0 0 0 0 0 0 0 1 0 1 0 1 1 0 1 1 0 0 0 0 1 1 0 1 0 0 0 1 0 0 0 1 0 1 1 1 0 0 0 0 1 0 1 0 0 1 0 1 1 1 1 0 1 0 1 0 1 1 0 1 1 0 1 0 0 0 0 0 1 0 1 0 0 0 0 0 0 0 1 0 0 0 1 0 0 1 0 1 1 0 1 1 1 1 1 1 1 1 1 0 1 1 1 1 0 0 1 1 0 1 0 0 0 0 1 1 0 1 1 1 1 1 0 0 1 1 0 1 1 0 1 1 0 1 0 1 1 0 1 0 0 1 1 1 1 0 1 0 1 1 0 1 1 1 0 0 1 0 1 1 1 1 1 0 1 0 1 1 0 1 0 1 1 1 0 0 0 0 1 1 0 1 1 1 1 1 1 0 0 1 0 1 1 0 1 0 1 0 1 0 0 1 0 1 0 1 0 0 0 0 0 0 1 1 1 1 1 0 1 1 0 0 1 0 0 0 0 0 1 1 0 1 0 1 0 1 1 0 1 0 1 0 1 1 0 1 0 0 0 0 0 0 0 1 0 1 1 0 1 0 0 1 0 1 1 1 0 1 0 0 1 0 1 1 0 1 1 1 0 0 1 1 1 1 1 1 0 0 1 0 1 0 1 0 1 1 1 1 0 1 0 0 1 1 1 1 0 0 0 1 1 1 0 1 0 0 1 1 1 0 1 0 1 0 0 0 0 0 0 1 0 0 1 1 1 1 1 1 1 1 0 1 1 1 1 1 0 1 1 1 0 0 0 1 1 0 1 1 1 0 0 0 0 1 0 1 1 1 1 1 0 1 1 0 1 1 1 1 1 1 0 0 0 0 0 1 1 1 1 0 1 0 1 1 1 1 1 1 1 0 0 1 0 0 1 0 0 0 1 0 1 1 1 1 0 0 0 1 1 1 0 0 0 0 0 1 0 0 1 0 1 1 1 1 1 0 1 0 1 1 0 1 0 0 1 1 0 1 0 1 0 0 0 0 0 1 0 1 1 0 1 1 0 0 0 0 1 0 1 1 0 1 1 1 0 1 0 1 0 1 0 0 1 1 1 1 0 1 1 1 1 1 0 0 1 1 1 1 0 0 0 0 0 1 0 1 0 1 0 1 1 1 0 0 0 0 1 0 1 0 1 1 0 0 0 0 1 1 0 1 0 0 1 0 1 1 0 0 0 0 1 0 0 1 0 0 1 0 0 1 1 0 0 0 1 1 0 0 1 1 1 0 1 1 1 0 0 0 1 0 0 1 0 0 0 0 0 1 0 1 0 1 1 0 0 0 1 0 0 0 1 0 0 0 0 1 1 1 1 1 0 0 1 0 0 0 0 0 1 0 0 1 0 1 1 1 0 1 0 0 0 0 1 1 0 1 0 1 1 1 0 0 0 1 0 0 0 0 0 1 0 0 0 1 1 0 0 0 0 0 0 0 0 1 0 0 0 0 1 1 1 0 0 1 1 0 1 1 1 0 1 0 0 1 0 0 1 1 0 1 1 1 1 0 1 1 1 0 1 0 1 0 0 1 0 1 0 0 0 0 0 1 1 0 1 1 1 1 0 1 1 1 1 1 1 1 1 0 1 1 0 1 0 1 1 0 0 0 0 0 1 0 0 0 1 1 0 0 1 1 0 1 1 0 0 1 1 0 1 0 0 0 0 0 0 0 0 1 0 0 1 0 1 0 1 1 1 1 1 0 1 1 1 1 0 0 1 1 0 1 1 1 0 0 1 0 1 0 1 1 1 0 1 1 0 1 1 0 0 1 1 1 0 0 0 1 0 1 0 1 0 0 1 1 0 0 0 0 0 0 0 0 1 1 1 0 1 0 1 1 0 0 1 1 0 1 0 1 1 0 0 1 0 0 1 0 1 1 0 1 1 1 1 0 1 0 0 0 0 1 1 0 1 1 0 0 1 0 1 0 0 1 0 1 0 0 0 0 0 1 1 1 0 0 1 0 1 0 0 1 0 1 1 0 0 0 1 0 0 0 0 0 0 1 1 1 0 0 1 0 1 0 1 0 1 1 1 0 0 0 1 0 0 0 0 1 1 1 1 1 1 0 1 0 1 0 1 1 0 0 0 0 0 1 0 1 0 1 1 0 1 1 1 0 1 1 1 1 1 1 0 0 1 1 1 1 1 1 0 1 1 0 1 1 1 1 1 1 1 0 0 0 0 0 0 0 0 1 0 0 0 0 1 0 0 1 0 0 1 1 1 1 0 1 1 1 0 0 0 0 0 0 1 0 1 1 1 1 1 1 1 1 0 0 1 0 1 1 1 0 0 1 0 1 1 1 0 1 0 0 0 1 0 0 1 1 0 0 0 1 1 1 1 0 1 1 0 0 0 1 0 1 1 0 0 0 1 1 0 1 0 0 1 0 0 1 0 1 0 1 1 0 1 1 1 1 1 0 0 0 1 1 1 0 0 0 0 0 0 1 1 0 0 1 0 0 0 0 1 0 0 0 1 0 1 0 1 0 0 1 1 1 1 0 0 1 1 1 1 0 0 0 0 1 0 1 1 1 0 0 0 1 0 0 1 0 0 0 1 0 0 1 0 0 1 1 1 1 0 1 1 1 0 0 1 1 0 0 0 0 1 0 0 0 1 1 1 1 0 1 1 1 1 1 0 0 0 0 0 0 1 1 0 1 0 1 1 0 1 0 1 1 0 1 1 0 0 1 0 1 1 1 1 0 1 1 0 0 0 1 1 1 1 0 1 0 1 1 1 0 1 1 1 0 1 0 1 0 0 1 0 1 0 0 1 0 0 0 0 1 1 1 0 0 0 0 1 0 1 1 1 1 0 0 1 0 0 1 1 0 0 1 0 1 0 1 0 1 1 0 0 1 0 1 0 0 0 1 1 0 0 0 0 1 0 1 0 1 1 0 1 0 0 0 0 0 0 0 0 1 1 1 0 1 1 0 0 1 0 0 0 0 1 0 0 1 1 1 0 1 1 1 0 0 1 0 1 1 1 1 0 0 0 0 1 0 1 0 0 1 0 1 0 0 0 1 1 1 1 1 1 0 1 0 1 0 1 0 0 1 0 1 1 1 0 0 1 1 1 0 0 0 0 0 0 0 1 1 0 0 1 0 0 0 0 1 0 0 1 0 1 1 1 0 0 1 1 0 1 0 0 0 0 0 1 0 0 1 0 1 0 1 1 0 0 1 0 0 1 1 0 0 1 0 0 0 0 0 0 1 1 1 0 0 1 0 1 1 0 1 1 1 0 0 1 1 0 0 0 1 0 1 1 0 0 0 0 1 0 0 0 0 0 0 1 1 0 1 0 1 1 0 1 1 1 1 0 1 0 1 1 1 0 0 0 0 1 1 1 1 1 0 1 1 0 0 0 0 0 0 0 0 1 1 1 1 0 1 0 1 1 0 0 0 0 0 0 1 1 1 1 1 1 1 0 0 1 0 1 0 1 0 1 0 0 1 1 1 0 0 1 1 1 0 0 1 1 0 1 1 0 1 1 1 1 1 0 0 1 1 1 1 0 0 0 0 0 1 1 0 1 0 1 0 1 1 0 1 1 1 1 1 0 1 0 0 1 1 1 0 1 0 0 0 0 0 1 1 1 1 0 0 1 1 1 1 0 0 1 1 1 1 1 0 0 0 0 0 1 1 1 1 1 0 1 0 0 1 0 1 0 1 0 0 0 1 0 1 0 1 0 1 1 0 0 0 1 0 0 0 0 0 1 0 0 1 1 0 0 0 0 0 0 0 0 0 1 1 1 0 1 1 0 0 1 1 0 0 1 1 0 1 1 0 1 1 0 1 0 0 1 0 0 0 0 0 1 0 0 1 0 0 0 1 0 0 0 0 0 0 1 0 1 0 1 1 0 0 1 1 0 1 0 0 1 1 0 1 0 1 0 1 1 0 0 0 0 1 0 0 0 0 1 0 1 1 0 1 1 1 1 0 1 1 1 0 0 0 0 0 1 1 0 0 1 0 1 1 0 1 1 1 0 0 1 1 1 1 1 1 0 1 0 1 0 1 1 0 1 1 1 0 1 0 0 0 0 0 1 1 1 1 1 0 1 0 1 0 1 0 1 1 1 0 1 0 0 1 1 1 0 1 0 1 1 1 1 0 0 0 1 0 1 1 0 0 0 0 0 1 1 0 0 0 1 1 1 1 1 0 1 1 1 1 1 1 1 1 1 0 1 1 0 0 0 1 0 0 1 0 1 0 0 1 1 0 0 1 1 0 0 1 0 1 0 1 1 1 1 0 1 1 1 0 1 0 1 0 0 0 1 1 1 1 0 0 0 0 1 0 1 0 0 0 1 0 1 0 0 0 1 0 0 1 0 1 0 1 0 0 1 1 1 0 1 1 0 1 1 1 1 0 1 1 0 1 0 0 1 0 1 0 0 1 1 0 0 1 1 0 0 0 0 0 0 0 1 0 1 1 0 1 1 1 0 1 0 1 0 0 0 0 1 1 0 1 1 0 1 1 0 0 1 0 1 1 0 0 0 0 1 1 1 1 0 0 1 0 1 0 0 0 0 0 0 0 1 0 0 1 0 1 1 0 1 0 0 1 1 0 0 1 1 0 0 0 1 1 1 1 1 0 0 0 0 1 1 1 0 0 1 1 1 1 1 0 0 1 0 1 1 1 1 1 0 0 1 0 0 0 1 0 0 0 1 1 0 0 1 0 1 1 0 1 0 1 1 0 1 0 1 0 1 0 0 1 1 1 0 0 1 1 1 0 0 1 0 1 1 1 1 1 0 0 1 1 1 1 0 0 1 1 1 1 1 0 0 0 0 0 1 1 0 0 0 1 1 0 0 1 1 1 0 1 1 1 1 0 1 0 0 1 1 0 0 0 0 1 1 0 0 0 1 1 0 1 0 1 1 0 0 0 0 0 0 1 1 0 0 0 1 1 1 0 1 1 0 1 0 0 1 1 1 1 1 1 0 1 1 1 0 1 0 1 1 0 1 0 0 0 0 1 0 0 0 1 1 0 0 1 0 1 0 1 1 1 0 1 1 0 1 1 1 1 0 0 1 1 0 1 0 1 0 1 0 1 0 1 0 1 0 1 1 0 1 1 1 0 1 0 1 1 0 1 0 0 1 1 1 0 0 0 0 0 0 1 0 0 1 0 1 1 0 0 0 0 1 1 1 1 0 1 0 0 0 0 0 1 0 1 1 0 0 0 0 0 0 0 1 1 0 1 0 1 0 0 0 1 1 1 0 1 0 1 1 1 1 1 0 0 0 0 1 1 0 0 0 0 0 0 1 0 0 1 1 0 0 0 0 1 1 0 0 1 1 1 0 0 0 0 1 1 1 1 1 0 0 1 0 0 1 1 0 0 1 0 0 0 0 0 0 0 0 0 0 0 0 1 0 1 1 0 1 1 1 1 1 1 0 0 0 0 0 0 0 0 0 1 1 1 0 0 0 0 0 0 0 0 0 0 0 1 0 1 0 1 0 1 0 0 1 0 1 0 0 0 1 1 0 0 0 1 1 0 1 0 1 1 0 1 1 1 0 0 0 0 0 0 0 1 0 0 0 1 0 0 1 1 1 0 0 1 0 1 0 1 1 1 0 0 1 1 0 0 0 1 1 1 0 1 1 0 0 1 1 0 0 1 0 0 0 1 1 0 1 1 0 0 0 1 0 0 0 1 1 0 1 0 1 0 1 0 1 0 1 1 0 1 1 1 1 0 1 1 1 0 0 1 0 1 0 0 0 1 0 1 1 1 1 1 0 1 1 0 1 1 1 0 1 1 1 1 0 0 0 1 1 0 0 0 0 1 1 1 0 0 1 0 1 1 0 1 1 0 0 0 1 0 1 1 1 1 1 1 1 1 0 0 0 0 0 1 1 1 1 0 0 0 0 0 0 1 0 0 0 0 1 1 1 0 1 0 1 0 1 1 0 1 0 0 0 0 1 0 1 1 0 1 1 0 0 0 1 0 0 1 0 0 1 1 0 1 1 1 1 0 0 1 0 0 0 1 1 1 0 1 1 0 1 0 0 0 1 0 0 0 1 1 0 1 0 1 0 0 0 1 1 0 0 1 0 1 0 1 1 1 1 1 0 0 1 1 0 0 0 0 1 0 0 0 1 1 0 1 1 1 0 1 1 0 1 1 0 1 1 0 1 0 1 1 0 0 1 0 0 1 0 1 1 0 1 1 0 0 1 1 0 0 1 1 1 1 0 0 1 0 1 1 0 1 0 1 0 1 1 1 1 1 0 1 1 0 1 0 1 1 0 1 0 0 1 0 1 0 1 1 0 0 0 0 0 1 1 1 0 0 1 1 0 1 1 1 0 0 0 0 0 1 0 1 1 1 0 0 0 0 1 1 1 0 1 1 1 1 1 0 1 0 0 0 0 1 1 1 0 0 1 0 1 0 0 1 0 0 0 0 0 0 1 0 0 1 1 0 0 1 0 1 1 1 0 0 0 0 1 0 1 1 1 1 0 1 1 1 1 0 1 0 1 0 0 0 1 1 0 0 1 0 0 1 0 0 0 1 1 0 1 0 0 1 1 1 0 0 0 0 1 0 0 0 0 0 0 0 0 0 0 1 0 0 1 1 0 1 1 0 1 1 0 1 1 1 0 1 1 0 0 1 0 0 0 0 0 1 1 0 1 1 0 1 1 1 0 1 0 0 1 1 0 1 0 1 0 0 0 0 1 1 0 0 0 1 1 0 1 1 0 1 1 0 0 0 1 0 1 0 1 1 1 0 0 1 0 1 0 0 0 1 1 0 1 1 1 0 1 0 0 1 0 1 0 0 0 0 0 1 0 1 0 1 0 1 0 0 1 0 0 0 1 1 1 0 0 1 1 0 1 1 0 1 0 0 1 0 0 1 0 0 1 0 0 1 0 0 0 1 1 0 1 1 0 0 1 0 0 1 0 0 0 1 0 1 1 1 1 0 1 0 1 0 0 0 0 0 1 0 1 1 0 1 0 1 1 1 1 1 0 1 0 0 0 0 0 0 1 0 0 0 1 1 1 0 1 0 1 0 1 1 1 1 0 0 0 1 0 0 0 1 0 0 0 0 0 1 1 0 0 1 0 0 0 0 0 0 0 0 0 1 1 0 0 0 1 1 0 1 1 1 1 1 0 1 1 1 1 1 1 1 0 1 0 1 1 1 1 0 0 1 1 0 1 1 1 0 1 1 1 0 0 1 0 0 1 1 1 0 0 0 0 0 1 1 1 1 1 0 0 0 0 0 0 1 0 0 0 1 0 0 1 1 0 1 0 0 1 1 0 1 1 1 1 1 0 1 1 1 0 1 0 1 0 0 1 0 1 1 0 1 1 1 1 0 0 1 1 0 0 0 1 0 0 0 1 1 0 0 0 1 1 0 0 1 1 0 1 0 1 1 0 1 0 0 0 1 0 1 1 0 0 0 1 0 0 1 0 0 0 1 1 0 1 0 1 1 1 1 1 1 1 1 1 0 1 1 0 0 1 0 1 0 1 1 1 0 1 0 0 1 1 0 0 1 1 0 0 0 0 1 0 0 1 0 0 1 0 0 0 0 0 0 0 0 1 0 1 1 1 0 0 0 1 0 1 0 1 1 1 1 1 0 0 1 1 0 1 1 1 1 1 0 0 1 1 0 0 1 1 1 1 0 1 0 0 0 1 0 0 0 1 0 0 1 1 1 1 0 0 0 1 0 1 1 0 1 0 0 0 0 1 0 1 0 0 1 0 0 1 0 0 1 1 0 0 0 0 1 0 0 0 1 1 1 0 1 0 1 1 0 0 0 1 1 0 1 1 0 1 1 1 0 0 0 1 0 0 0 0 0 1 1 0 1 0 1 0 0 1 0 1 1 0 0 1 0 0 1 0 1 1 1 0 0 0 0 0 0 0 0 0 1 0 0 1 0 1 1 1 1 1 0 1 1 0 1 1 1 1 1 0 0 0 0 0 0 0 0 0 1 1 0 1 0 1 0 1 0 0 1 0 0 1 1 1 0 0 0 1 1 0 1 1 1 0 0 0 0 0 1 0 1 1 0 1 1 0 1 1 0 1 1 0 0 0 1 0 1 1 0 1 0 0 1 0 0 1 0 1 1 1 0 1 1 1 0 0 0 1 0 1 0 1 0 0 1 1 1 1 0 1 0 0 0 0 1 1 1 0 0 1 0 1 0 0 0 0 1 0 0 1 0 1 1 0 1 0 0 1 1 0 0 1 1 0 1 1 1 0 0 1 0 1 0 1 0 0 0 0 0 0 1 0 1 0 0 1 1 1 0 1 0 1 1 1 1 1 0 1 0 1 1 1 0 0 0 0 0 1 1 0 0 0 0 1 0 1 1 0 1 1 0 1 0 1 0 1 1 0 1 0 1 1 0 0 1 0 0 0 0 0 1 0 1 1 1 0 0 1 0 1 0 0 1 1 1 1 1 0 0 1 0 1 0 0 1 0 1 1 1 1 1 0 1 1 0 1 1 0 0 0 1 0 1 1 0 1 0 1 1 0 1 1 1 1 0 1 1 1 1 1 0 0 1 1 1 1 0 0 0 0 1 1 1 1 1 1 1 0 0 0 1 0 0 1 0 0 0 0 0 0 0 1 0 0 0 0 0 0 0 1 0 1 0 0 1 0 1 0 0 1 1 1 1 1 1 0 0 0 0 0 0 1 0 1 0 0 1 1 0 0 0 0 1 0 1 0 0 0 0 1 1 1 1 1 0 1 0 0 1 0 1 1 0 1 0 1 1 1 1 0 0 1 1 0 1 1 1 1 0 0 1 1 1 1 0 1 1 1 1 1 0 1 1 0 1 0 0 1 1 0 1 0 0 0 1 1 0 0 1 1 1 1 0 1 1 0 0 1 1 0 1 1 1 1 1 0 1 1 1 1 1 0 1 0 1 0 0 0 1 0 1 1 0 0 1 0 0 1 0 0 0 0 0 0 0 1 1 1 0 0 1 0 1 0 1 1 1 1 1 0 1 0 0 1 0 0 0 0 1 0 1 1 1 0 0 0 1 0 0 0 1 1 0 0 0 1 1 0 0 0 1 1 0 0 1 0 1 0 0 0 1 1 0 1 0 1 0 1 1 1 0 1 1 0 0 1 1 0 0 0 1 0 0 1 1 0 0 1 0 0 1 1 1 0 1 0 1 1 1 0 0 1 0 0 1 0 1 1 0 0 0 1 0 0 1 0 0 1 1 0 0 0 0 0 1 0 0 1 0 1 0 1 1 1 1 0 0 1 0 1 0 0 1 0 1 1 1 0 0 1 0 0 1 0 0 1 0 1 0 0 0 0 0 0 1 1 1 1 0 1 1 1 1 1 1 0 1 0 0 1 0 1 0 0 1 1 1 0 1 0 1 1 0 1 0 1 0 0 0 1 0 1 1 0 1 0 0 0 0 1 0 1 1 0 0 1 1 1 0 0 1 1 1 0 1 0 0 1 0 0 1 1 1 0 1 0 0 1 1 1 1 1 0 1 0 0 1 0 0 0 0 1 0 1 1 0 1 1 0 1 1 1 0 0 0 1 1 1 0 1 1 1 0 1 0 0 0 0 0 1 1 0 1 0 1 1 0 0 0 0 0 0 1 1 1 0 1 1 1 1 0 1 1 1 0 0 1 1 1 1 1 0 0 1 1 0 1 0 0 1 1 1 1 1 1 0 1 1 0 1 0 0 1 0 0 1 1 0 0 1 0 1 1 0 0 1 0 0 1 1 0 1 1 0 0 1 0 1 0 0 0 0 1 0 0 0 1 1 1 1 1 1 0 0 1 1 0 1 0 0 1 1 0 1 1 0 0 1 1 0 1 1 0 1 0 1 0 0 0 0 0 0 0 0 1 1 1 1 0 0 1 1 0 1 0 1 0 0 1 1 0 1 0 1 0 1 0 1 1 0 0 0 1 1 0 1 0 1 1 1 1 1 1 1 0 1 1 0 0 1 0 1 1 1 0 0 1 0 1 1 0 0 0 1 1 0 1 1 1 0 0 1 0 0 1 0 1 0 1 0 0 0 0 0 1 0 0 0 0 0 0 0 1 1 0 0 0 1 1 0 1 0 0 1 0 1 0 0 1 0 1 1 1 1 1 0 1 1 1 0 1 1 1 1 0 0 0 1 1 0 0 0 0 0 1 1 1 0 0 1 1 0 1 0 1 1 1 0 1 1 0 0 0 0 0 1 1 1 1 0 1 1 0 0 1 0 0 1 0 0 1 0 1 1 0 1 0 1 0 0 1 0 0 0 0 1 1 0 1 0 1 0 0 1 1 1 0 1 0 1 1 1 1 0 1 1 1 1 0 0 1 1 0 0 1 0 0 0 0 1 0 0 0 1 1 0 0 0 1 1 1 1 1 1 1 0 1 1 0 1 0 1 1 1 0 0 1 0 0 0 1 1 0 0 1 0 1 0 1 0 1 0 0 1 1 1 1 1 0 0 1 1 1 0 1 0 1 0 1 0 0 0 1 0 0 1 0 1 0 1 1 0 1 1 0 1 1 1 1 1 1 1 1 0 0 0 0 0 0 0 1 0 0 0 1 1 0 0 1 1 0 1 1 1 1 1 1 1 1 1 0 1 0 1 0 1 0 1 1 0 1 1 1 1 0 0 0 0 1 0 1 1 0 0 0 1 1 0 0 1 1 0 0 0 1 1 1 1 1 1 1 0 1 1 1 1 1 1 1 1 0 0 0 0 0 1 0 1 1 0 1 0 0 1 0 0 0 0 0 0 1 1 1 1 0 1 1 1 0 1 0 1 1 1 0 1 1 1 1 1 0 0 0 0 0 0 1 0 0 0 1 0 1 1 1 1 0 1 1 0 1 0 1 0 1 0 1 1 1 1 0 1 1 1 1 1 1 1 1 0 1 1 0 1 0 0 1 0 1 1 1 1 0 0 1 1 1 1 1 1 1 1 1 0 0 0 1 1 0 1 1 0 1 1 1 1 1 0 0 0 0 1 0 1 1 1 0 1 0 1 0 1 1 0 1 1 1 1 1 1 0 1 0 0 1 1 0 0 0 1 0 0 1 1 0 1 1 1 1 0 1 0 1 0 1 1 0 0 0 0 1 0 0 0 0 1 0 1 0 0 1 1 1 0 0 1 0 0 0 1 1 0 0 1 1 0 0 1 1 1 1 0 0 0 1 0 0 0 1 0 0 0 1 0 0 0 0 1 1 0 0 1 1 1 1 1 0 0 0 1 1 1 1 1 0 1 0 1 1 1 1 1 0 1 1 0 0 1 0 0 1 0 0 0 1 0 1 0 0 0 0 0 1 0 1 1 1 1 1 1 1 0 0 0 1 1 1 1 1 1 0 0 1 1 0 1 1 0 1 0 1 0 0 1 0 1 0 1 0 0 0 1 0 1 0 0 1 0 0 1 0 1 0 0 0 0 1 1 1 1 1 1 0 0 1 0 1 1 0 0 1 1 1 1 0 1 1 0 0 0 0 0 1 1 1 0 1 0 1 1 0 0 1 0 1 1 1 0 1 0 0 0 1 1 0 0 0 0 1 0 1 1 1 0 1 1 0 0 0 0 0 1 1 1 1 0 0 0 0 0 0 1 0 0 1 0 0 0 1 1 0 0 1 1 0 0 1 0 1 0 1 0 0 0 1 1 1 1 0 1 0 0 0 1 0 0 0 0 0 1 1 0 0 0 0 1 0 0 1 0 1 1 0 0 1 0 0 1 0 0 1 0 1 1 0 1 0 1 0 1 1 1 1 0 0 1 1 1 0 0 1 1 1 0 1 1 1 1 0 0 0 1 1 1 1 0 0 1 1 1 0 1 0 0 0 0 1 1 0 0 0 1 1 1 1 1 0 0 1 1 0 1 0 1 1 0 0 1 1 0 1 0 0 1 1 0 0 0 0 1 1 0 1 0 0 1 0 1 0 0 1 0 1 0 1 1 0 1 0 0 0 0 0 1 0 1 0 0 0 1 1 0 0 0 0 0 1 0 0 1 1 1 0 1 1 1 1 0 0 0 0 0 0 0 0 1 0 1 1 0 0 0 1 0 0 0 0 0 1 1 0 0 0 0 1 0 1 0 1 0 0 0 1 1 1 0 0 0 0 1 0 1 0 0 0 1 1 0 0 1 1 1 1 1 1 1 0 1 1 1 0 1 1 0 1 0 0 1 1 0 0 1 0 0 0 0 1 0 1 0 1 1 1 0 0 0 0 0 0 0 0 0 0 0 1 0 1 0 1 0 0 1 0 0 1 1 1 0 0 0 0 1 0 0 1 1 0 0 1 0 1 1 0 1 0 0 1 0 1 0 1 1 1 0 0 1 0 1 0 0 0 1 0 0 1 0 1 1 0 0 1 0 0 0 1 1 1 1 0 1 0 1 0 0 1 0 0 0 1 0 1 1 1 1 1 1 1 1 0 0 1 0 0 1 0 0 1 1 1 0 0 1 0 1 0 0 1 1 0 0 0 1 0 0 1 0 0 1 0 0 1 1 1 1 1 0 1 1 1 1 0 0 1 0 1 0 1 1 0 1 0 1 0 0 1 0 0 1 0 1 1 1 0 1 0 1 1 1 0 1 0 0 1 1 0 1 1 0 1 1 0 1 1 0 0 1 1 0 0 0 0 1 1 1 1 0 0 1 0 0 0 1 0 1 1 1 1 1 1 1 1 1 0 1 0 1 0 0 1 0 0 1 0 1 0 0 1 0 1 0 1 0 1 0 0 0 0 0 0 0 0 0 0 1 1 0 1 1 0 0 1 0 0 0 1 1 0 1 1 0 0 0 0 1 0 1 0 0 0 0 0 1 1 1 0 1 1 0 0 1 1 1 1 0 0 1 1 1 1 1 0 1 1 1 0 0 1 0 0 1 1 1 0 1 0 0 0 1 0 1 0 0 1 0 1 1 0 1 0 0 0 1 1 0 1 0 0 0 1 0 1 0 0 0 0 1 0 1 1 0 1 0 1 0 1 1 1 1 1 1 0 1 1 1 1 1 0 0 1 0 1 0 1 0 0 1 0 1 1 1 1 0 0 1 1 1 0 0 1 1 1 1 0 0 1 0 1 1 1 1 1 0 0 1 1 0 1 1 0 0 1 0 0 1 0 0 1 1 1 1 0 0 0 0 0 1 1 1 1 1 0 1 0 0 0 0 0 1 1 1 0 1 0 1 1 0 0 1 1 0 1 1 0 1 1 1 0 0 0 0 1 0 1 1 0 1 1 0 1 1 0 0 0 0 0 1 0 1 1 1 0 0 1 0 1 1 0 1 0 1 0 1 1 1 0 0 0 0 1 0 1 1 1 1 0 1 0 0 0 0 0 0 1 1 1 0 1 1 0 1 0 0 0 1 0 1 1 1 0 0 1 0 1 0 0 0 0 0 1 0 0 1 0 0 0 0 0 0 0 1 1 1 0 0 1 0 1 0 0 1 1 0 0 1 0 1 1 1 0 1 1 0 0 1 0 0 0 0 0 1 0 0 1 1 0 0 0 0 1 0 0 0 0 1 0 1 0 0 1 0 0 0 0 1 1 1 1 0 1 0 0 0 1 1 1 0 0 1 1 1 1 1 1 1 1 0 0 0 1 1 0 0 1 0 1 1 1 1 1 0 1 1 0 0 0 0 0 0 1 0 1 0 0 1 0 0 1 1 0 1 0 1 1 0 0 0 1 1 0 1 1 1 0 1 0 1 0 0 0 0 1 0 1 1 0 0 0 0 0 1 0 0 0 0 0 1 1 1 1 0 1 0 0 0 1 0 0 0 1 1 0 1 1 0 1 1 0 1 1 0 0 1 1 1 1 1 1 1 0 1 0 0 0 0 1 1 0 1 1 0 0 1 0 0 1 0 0 1 0 0 1 1 0 1 0 0 0 1 0 0 0 1 0 1 1 1 1 1 0 1 1 0 1 0 0 0 0 1 1 0 0 0 0 0 0 0 0 0 0 1 0 1 0 1 1 1 1 0 0 1 1 1 1 1 0 0 0 0 0 1 1 1 0 0 0 0 1 0 0 0 1 1 0 0 0 0 0 1 0 0 1 1 1 1 0 0 0 0 1 0 1 1 0 0 0 1 1 0 0 1 0 0 0 1 0 0 1 1 0 1 1 0 0 1 0 0 1 1 0 0 1 1 1 1 0 1 1 1 1 1 0 1 0 1 0 0 0 1 1 0 1 1 1 0 1 1 0 0 0 0 1 0 1 0 0 1 1 0 1 1 1 0 1 0 0 1 0 0 1 1 1 1 0 1 0 0 0 0 1 0 1 0 0 1 1 1 0 1 1 0 0 1 1 0 0 0 0 1 1 0 1 1 1 0 1 0 0 1 1 0 0 0 1 0 1 0 0 0 0 0 0 0 0 0 0 1 0 0 1 1 0 1 1 1 0 0 1 1 1 1 1 0 1 0 1 0 1 0 0 0 0 0 1 0 1 1 1 0 0 0 0 1 0 0 1 1 0 1 0 1 1 0 0 0 0 0 0 0 0 1 0 1 0 0 1 1 0 0 1 1 1 0 0 1 1 0 0 0 1 1 0 0 0 1 1 1 0 0 0 1 1 0 0 0 0 0 0 0 1 1 0 1 1 1 1 0 1 1 1 1 1 0 0 0 1 0 0 0 0 1 1 1 0 1 1 0 0 0 0 0 0 1 0 1 0 1 0 1 1 1 0 1 1 1 0 1 1 1 1 1 0 0 1 0 1 1 0 1 1 1 0 0 0 1 1 1 1 1 1 1 0 1 1 1 1 0 0 1 1 0 0 0 0 0 0 0 1 0 1 0 0 0 0 0 0 1 0 1 1 1 0 0 1 0 0 0 0 1 0 1 1 1 0 1 0 1 0 1 1 0 1 0 1 1 1 0 1 1 0 1 0 1 0 1 0 1 0 1 1 0 0 0 0 0 0 0 0 1 1 1 0 1 0 0 1 1 1 0 1 1 0 1 0 0 0 1 1 1 0 1 0 0 0 1 0 1 1 0 1 0 0 0 1 1 0 1 0 1 1 1 1 0 1 0 1 0 1 0 1 0 1 0 0 1 1 0 1 1 0 1 0 1 1 0 0 0 0 1 0 0 0 1 1 1 0 0 1 1 1 1 0 1 0 1 1 1 1 1 0 1 0 1 1 1 0 1 1 1 0 0 1 1 1 0 0 1 0 1 0 1 1 1 0 0 1 1 0 0 0 0 0 0 1 0 0 0 1 1 1 0 1 0 0 0 1 0 1 0 0 0 1 0 1 1 0 1 0 1 1 0 0 1 1 0 1 1 0 0 1 1 0 0 1 1 0 1 0 0 1 0 1 1 1 0 0 0 1 1 1 1 0 1 1 1 1 1 1 1 0 1 1 0 1 1 1 0 1 0 1 0 1 0 1 0 1 0 1 0 0 0 0 0 0 0 0 1 0 0 1 1 1 1 0 1 1 1 1 0 0 1 0 1 0 0 1 0 1 1 1 0 1 1 0 0 0 1 1 1 0 1 1 1 1 1 0 1 1 0 0 1 1 1 0 1 1 0 1 1 0 0 0 1 1 1 1 1 1 0 1 0 1 0 0 0 1 1 1 0 1 1 0 1 0 1 0 0 0 1 0 1 1 0 0 1 1 1 1 1 1 1 0 1 0 1 0 0 0 0 1 0 0 0 0 1 1 1 1 1 0 1 0 1 1 1 0 0 0 1 0 0 0 1 0 0 0 1 1 0 0 1 0 1 1 0 1 0 1 1 0 0 1 0 1 1 0 1 1 1 0 0 0 1 1 1 1 0 0 1 1 0 0 1 1 0 0 1 0 1 0 0 1 0 0 1 1 1 1 1 1 1 0 1 1 1 1 0 0 1 0 0 0 0 0 1 0 0 1 1 1 1 0 0 1 0 0 0 1 1 0 1 1 0 0 1 0 1 0 0 0 1 0 1 0 0 0 1 1 0 0 0 0 0 0 1 0 1 1 1 0 0 1 0 0 1 1 1 1 1 0 0 1 1 1 1 1 0 0 0 0 1 1 0 0 0 1 0 1 1 1 0 1 0 0 1 1 0 0 0 1 1 1 1 1 0 1 1 0 1 0 1 1 1 0 0 0 0 1 1 1 1 1 1 1 0 1 1 1 0 0 0 1 1 0 1 1 0 0 1 0 1 1 1 1 0 1 1 1 1 1 0 0 1 1 1 1 1 1 1 1 0 1 0 1 0 1 1 1 1 0 1 1 0 1 0 1 0 1 1 0 1 1 1 0 1 0 0 0 0 0 0 0 0 0 0 1 0 0 0 0 1 1 1 1 1 0 1 0 1 1 0 1 0 0 1 1 0 0 1 0 0 0 0 1 1 1 1 0 1 0 1 0 1 1 1 1 0 1 1 1 0 0 0 0 0 1 1 0 0 0 0 1 0 1 0 1 1 1 0 1 1 1 1 0 0 0 0 0 1 1 1 0 1 1 1 1 0 0 0 0 0 1 0 1 0 0 1 1 0 1 0 0 0 1 1 1 0 0 0 0 1 1 1 1 0 0 0 1 0 1 1 0 0 0 0 0 0 1 0 0 1 1 0 1 1 1 1 1 1 0 0 0 0 1 1 1 0 0 1 1 1 1 1 0 0 1 1 0 0 0 1 0 1 0 1 1 1 0 1 0 1 1 1 0 1 1 1 0 1 0 0 1 0 1 1 1 1 0 0 0 1 0 1 0 1 0 1 1 1 1 1 1 1 0 0 0 1 1 0 0 0 1 0 1 1 0 0 0 0 0 1 1 1 0 0 0 0 0 0 1 1 1 0 1 0 0 1 0 1 1 1 0 0 1 1 0 0 1 0 0 1 0 1 0 1 1 1 1 0 1 1 1 1 0 0 0 1 1 1 1 0 1 0 1 0 1 1 1 1 1 0 1 1 1 1 1 0 0 0 0 1 1 0 1 1 1 0 1 0 0 1 0 1 1 0 0 0 1 1 1 0 1 1 0 1 1 0 0 0 1 1 0 0 0 1 1 0 1 0 1 0 0 0 1 1 1 0 1 0 0 0 0 0 1 0 0 1 1 1 1 1 0 0 1 0 0 1 1 0 1 0 0 0 0 0 0 0 0 0 1 1 1 1 0 1 0 1 1 1 0 1 1 1 1 1 1 0 1 1 1 1 1 0 0 1 0 0 1 1 1 0 0 0 1 1 1 0 0 0 0 0 0 1 0 1 1 0 0 1 1 0 0 0 1 0 0 1 1 1 0 0 0 0 1 1 0 0 0 1 0 1 1 0 0 0 1 0 0 0 0 0 0 0 1 0 1 0 1 1 0 1 1 0 1 0 0 0 0 0 0 0 1 0 0 0 0 0 0 0 0 0 1 0 0 0 0 0 0 1 1 0 0 1 0 0 1 0 0 1 0 0 1 0 1 0 1 0 0 0 1 1 1 0 0 0 1 0 1 0 1 0 1 0 1 1 1 1 0 1 1 1 1 1 1 0 0 0 1 1 1 0 0 0 1 0 0 0 0 0 0 0 0 1 1 1 0 1 0 1 0 0 0 1 0 0 1 1 1 1 1 0 0 1 0 1 0 0 1 1 1 0 1 1 1 0 0 1 0 1 0 1 1 0 1 0 0 0 1 1 1 0 0 0 1 1 1 1 0 1 1 0 1 0 1 1 1 0 0 1 0 0 0 1 1 1 1 0 0 0 0 1 0 1 0 0 1 1 0 1 1 1 1 0 1 0 1 1 0 1 0 0 1 1 0 0 0 0 0 1 0 1 1 1 1 0 0 1 1 0 0 1 1 0 0 1 1 0 1 0 1 1 1 1 1 1 1 1 1 1 0 1 1 0 1 0 1 0 0 1 1 1 1 0 0 0 1 1 1 1 0 0 0 0 1 1 0 1 0 1 1 1 0 0 0 1 1 1 0 1 0 1 0 0 0 0 0 1 1 1 1 1 0 1 1 1 0 0 0 0 1 0 0 0 1 0 1 1 1 1 0 0 1 0 0 0 1 1 1 1 0 0 1 1 0 0 1 0 0 0 1 1 1 0 1 1 1 0 0 0 1 1 1 1 1 0 1 0 0 0 1 0 0 1 1 0 0 0 0 0 0 0 1 1 1 1 0 1 1 1 1 1 1 1 0 1 0 0 0 0 1 0 0 1 0 1 1 0 1 1 1 1 1 1 1 1 1 0 0 1 0 1 1 1 0 0 0 1 0 0 0 1 0 0 0 0 1 1 0 0 1 1 0 1 0 1 1 1 0 1 0 1 1 1 1 1 1 1 0 0 1 0 1 0 0 0 1 1 1 1 1 0 0 0 0 1 0 1 1 0 1 0 0 1 1 0 1 0 1 0 0 1 1 0 1 1 1 0 0 0 1 1 0 0 1 0 0 1 0 0 1 0 0 1 0 0 1 0 0 0 1 1 1 1 1 0 0 1 1 1 0 0 0 1 0 0 0 0 1 1 0 1 0 0 0 1 1 0 1 1 1 0 0 0 1 1 1 0 1 0 1 0 1 1 0 1 1 1 1 1 0 0 0 1 1 0 1 0 1 0 0 0 1 1 1 1 1 0 0 0 1 1 0 0 1 0 1 0 0 0 1 0 1 1 0 1 0 0 0 1 1 0 1 0 1 0 0 0 1 0 0 0 0 1 0 1 0 1 0 1 1 1 0 1 0 1 0 1 1 0 0 1 0 0 1 1 1 1 1 1 0 0 0 1 1 1 0 1 1 0 0 1 0 1 1 1 1 0 1 0 1 0 0 0 1 1 1 0 1 0 0 0 1 1 0 0 1 0 0 1 0 1 1 1 1 1 0 1 0 1 0 0 1 1 0 0 1 1 0 0 0 1 0 1 1 0 0 0 0 0 1 1 0 0 0 0 0 1 0 1 0 1 1 1 0 1 1 1 0 0 0 1 0 1 1 0 1 1 0 0 0 0 0 1 1 1 0 1 1 1 1 1 0 1 0 0 0 1 1 0 1 0 0 1 0 1 0 0 1 0 0 0 1 0 0 1 1 0 1 0 1 1 1 0 1 1 0 0 1 0 1 1 1 1 1 0 1 1 0 0 1 1 1 1 1 1 1 1 1 1 1 1 0 1 0 1 1 0 1 0 1 0 1 1 0 1 0 1 0 1 1 1 1 0 0 0 1 1 1 0 0 1 1 1 0 1 0 0 1 1 0 1 1 0 0 1 0 1 0 0 1 0 1 0 0 1 1 1 1 0 1 0 1 1 0 1 0 0 1 1 1 1 0 0 0 1 0 0 0 0 1 1 1 0 0 1 0 0 1 0 1 0 0 0 0 1 0 1 0 1 1 1 1 1 1 0 1 0 1 0 1 0 1 1 1 1 1 0 1 1 1 0 1 0 1 0 1 1 0 0 1 0 0 0 1 0 0 0 0 0 1 1 0 1 1 0 1 0 1 0 0 1 1 1 1 1 1 1 0 1 0 0 0 0 0 1 1 1 0 0 0 0 1 1 1 1 1 1 1 0 0 0 1 0 1 0 1 1 0 0 0 0 0 0 0 0 0 1 1 1 0 1 0 1 0 1 1 0 0 0 0 0 0 0 0 1 0 1 1 1 1 0 0 0 1 1 0 0 1 1 1 0 0 1 1 0 0 1 0 1 1 0 0 0 0 0 1 1 0 1 1 0 0 1 0 1 1 0 0 1 1 0 1 0 1 1 0 1 0 1 0 0 0 0 1 0 0 0 1 0 0 1 0 0 1 0 0 1 1 1 0 0 1 1 1 1 1 1 1 1 1 1 0 1 0 1 1 1 0 0 1 0 1 1 1 0 1 1 0 1 0 0 0 1 1 0 1 1 1 1 0 1 1 1 0 0 0 0 0 1 1 0 0 1 0 0 0 0 0 1 0 0 1 1 1 1 0 1 0 1 0 0 0 0 0 0 0 0 0 1 0 0 0 1 0 1 0 0 0 0 1 0 0 0 1 1 0 1 0 0 0 0 1 0 0 1 0 1 0 0 0 1 1 1 0 1 0 0 0 1 0 1 1 0 0 0 0 1 1 1 1 1 0 0 1 1 0 0 0 0 0 0 1 1 0 0 1 1 1 0 1 0 1 1 0 1 0 1 1 1 0 1 0 0 0 0 0 1 1 0 1 0 1 1 1 1 1 0 0 1 0 0 1 1 0 1 0 1 1 1 1 0 0 1 0 1 1 1 0 0 0 1 0 0 0 1 1 1 0 1 0 0 0 0 0 0 1 0 1 1 0 1 0 0 0 1 1 0 0 1 1 0 1 1 0 1 0 1 0 0 1 1 1 1 1 0 0 0 0 1 0 1 0 1 0 1 1 0 1 1 1 1 1 0 0 1 1 0 1 1 0 1 1 1 1 1 1 0 0 0 1 0 1 0 0 1 1 1 1 0 1 0 0 1 0 0 0 0 1 1 0 1 0 1 0 0 1 1 0 1 1 0 1 1 1 0 0 1 0 0 0 1 0 0 1 1 0 1 0 1 1 1 1 0 1 1 1 1 0 0 0 0 1 0 0 0 0 1 0 1 1 0 0 0 0 1 1 0 1 0 1 0 0 0 1 0 1 0 1 1 1 1 0 1 0 1 1 0 1 1 0 1 1 0 1 1 1 0 1 0 0 1 0 1 1 1 0 0 1 1 1 0 0 1 1 1 1 1 1 1 0 0 1 1 0 1 1 1 0 1 1 0 0 0 1 0 0 0 0 0 1 1 0 1 1 1 1 0 0 0 1 0 0 0 0 0 0 0 0 0 1 0 0 0 0 0 1 0 0 1 1 0 0 0 0 1 1 0 0 0 1 1 1 1 1 0 0 1 0 0 1 1 1 1 1 1 0 0 1 0 0 1 1 0 1 1 1 1 1 0 0 1 1 0 0 1 0 1 0 0 0 0 0 1 0 1 1 1 1 1 0 0 1 0 0 1 1 1 1 1 1 1 1 0 1 1 0 0 1 0 0 0 0 0 1 0 1 1 1 1 1 1 0 0 0 0 1 1 0 0 0 0 0 0 0 0 1 0 1 1 0 1 0 0 0 1 1 0 0 1 1 0 1 0 0 1 0 1 1 0 1 1 0 1 0 1 0 1 1 1 1 0 0 0 1 1 0 0 0 0 0 0 0 1 0 1 0 1 1 0 1 1 1 0 1 1 0 1 1 0 1 0 0 0 0 1 0 1 1 1 1 1 0 1 0 1 1 0 1 1 1 1 0 0 0 1 0 1 1 1 1 1 1 1 0 1 1 1 0 0 1 1 1 1 1 1 1 0 1 0 1 1 1 0 0 0 1 1 0 1 1 1 0 0 0 0 1 1 0 0 1 1 0 1 0 0 1 1 1 1 0 1 1 0 1 0 1 1 1 0 0 1 0 0 1 0 0 1 0 1 0 0 0 0 0 0 1 0 0 1 1 1 1 0 0 1 0 0 0 1 0 1 0 0 1 1 0 0 0 0 0 0 0 1 1 0 0 0 0 1 1 1 1 0 1 0 0 0 1 0 1 1 1 1 0 1 1 0 1 1 0 0 0 0 0 1 1 1 0 1 1 1 0 0 0 1 1 1 1 1 1 0 1 1 0 0 0 0 0 0 1 1 1 1 1 0 1 0 0 0 0 1 0 0 1 1 1 1 0 0 1 1 0 0 0 0 0 1 1 1 0 0 0 1 0 1 0 1 0 0 1 0 1 0 0 0 1 0 1 1 0 0 1 1 1 0 0 1 0 0 0 0 1 1 0 1 1 0 1 1 0 0 1 0 0 0 0 0 0 0 1 1 0 0 0 1 0 1 1 0 1 1 0 0 0 0 0 1 1 0 1 0 0 1 1 0 1 0 1 0 1 0 0 1 1 0 0 0 0 0 1 0 0 0 1 1 1 1 1 1 1 0 0 0 0 0 0 0 0 1 0 0 1 0 0 1 1 0 1 1 0 1 0 0 1 1 0 0 0 0 0 0 0 0 1 1 0 1 1 0 0 1 0 1 1 1 0 1 0 0 0 0 1 1 1 0 0 0 1 1 1 1 1 1 0 1 0 1 1 0 1 1 0 1 0 0 0 0 0 0 1 0 1 1 0 0 1 0 0 0 0 1 1 0 0 1 0 0 1 1 0 0 0 0 1 1 0 1 0 0 1 1 0 1 1 0 0 0 0 1 1 1 1 0 0 0 1 1 1 0 0 0 1 1 0 0 1 1 0 1 1 0 1 0 0 1 1 0 0 1 0 1 0 0 1 1 1 0 1 1 0 0 1 0 1 1 1 0 0 1 1 1 0 1 1 1 1 1 1 1 0 0 1 0 0 1 1 0 0 1 1 1 1 1 1 1 1 0 1 1 1 0 0 0 1 1 0 1 0 1 1 1 1 0 1 1 1 1 0 1 1 0 1 1 1 0 1 0 0 1 1 1 0 1 1 0 0 0 0 0 0 1 0 0 1 0 0 0 1 0 0 1 0 0 0 1 1 1 1 1 1 1 1 1 1 0 0 1 1 0 1 1 1 0 1 1 1 1 0 1 0 1 0 1 0 0 0 0 1 1 1 1 0 0 0 0 1 1 1 1 1 1 0 0 1 1 1 1 1 0 1 0 0 1 1 0 1 1 1 0 0 1 1 1 0 0 0 1 0 0 0 0 1 0 1 0 0 1 1 0 0 1 0 0 0 0 1 1 1 1 0 0 0 1 0 1 0 1 0 1 0 1 0 1 0 0 1 0 1 0 1 0 0 0 0 0 0 0 1 0 0 0 0 1 0 0 1 0 1 0 0 1 0 0 1 1 1 1 1 1 0 0 0 0 0 1 1 1 1 1 1 1 1 0 1 0 0 1 1 0 1 1 0 1 1 0 0 0 1 1 1 0 1 0 0 0 1 0 0 0 0 1 1 0 1 0 0 0 1 1 0 0 0 1 1 0 0 0 1 0 1 1 0 0 0 1 1 1 0 1 1 0 1 1 1 0 1 0 0 1 0 1 0 0 0 0 1 1 1 1 0 1 1 0 0 0 0 1 0 1 1 1 0 0 1 1 1 0 1 0 0 1 0 0 1 0 1 0 1 1 0 0 1 0 0 1 0 0 1 1 1 0 1 1 0 1 0 0 0 1 1 0 0 0 0 0 1 1 1 0 0 0 1 1 1 0 0 1 0 0 0 0 0 0 1 1 1 0 1 1 1 0 1 0 1 1 0 1 1 1 0 1 1 1 1 0 1 1 1 0 0 1 1 0 0 0 0 0 0 1 1 0 0 0 1 1 1 1 1 0 1 0 1 1 0 1 0 0 0 0 0 1 0 0 0 1 1 1 1 0 0 0 1 1 0 1 0 1 0 0 1 0 0 1 0 1 0 1 0 0 1 0 0 0 1 1 0 1 1 0 1 1 0 0 1 1 1 0 0 1 1 1 1 1 1 1 0 1 0 1 0 1 0 0 1 1 1 0 1 0 0 0 1 0 0 1 0 0 0 0 0 1 1 0 1 0 0 1 0 1 1 0 0 1 0 1 0 1 1 1 1 0 1 0 0 1 1 1 0 0 1 0 1 1 0 1 0 1 0 0 1 0 0 1 1 1 0 0 1 0 1 0 1 0 1 0 1 0 0 1 1 1 0 1 1 1 1 0 1 0 1 1 0 1 0 1 1 0 1 1 0 0 1 0 0 1 0 0 0 0 1 1 1 0 0 1 0 0 0 1 1 1 0 1 1 0 0 1 0 1 1 0 1 0 0 1 0 1 0 1 1 0 1 1 0 1 0 1 0 1 0 1 1 1 1 0 0 1 0 0 0 0 1 0 0 1 0 1 1 0 0 0 1 0 1 0 0 0 0 1 0 0 0 0 1 1 0 1 0 1 0 1 1 0 1 0 1 1 1 0 1 1 1 0 1 0 0 1 0 1 1 1 1 0 0 0 1 0 1 1 0 1 1 0 1 1 1 0 0 0 0 0 1 1 1 0 1 1 0 0 1 1 1 0 1 0 1 1 0 0 0 1 1 1 0 1 1 0 0 1 1 0 1 1 1 1 0 1 1 0 1 0 1 0 0 0 0 0 1 1 1 0 1 0 0 0 1 1 0 1 0 0 1 0 1 1 0 1 1 0 1 1 0 1 0 1 0 1 0 0 0 1 1 1 0 1 1 0 0 1 1 1 0 1 0 0 1 1 0 1 0 1 1 0 1 1 0 0 1 0 1 1 1 1 0 0 0 1 1 1 1 0 1 1 1 0 0 1 0 1 0 0 1 1 0 0 0 1 0 0 1 0 1 1 0 0 1 0 1 0 1 1 0 0 0 1 1 1 1 1 0 0 0 1 0 1 0 0 0 0 0 1 0 1 1 1 1 1 0 1 0 0 0 0 0 0 0 0 1 1 0 1 0 1 0 1 1 1 1 0 0 1 1 0 1 0 1 0 0 0 0 1 1 1 1 0 0 1 1 0 0 0 0 1 1 0 0 1 1 1 1 0 1 0 0 1 1 1 0 1 0 0 0 0 1 0 0 1 1 0 1 0 0 0 1 0 1 1 1 1 0 0 1 0 1 0 1 1 1 0 1 0 1 1 1 1 0 1 1 0 1 1 0 1 1 1 0 1 0 1 0 1 0 0 0 1 0 0 0 1 1 1 1 1 0 0 0 0 1 1 0 0 0 1 1 0 0 0 0 0 0 1 0 0 0 1 0 1 0 0 0 0 1 1 1 0 0 0 0 0 0 1 1 0 0 0 0 0 0 0 0 1 0 1 1 1 0 1 1 1 0 0 1 1 0 0 1 0 1 0 1 1 0 1 0 0 0 1 0 1 1 1 1 0 0 1 0 1 0 0 0 0 1 1 1 0 1 0 0 0 1 0 0 0 0 1 0 0 1 1 0 0 1 1 0 0 1 0 0 1 1 0 1 0 0 0 1 0 1 1 0 1 1 1 1 1 1 0 0 0 1 0 1 0 0 1 0 1 0 0 1 0 1 1 1 0 1 0 0 1 0 1 1 1 1 1 1 1 1 0 0 0 1 0 1 0 0 1 1 0 1 1 0 1 0 1 0 0 0 0 0 0 0 1 1 0 0 0 0 0 0 1 0 1 1 1 1 1 0 0 0 0 0 0 0 0 1 1 0 0 1 0 0 0 0 0 1 0 0 0 0 1 1 1 1 1 0 0 1 1 1 1 1 1 1 0 0 1 0 0 1 1 1 0 1 0 0 0 0 0 1 0 0 1 0 0 0 1 1 0 1 1 0 0 1 1 1 0 0 0 0 1 0 1 1 0 0 0 0 1 0 0 0 0 1 1 1 1 0 1 1 0 0 0 0 0 1 0 0 0 1 0 1 1 1 1 1 1 1 1 1 0 1 0 0 1 0 0 1 1 1 1 1 1 1 1 0 1 0 0 0 1 1 0 1 0 1 1 0 1 1 1 1 1 1 0 1 0 1 1 1 1 1 1 1 1 0 0 0 0 0 1 1 0 0 1 0 1 0 0 1 0 0 0 0 0 1 0 1 1 1 1 1 1 0 0 0 1 1 1 0 0 0 0 1 1 1 0 1 1 0 0 1 0 0 0 0 1 1 0 1 1 1 0 0 1 1 0 1 0 0 0 1 0 0 1 1 0 1 1 0 1 0 0 0 0 1 0 0 0 1 0 0 0 1 1 0 1 0 0 1 1 0 1 1 0 1 0 0 1 1 0 0 1 1 0 0 1 0 0 0 0 0 1 0 1 0 0 0 0 1 1 0 1 1 1 1 1 0 0 1 1 0 0 0 0 0 1 1 0 0 0 1 0 0 1 0 1 1 0 0 1 1 1 1 1 1 0 0 0 0 1 0 0 0 0 1 0 1 0 0 1 1 0 0 1 1 1 1 0 0 1 1 1 0 0 0 1 0 1 1 0 0 0 1 1 0 1 0 1 0 1 0 0 0 1 1 1 1 1 1 0 1 1 0 0 0 1 0 1 1 0 1 0 0 1 1 1 1 1 0 1 0 1 1 1 0 0 1 1 1 1 1 0 1 0 0 0 1 1 0 0 1 1 1 1 1 0 0 0 1 1 1 1 0 0 0 1 0 0 1 1 0 0 1 1 1 0 0 0 0 0 1 1 0 0 1 0 1 0 0 0 1 0 1 0 1 1 0 1 0 1 0 0 1 0 1 1 1 0 0 0 0 0 0 0 0 0 1 1 1 0 0 1 1 0 1 1 1 1 1 0 0 1 0 0 0 0 1 1 1 1 0 0 0 1 0 0 1 0 1 0 1 1 1 1 1 0 1 1 0 0 1 0 0 0 0 1 0 0 0 0 1 0 0 0 0 1 1 0 1 0 0 0 0 0 1 0 0 1 0 1 0 1 0 0 1 1 0 0 0 0 1 1 1 1 1 1 0 0 0 1 0 0 0 1 0 1 0 1 0 1 1 0 0 1 0 0 1 0 0 1 0 0 0 1 0 1 1 0 0 1 0 1 1 0 1 0 0 1 1 1 1 0 1 1 0 0 0 1 1 1 0 1 1 0 1 1 0 1 1 1 1 0 0 1 0 0 0 1 0 0 0 0 0 0 1 0 1 1 1 1 1 0 0 0 1 1 0 1 0 0 1 0 0 1 0 1 1 1 0 0 0 0 1 0 1 0 0 0 0 0 0 1 0 0 0 1 1 0 0 0 0 0 0 0 1 1 0 1 1 1 1 1 0 1 1 0 0 1 0 0 1 0 0 1 0 0 1 0 0 1 1 0 0 0 0 0 1 0 1 0 1 1 1 0 0 0 1 0 0 1 0 1 0 0 1 1 1 0 1 0 1 1 1 1 1 1 1 0 1 0 0 0 1 0 0 1 0 0 1 1 0 0 0 0 1 1 1 1 1 1 1 0 1 1 1 0 1 1 1 0 0 1 1 0 0 0 1 0 0 1 0 1 0 1 0 1 1 1 1 0 0 0 0 0 1 0 0 0 0 1 0 0 0 0 0 1 0 0 1 0 0 1 1 0 1 1 0 0 1 0 0 1 1 1 1 0 1 1 1 1 1 0 1 0 0 0 0 0 1 0 1 0 1 1 1 0 1 0 0 0 0 0 0 1 1 0 1 0 1 0 1 1 1 1 1 1 1 0 1 1 0 1 1 1 0 0 1 0 1 0 1 0 0 0 1 1 1 1 0 0 1 1 1 1 0 1 0 0 1 0 1 0 0 0 0 0 0 0 1 1 0 1 0 1 0 0 0 0 0 1 0 1 0 0 0 0 1 0 0 0 1 1 1 0 0 1 1 1 0 0 0 1 1 1 1 1 1 1 1 0 1 1 1 1 0 0 1 1 0 0 0 1 0 1 0 0 1 0 0 1 1 1 0 1 0 1 1 0 0 1 0 0 1 0 0 0 0 1 1 0 1 1 1 1 1 0 1 1 0 1 1 1 0 0 1 0 0 0 1 1 1 1 1 1 1 0 0 0 0 0 0 1 1 1 1 0 1 0 0 1 0 0 0 0 1 0 0 0 1 0 1 1 0 0 0 0 1 0 1 1 0 0 0 0 1 1 1 1 1 0 0 0 0 0 1 0 1 1 1 0 0 1 0 0 1 1 0 0 0 1 0 1 1 0 1 1 1 0 0 1 1 1 1 1 1 0 0 0 1 0 0 0 1 0 0 1 0 0 1 1 1 0 1 0 1 1 0 0 0 1 0 1 1 0 1 0 0 1 0 1 0 1 0 0 0 1 0 0 1 1 1 1 0 0 1 1 0 0 0 1 0 1 1 0 1 0 1 1 1 0 1 0 0 0 1 0 1 1 0 0 0 0 1 0 0 1 1 1 1 1 1 0 0 0 0 0 0 1 1 1 0 0 1 1 0 1 1 0 1 0 1 1 0 0 0 0 1 0 1 0 1 0 1 0 1 0 0 0 0 1 1 1 0 0 0 1 0 1 1 0 0 0 1 1 1 0 0 0 0 0 0 1 1 0 1 0 1 0 1 0 0 1 0 0 1 1 0 0 0 0 1 1 1 1 1 0 0 0 0 0 1 1 1 0 0 1 0 1 0 0 1 1 1 1 1 1 0 0 0 0 0 0 1 0 0 1 0 0 0 1 1 1 0 1 0 1 0 1 1 1 0 1 0 0 1 1 1 0 0 0 1 0 1 0 1 1 0 0 1 0 0 1 0 1 1 1 0 1 0 0 0 1 0 1 0 1 1 0 1 0 0 0 1 1 0 0 0 0 1 1 0 0 1 0 1 0 0 1 0 0 1 1 0 1 1 1 1 1 0 1 1 0 1 1 0 1 0 1 1 0 1 1 0 0 1 1 1 1 0 0 1 1 1 1 1 0 0 0 0 1 1 0 1 0 0 0 0 1 0 0 0 0 1 0 1 1 0 0 0 0 0 0 0 0 1 0 0 0 1 1 0 0 0 0 0 0 0 1 0 0 0 0 1 0 1 1 1 0 1 0 0 0 0 1 1 1 0 0 1 1 0 0 0 1 1 1 0 1 0 1 1 0 0 0 1 0 0 1 1 1 0 0 1 0 1 1 1 0 0 1 0 1 1 1 0 1 0 0 1 0 1 0 0 0 1 0 1 0 1 1 1 0 1 1 1 0 1 1 0 1 0 0 1 0 0 1 1 0 0 1 1 1 0 1 0 0 1 1 1 1 1 1 1 1 0 1 0 0 0 1 0 1 0 1 0 0 0 0 0 0 1 1 0 0 0 1 0 0 0 0 1 1 0 0 1 0 1 0 0 0 1 1 1 0 1 1 0 0 0 0 0 0 0 1 0 1 1 1 0 1 0 1 1 0 1 1 0 1 1 0 0 1 1 1 1 0 0 1 0 0 1 1 0 1 0 1 1 0 0 0 1 1 0 1 0 1 0 1 0 0 1 0 1 1 1 1 0 1 0 1 1 1 1 1 1 1 1 0 1 1 0 0 0 0 1 0 1 0 0 0 1 0 0 1 0 0 0 0 0 0 0 1 0 0 1 1 0 0 0 0 1 0 1 1 1 1 0 1 0 0 0 1 1 0 1 0 1 0 0 0 0 1 1 0 1 0 1 0 1 1 0 0 0 0 0 1 0 0 0 1 0 0 1 0 1 1 0 1 0 0 1 1 0 1 0 0 1 1 1 0 0 1 1 0 1 0 1 0 0 1 0 0 1 1 1 1 1 0 0 0 1 1 0 1 1 1 0 0 1 0 0 0 0 0 1 0 0 1 1 0 0 1 0 1 0 1 0 1 0 0 0 0 1 0 0 1 1 0 1 0 1 0 1 1 0 1 0 0 1 0 1 1 0 0 1 0 0 1 1 0 0 1 0 0 0 1 0 0 0 0 1 0 1 1 1 1 0 0 1 1 0 0 1 1 0 1 0 0 1 1 1 0 1 0 0 1 0 0 0 0 0 0 0 0 0 1 1 1 0 0 0 0 1 0 1 0 0 0 1 0 0 1 0 1 0 0 0 1 0 1 1 0 1 0 1 0 1 0 1 0 0 0 0 0 0 1 0 1 0 1 1 0 1 1 1 1 0 0 1 1 1 1 1 1 0 0 0 0 0 0 1 0 1 0 0 1 0 0 1 0 0 0 0 0 1 1 1 0 1 1 0 1 1 1 0 0 1 0 0 1 0 0 1 1 1 0 1 1 0 0 1 0 1 0 0 0 1 0 0 1 0 0 1 0 0 1 1 1 0 1 1 1 0 0 1 1 1 0 0 1 1 0 1 1 1 0 1 1 1 1 0 1 0 0 0 0 1 1 0 0 1 0 1 0 1 1 1 1 0 1 0 1 1 0 1 1 0 0 0 1 0 1 1 0 0 1 1 1 1 1 0 0 0 1 1 0 1 0 0 0 0 1 1 0 1 0 1 1 0 1 0 1 1 0 0 0 0 1 0 1 1 0 1 1 0 0 0 0 0 1 0 1 1 1 0 0 0 0 1 0 0 0 1 0 0 0 0 0 0 1 1 0 1 0 1 1 0 0 0 0 0 1 1 1 0 1 1 0 1 1 0 1 0 1 1 1 1 1 0 0 1 1 0 0 0 1 1 1 1 1 0 0 1 0 1 0 1 0 0 0 0 1 0 0 0 1 0 1 1 1 0 1 1 0 1 1 0 0 0 1 0 1 1 0 0 0 0 0 1 0 1 1 1 0 0 0 0 0 0 0 1 1 0 0 1 1 1 0 1 1 0 0 0 1 1 0 0 1 0 0 1 1 1 1 1 1 0 1 0 0 1 1 0 1 1 1 1 1 1 1 0 1 0 0 1 1 0 0 0 1 0 1 1 0 1 1 1 0 1 0 1 1 1 1 0 0 0 0 0 0 1 1 1 1 0 0 0 1 1 0 1 0 0 1 0 1 1 0 1 1 0 0 0 0 1 0 0 0 1 1 0 0 0 0 1 1 1 1 1 0 1 0 1 0 1 0 1 0 1 1 1 1 1 0 0 1 1 0 0 0 1 0 0 1 0 0 1 1 1 0 0 1 1 0 1 1 0 1 1 0 0 1 1 0 0 0 1 0 0 0 0 0 1 0 1 1 1 1 1 1 1 0 1 1 1 0 1 0 0 1 0 0 1 1 1 0 0 1 0 1 0 1 0 1 1 1 1 0 1 1 0 1 1 1 0 1 1 0 0 1 0 1 1 1 0 1 0 0 1 0 0 0 1 1 0 0 0 1 0 0 0 1 1 1 0 0 1 1 0 1 0 0 0 0 0 0 0 1 1 1 0 1 1 0 1 1 0 1 0 1 1 1 1 0 1 1 1 0 1 1 1 0 0 1 1 1 1 1 0 0 1 1 1 1 1 0 0 0 1 1 1 0 0 0 0 1 0 1 1 0 1 0 0 0 0 0 0 0 0 0 0 0 1 0 0 0 1 0 1 0 0 1 1 0 0 1 0 0 1 1 1 1 1 0 0 0 1 0 1 1 1 0 0 1 0 1 1 1 0 0 1 1 0 1 0 0 1 1 0 1 0 1 0 1 0 1 1 1 1 0 1 1 0 0 1 0 1 1 0 0 1 0 1 1 0 1 0 0 0 1 1 0 1 1 0 1 1 1 1 1 0 1 0 0 0 0 0 1 1 0 1 1 0 0 0 0 0 0 0 0 0 1 1 0 0 0 1 0 0 0 1 0 0 1 1 0 1 1 0 0 0 0 0 0 1 1 0 1 1 0 1 0 1 0 0 0 0 0 1 1 1 1 1 1 0 0 0 0 0 1 0 0 1 0 1 1 1 0 1 0 1 0 0 0 0 0 0 1 1 1 0 1 0 0 0 0 0 0 1 0 1 1 1 0 0 1 1 0 0 1 0 1 0 0 0 0 1 1 1 0 0 1 0 1 0 0 1 1 1 1 1 0 1 0 0 1 0 1 1 1 0 1 1 1 1 1 1 1 1 0 0 0 0 1 1 0 0 0 0 0 1 1 1 1 1 1 0 0 1 1 0 1 1 1 1 0 0 0 1 1 1 0 1 0 0 0 1 1 0 1 0 1 1 0 1 1 1 1 1 1 1 0 1 1 0 1 1 0 1 0 0 1 0 1 1 1 0 1 1 1 0 0 0 1 1 0 1 0 1 0 0 0 0 1 1 1 1 0 1 0 1 0 0 1 1 1 0 0 0 0 0 1 1 0 0 0 0 1 1 0 1 1 1 1 1 0 0 0 0 0 1 1 1 1 0 1 1 0 1 1 1 0 1 1 1 0 1 1 1 1 1 1 0 0 1 0 0 1 0 0 1 1 1 0 1 0 0 0 1 0 0 0 0 1 0 1 0 1 0 1 0 0 1 0 0 0 1 0 1 1 0 1 1 1 0 0 0 0 0 0 1 0 1 0 0 1 0 1 0 1 1 0 0 0 0 1 0 1 1 0 1 0 0 0 1 1 1 1 1 1 0 0 1 1 1 0 0 0 1 0 1 1 1 0 0 0 0 0 0 1 1 0 0 0 1 0 1 0 0 0 1 0 0 0 0 1 1 0 0 0 1 0 0 0 1 0 0 0 0 0 0 1 0 0 1 1 0 1 0 1 0 1 1 0 0 0 1 1 0 0 1 0 1 1 0 0 1 1 0 0 1 1 1 0 1 0 0 0 0 1 0 1 1 1 1 1 1 1 1 0 0 0 0 1 1 0 0 1 0 1 1 1 1 0 0 0 1 0 1 0 0 0 1 0 0 1 1 0 1 1 0 1 1 0 0 1 0 0 0 0 1 0 1 1 1 1 1 1 0 1 1 0 0 1 0 0 0 0 1 1 1 0 0 0 1 0 0 0 1 0 1 1 0 0 1 0 1 0 1 0 1 1 0 0 0 0 0 1 0 0 0 1 1 0 1 1 0 1 1 0 0 0 1 1 0 1 1 0 0 0 1 1 0 1 0 0 0 0 0 1 1 1 1 0 0 0 1 1 0 0 1 0 0 1 0 0 1 0 1 0 0 0 1 1 1 1 1 1 1 0 0 1 1 1 0 1 1 0 1 1 1 0 1 0 0 0 1 0 1 1 0 1 1 1 0 1 0 1 0 0 1 0 0 0 1 1 1 0 1 1 1 1 1 0 1 1 1 1 1 1 0 1 0 1 0 1 0 1 1 0 1 0 0 1 1 0 0 1 0 1 1 1 1 0 0 0 0 1 1 0 1 1 1 1 0 0 0 0 0 1 0 1 0 1 1 0 0 1 1 1 1 0 1 0 0 1 0 0 0 0 0 1 0 1 1 0 0 0 1 0 0 0 0 1 0 0 0 1 1 0 0 0 0 0 1 1 0 0 1 1 0 0 1 0 0 0 0 1 0 1 1 1 0 0 1 0 1 1 1 1 0 1 1 0 0 0 1 0 1 1 1 0 1 1 1 1 0 1 0 0 0 1 1 0 0 0 0 0 0 1 0 1 1 1 1 1 0 1 0 1 0 0 1 0 0 0 1 1 0 1 1 1 1 1 0 1 1 1 1 0 1 1 1 0 1 0 0 1 1 1 0 1 0 1 0 0 1 1 0 1 0 1 0 1 1 1 1 0 1 1 1 1 1 0 1 1 0 1 0 1 1 1 0 0 0 0 1 0 0 1 1 0 0 1 0 1 0 0 0 0 1 0 0 1 1 0 1 1 0 0 1 1 0 1 0 0 1 0 0 0 0 1 0 1 1 0 1 1 0 0 0 1 0 0 1 1 0 1 1 0 1 0 0 1 1 1 0 1 1 0 1 0 0 0 0 1 0 0 1 1 1 0 0 0 1 1 1 0 1 0 1 0 0 1 0 0 1 1 0 0 0 0 1 1 0 0 0 1 0 0 1 1 1 0 1 1 0 0 1 1 1 0 1 0 1 1 1 0 1 0 0 0 1 1 0 0 0 1 1 1 1 0 1 0 0 0 1 0 1 0 1 1 0 0 0 1 0 0 0 0 0 0 1 0 1 1 1 1 1 0 1 1 1 0 0 0 1 1 0 1 0 0 0 0 0 1 1 0 1 1 0 1 1 0 1 0 0 0 1 1 1 0 0 1 0 0 0 1 0 0 0 1 0 1 1 0 0 0 0 1 1 1 0 0 0 0 1 1 0 0 1 0 0 1 0 0 0 1 1 1 0 1 1 1 0 0 0 1 1 0 0 0 0 0 1 0 1 1 0 0 0 1 0 0 0 1 0 1 0 1 1 0 0 0 1 1 1 1 0 1 0 1 1 0 0 1 1 1 0 1 1 1 0 1 1 0 0 1 0 0 0 1 1 0 1 1 1 0 0 0 1 1 1 1 0 1 0 0 1 1 0 1 0 1 0 1 1 1 0 0 0 0 1 0 1 0 0 0 0 0 1 0 0 1 0 0 0 1 0 0 0 1 0 1 1 1 1 1 0 1 0 0 1 0 1 1 0 1 0 1 0 1 1 0 0 1 0 1 0 1 1 0 0 0 0 0 1 1 1 0 1 0 1 1 0 1 0 0 1 0 0 1 1 0 1 0 0 1 0 1 0 0 0 1 1 0 1 1 1 0 1 1 1 0 0 1 1 0 1 1 0 0 0 1 1 1 1 0 1 1 1 0 1 0 0 1 1 0 1 0 1 0 1 1 1 1 0 0 1 0 0 1 1 1 1 1 1 1 0 1 0 0 0 1 1 1 1 1 1 1 0 1 1 1 0 1 1 1 0 0 1 0 0 0 1 1 0 0 1 0 1 0 0 1 0 0 1 1 0 0 0 1 0 0 1 0 1 1 0 0 1 1 0 1 0 0 1 1 0 0 0 0 1 0 1 1 1 1 0 1 1 0 0 0 0 0 1 1 1 1 1 0 0 1 1 0 0 1 1 1 1 1 0 1 1 0 1 1 0 0 1 0 0 0 0 0 0 1 0 0 1 1 1 0 0 0 1 1 1 1 0 1 0 1 0 0 1 1 0 1 0 0 0 0 0 0 1 1 1 0 1 0 1 0 0 1 0 1 0 0 0 0 0 1 0 0 1 1 1 0 1 0 0 0 0 0 1 1 0 0 1 1 0 1 1 0 0 0 0 0 0 1 0 0 0 0 0 0 0 1 1 1 1 1 1 1 0 1 0 1 0 0 1 0 1 1 1 0 1 1 1 0 1 0 0 1 0 0 0 1 0 1 0 0 1 0 1 0 1 1 1 0 1 1 0 0 0 1 0 1 1 0 0 0 1 0 0 1 1 0 0 1 1 0 1 1 1 1 1 0 1 0 1 1 0 1 0 1 0 1 1 0 1 0 0 1 0 0 0 1 0 1 0 0 1 1 1 1 1 1 0 1 0 1 0 0 1 1 1 1 0 0 1 1 1 1 0 1 0 1 1 0 0 0 0 1 0 0 0 1 1 0 1 1 1 0 0 0 1 1 0 0 0 0 0 0 0 0 0 0 0 1 0 1 0 0 0 0 0 0 1 0 1 0 1 1 0 0 0 1 1 1 0 0 0 0 1 1 0 0 0 0 1 1 1 0 0 0 1 0 0 1 1 1 0 0 1 0 0 1 0 1 1 1 0 0 0 0 1 0 0 1 1 0 0 0 1 0 0 0 1 0 0 0 1 0 0 0 1 1 1 1 0 1 0 0 1 0 1 1 0 0 1 0 1 0 0 1 0 1 1 0 1 0 0 1 0 0 0 1 1 1 0 0 1 1 1 0 0 0 1 1 0 1 1 1 0 1 1 1 1 0 0 1 1 1 0 1 0 0 1 0 1 1 1 0 1 0 0 0 1 1 0 1 0 1 0 1 1 1 0 0 1 0 1 0 1 0 0 0 0 1 1 1 1 0 0 1 1 0 1 0 1 1 1 0 1 0 1 1 1 0 0 0 1 1 1 1 0 0 1 0 1 0 0 1 1 1 1 0 1 0 1 1 1 1 0 1 1 1 0 1 0 0 0 0 0 1 1 0 1 0 1 0 0 1 1 0 1 1 0 1 0 0 1 0 0 1 1 0 1 0 1 0 1 1 1 0 0 1 1 0 1 0 1 0 1 1 1 1 1 0 1 1 1 0 0 1 0 1 1 0 0 0 0 0 1 1 0 0 1 1 0 0 1 1 1 0 1 0 0 0 0 1 0 0 0 0 0 1 1 1 1 1 1 0 0 0 0 0 0 0 0 1 0 0 0 1 1 0 0 0 1 1 0 1 0 0 0 0 0 1 1 1 0 0 0 1 1 1 0 1 0 1 0 0 1 0 0 0 0 0 1 1 0 1 0 0 1 1 0 1 0 0 0 0 1 0 0 1 1 1 0 1 0 0 0 1 0 1 1 0 1 0 1 1 0 0 1 0 1 0 0 1 1 1 1 0 1 1 0 0 1 1 0 0 0 1 0 1 0 1 0 0 1 0 0 0 0 0 1 1 1 1 0 0 0 0 1 1 0 1 1 0 1 1 0 0 1 0 1 0 0 0 0 0 1 0 0 0 1 1 0 0 0 1 0 0 0 1 1 1 1 0 0 0 1 0 1 0 1 1 1 1 1 0 0 1 0 0 1 1 0 1 1 0 1 1 1 0 1 0 0 1 0 1 1 0 0 0 0 1 1 1 1 1 1 0 0 0 0 1 1 1 1 0 0 1 1 1 1 1 1 0 0 1 1 0 1 1 1 1 1 0 1 1 1 0 1 0 0 0 1 1 1 0 0 1 0 0 1 0 0 0 1 1 0 0 0 0 0 0 1 1 1 0 0 0 1 1 1 1 0 1 1 0 0 0 1 0 0 1 0 1 1 0 1 0 1 1 0 0 0 0 0 1 0 1 0 0 0 1 1 0 1 0 1 1 0 1 1 1 1 1 0 0 1 0 1 0 0 1 0 0 1 0 0 1 1 1 1 1 0 0 1 1 1 1 1 1 1 0 0 1 0 1 0 1 1 0 0 1 0 1 1 1 0 0 1 0 1 0 1 0 1 0 0 1 1 0 0 1 0 0 0 1 1 0 0 1 1 1 1 0 1 1 1 0 0 0 1 0 0 0 0 1 1 1 0 1 0 1 0 0 1 1 1 0 0 1 1 1 0 1 1 1 1 1 0 1 1 0 0 1 0 1 0 0 0 0 1 0 0 0 0 0 0 1 0 0 1 1 0 0 1 1 1 1 0 0 1 0 1 0 1 1 0 0 1 0 0 0 1 1 0 1 1 1 1 1 1 0 0 0 1 1 1 0 1 0 0 1 0 1 0 1 1 1 1 1 0 0 1 1 1 1 0 0 0 1 0 1 1 1 1 1 1 0 1 0 0 0 1 0 0 0 1 1 0 0 0 0 1 1 0 1 0 0 0 1 1 1 1 1 0 0 0 0 0 0 1 0 1 1 1 1 0 1 1 1 1 0 1 0 0 0 1 0 0 1 1 1 1 1 1 1 0 1 1 1 0 0 1 1 1 1 0 1 0 1 0 0 0 0 1 1 1 0 1 0 1 1 0 1 0 0 0 1 0 1 0 0 0 1 1 0 1 0 1 0 1 0 0 0 1 1 0 1 0 0 0 1 0 0 1 1 1 1 1 1 0 1 1 0 0 1 0 0 1 1 0 1 0 1 1 1 1 0 1 0 0 0 1 0 0 1 0 0 1 0 0 0 0 1 1 1 0 1 1 0 0 1 0 1 1 1 0 0 0 0 0 0 1 1 1 0 0 1 0 0 1 0 0 0 0 0 0 0 0 0 1 0 1 1 0 0 1 1 1 0 0 0 0 0 1 0 1 1 1 1 1 0 1 1 1 1 1 1 1 1 0 1 1 0 0 0 0 0 1 1 1 0 1 0 1 1 0 1 0 0 1 1 1 0 1 1 1 0 0 1 0 0 1 0 1 1 0 0 0 0 1 1 0 0 1 1 0 1 1 1 1 1 1 0 1 1 0 1 1 1 1 1 1 1 1 0 0 0 0 1 1 1 1 0 1 1 0 0 1 1 1 0 0 1 1 0 0 1 1 0 1 0 0 0 1 0 1 0 1 1 0 1 0 0 1 0 0 1 0 1 0 0 1 1 1 1 1 0 0 1 1 1 1 1 1 1 1 1 0 0 1 1 0 1 1 1 0 0 0 1 0 0 1 0 0 1 1 0 0 0 0 1 1 1 0 0 1 1 0 1 0 0 1 1 1 1 0 1 1 0 0 1 0 1 0 1 1 1 0 1 0 1 1 1 0 1 0 0 0 1 0 0 1 1 0 0 0 0 1 1 0 1 0 1 1 0 0 1 0 1 0 0 0 1 1 0 1 0 1 1 1 0 0 0 1 0 1 0 0 1 0 1 0 0 0 1 1 0 0 1 1 1 0 0 0 1 0 0 1 1 1 1 0 1 0 0 0 1 1 0 0 0 1 0 1 1 1 1 0 0 0 1 0 1 1 0 0 1 1 0 0 1 0 0 0 1 0 0 0 0 1 0 1 1 1 1 0 0 0 1 0 0 0 1 1 1 1 0 1 0 1 1 1 0 0 1 0 1 0 0 1 0 1 0 1 1 1 1 0 1 1 1 1 1 0 0 1 1 1 0 1 1 0 1 1 1 0 0 0 0 1 1 0 1 1 0 0 0 1 1 0 0 0 1 1 1 1 0 1 1 0 0 0 1 1 0 0 0 0 0 0 0 0 1 0 0 1 0 0 0 1 0 0 1 0 0 0 0 0 1 1 0 0 0 1 1 0 1 0 0 1 0 0 0 0 0 0 1 0 1 1 0 0 0 0 0 0 0 0 0 0 1 0 1 0 1 1 0 0 0 0 0 1 0 0 1 0 0 1 1 1 1 1 0 0 1 0 0 0 0 1 1 0 0 0 0 1 0 0 1 0 0 1 0 1 0 1 1 0 1 0 1 1 0 1 0 0 0 0 1 1 0 0 0 0 1 1 0 1 0 1 0 1 0 1 1 0 0 0 0 0 1 1 0 0 0 0 0 0 1 1 0 1 1 0 0 0 0 0 1 0 0 1 1 0 1 1 1 1 1 0 1 0 0 0 1 0 1 1 1 1 1 1 0 1 1 1 1 0 0 0 1 0 0 1 1 0 0 0 1 0 1 0 0 1 1 0 1 0 0 1 0 0 0 1 1 1 0 0 1 0 0 1 0 0 0 1 1 0 1 0 0 1 0 0 1 0 1 1 0 1 0 1 0 1 1 1 0 0 1 1 0 0 0 0 1 1 1 0 1 1 1 0 1 0 0 0 1 1 0 1 1 0 0 0 1 0 1 0 0 0 0 1 1 1 0 1 1 0 0 0 1 0 0 1 0 1 1 1 0 1 1 0 0 0 0 1 0 0 0 0 0 1 1 0 1 0 1 0 1 0 1 0 0 1 0 0 1 1 1 1 0 1 1 0 1 0 1 0 1 1 0 0 1 1 0 0 1 1 0 0 1 0 1 1 1 1 1 0 0 1 0 0 1 1 0 0 1 1 0 1 0 1 0 1 1 0 0 0 0 1 1 0 1 1 1 0 0 0 0 0 0 1 0 0 1 1 1 0 1 1 1 1 0 1 0 0 0 0 0 1 1 0 1 0 1 1 0 1 1 1 0 0 0 1 0 0 1 0 1 0 0 1 1 1 1 0 1 1 1 0 0 1 0 1 0 0 0 0 1 1 0 1 0 1 1 0 0 1 0 0 0 1 1 1 1 1 1 0 0 1 1 0 1 1 0 1 1 0 1 1 1 0 0 0 1 1 0 1 1 0 1 0 1 0 1 0 1 0 0 1 0 1 0 1 0 1 1 0 0 0 1 1 1 0 0 0 1 0 1 1 0 1 0 1 0 1 0 0 1 1 0 1 1 0 0 1 0 1 0 0 0 0 0 1 0 0 1 0 0 0 0 1 0 1 0 1 0 1 1 0 0 0 0 0 0 1 0 1 0 0 0 1 0 1 1 1 0 0 1 0 0 0 0 1 1 1 1 0 0 1 0 0 1 1 1 0 0 0 1 0 1 0 1 1 1 0 1 0 1 0 1 0 0 1 0 1 1 0 0 0 0 1 0 0 0 1 1 1 1 1 1 1 0 1 1 1 0 1 1 1 0 1 1 0 1 0 0 0 1 1 0 1 0 1 1 1 1 1 1 0 1 1 1 0 0 1 1 1 0 0 1 1 0 0 1 1 0 1 0 0 1 1 0 0 0 1 0 1 0 0 0 0 1 1 0 0 0 1 1 1 1 1 1 1 0 1 1 0 1 0 0 0 1 0 1 0 0 1 0 1 1 1 0 1 1 1 1 1 1 1 1 0 0 1 0 0 1 0 0 1 1 0 0 0 0 0 1 1 1 0 0 1 1 1 0 1 1 1 1 0 0 1 1 1 0 0 1 1 0 1 1 0 0 1 1 0 1 0 0 1 1 0 1 0 1 1 0 1 0 1 1 0 0 1 1 0 0 1 0 1 1 0 0 1 0 0 0 0 1 1 0 0 1 1 0 0 1 1 0 1 1 1 1 0 0 0 1 1 0 1 1 1 0 0 0 1 0 0 1 1 1 1 0 0 1 0 1 0 0 0 0 0 1 0 0 1 0 1 1 1 1 0 0 0 1 0 1 1 1 0 1 0 1 0 1 0 0 1 1 0 1 0 0 1 0 0 0 1 0 1 1 1 1 1 0 1 1 0 0 0 0 0 0 1 1 0 0 1 1 0 0 1 0 1 1 0 1 1 1 0 0 1 0 1 0 1 1 0 1 0 1 0 1 1 1 0 1 0 1 0 0 1 0 1 0 1 0 0 0 1 0 0 0 1 0 1 0 1 1 0 0 1 1 1 0 0 0 0 0 0 1 0 1 0 0 1 0 0 0 1 0 0 1 1 1 1 1 0 0 0 0 1 0 0 1 1 1 0 0 0 1 1 0 1 0 0 1 1 0 0 1 1 0 0 0 0 1 0 0 0 0 1 1 0 1 0 1 0 0 0 0 1 1 1 1 0 0 0 0 0 0 0 0 0 1 1 0 0 0 1 0 0 1 1 1 0 0 0 1 0 1 0 1 1 1 1 1 1 1 1 1 0 0 1 1 0 0 1 0 0 1 0 0 1 0 0 1 0 0 1 0 1 1 1 0 0 1 1 0 1 1 0 0 0 1 1 0 1 1 1 0 1 1 0 0 0 0 1 0 1 1 1 1 1 1 1 0 0 1 1 1 1 0 0 1 0 1 0 1 0 0 1 0 0 1 0 1 0 1 1 1 1 1 0 1 0 1 1 0 1 1 1 0 0 0 0 0 0 0 0 0 0 0 0 0 0 0 0 1 1 0 0 1 0 1 1 1 0 1 1 0 0 1 1 1 1 1 1 1 0 0 0 1 0 0 1 1 0 0 1 0 1 0 1 0 0 1 1 0 0 1 0 0 0 1 1 0 0 0 0 0 1 1 0 0 0 0 0 0 1 0 1 0 1 1 0 0 1 0 1 1 0 1 1 1 0 0 1 1 0 0 0 1 1 0 1 0 0 1 0 1 0 1 1 1 1 1 1 0 1 1 1 1 0 1 0 1 0 0 0 0 0 0 0 1 1 0 1 0 1 0 0 1 1 0 1 1 0 0 0 1 0 0 0 0 1 1 0 1 1 1 1 0 0 0 0 0 0 0 0 1 0 1 1 1 1 0 0 1 1 0 1 0 0 0 0 1 1 1 1 1 0 1 1 0 0 1 0 0 0 1 0 0 1 0 1 1 1 1 0 0 0 1 0 1 1 1 1 0 0 1 0 1 1 1 1 0 1 1 0 0 1 0 1 0 1 0 1 1 1 1 1 0 1 0 0 0 1 1 0 0 1 1 1 0 1 1 0 0 1 1 0 1 1 0 1 1 1 0 1 1 0 0 0 1 0 0 0 1 0 0 1 0 1 0 0 1 1 0 0 0 1 1 0 1 1 0 0 0 1 0 1 1 0 0 0 1 0 1 1 0 0 1 1 1 1 0 0 1 0 1 1 1 1 0 0 1 0 0 0 0 0 1 0 1 0 1 0 1 0 0 1 1 0 1 0 0 1 0 1 0 1 0 0 0 1 0 1 1 0 0 1 1 1 1 1 0 1 0 0 0 1 0 0 0 0 1 0 1 0 0 1 0 0 1 0 1 1 1 1 1 0 1 0 0 0 0 1 1 0 0 1 1 0 0 1 1 0 1 1 1 1 1 1 0 0 1 1 1 0 0 1 0 0 1 1 1 0 1 1 1 1 0 1 1 1 1 1 1 0 0 0 1 1 0 1 0 1 0 1 1 1 1 0 0 0 1 0 1 1 1 1 0 1 0 1 1 1 1 1 1 0 1 0 0 0 0 0 0 1 0 1 1 0 1 1 1 1 0 1 1 0 0 0 0 1 1 0 1 0 1 0 1 0 1 0 0 1 1 1 1 0 0 0 0 0 1 1 1 0 1 0 1 1 1 1 0 0 1 1 0 1 0 1 0 1 0 0 0 0 1 1 0 1 1 0 1 1 0 1 1 1 0 0 0 0 1 0 0 1 1 1 0 0 0 1 0 1 1 1 0 0 0 1 1 0 1 1 1 1 0 0 1 1 0 0 1 0 1 1 1 1 1 0 0 1 0 1 0 0 0 1 0 1 1 1 1 1 1 0 1 0 1 0 1 0 0 0 0 0 0 0 1 0 1 0 1 0 1 0 0 1 0 0 0 0 1 1 0 1 0 0 0 1 1 1 1 0 0 1 1 0 1 1 1 0 1 1 1 1 0 1 0 1 1 0 1 0 0 0 0 1 1 0 0 1 1 1 0 1 1 0 1 1 0 1 1 1 1 1 1 1 1 1 1 0 1 0 1 1 1 1 0 1 1 1 0 0 1 0 1 0 1 0 1 0 1 0 0 0 0 0 0 0 1 0 0 0 0 1 0 0 1 0 1 1 0 1 0 0 0 1 0 0 1 0 1 1 0 1 0 1 0 0 0 1 1 0 1 1 0 1 0 1 1 1 1 1 1 0 0 0 1 1 0 1 0 0 1 0 1 1 0 1 1 0 0 1 1 1 1 1 0 0 0 0 0 1 1 0 0 0 0 1 0 1 1 1 0 1 0 0 1 1 1 1 1 1 1 1 0 0 0 1 0 1 0 1 1 1 0 1 0 1 1 1 0 0 0 0 1 0 1 1 1 0 0 0 1 0 1 1 0 0 1 1 1 0 0 0 1 1 1 1 1 1 1 1 1 0 0 0 1 1 1 0 1 1 1 1 1 0 1 1 0 1 0 0 0 0 1 1 1 0 0 0 1 1 0 0 1 0 1 0 0 1 0 1 0 1 1 0 1 0 1 0 0 0 1 0 0 1 0 1 1 0 1 0 1 1 1 0 1 0 1 1 0 1 0 0 1 0 0 0 0 0 1 0 1 0 1 0 0 1 1 1 1 0 0 1 0 0 1 0 1 1 0 0 0 1 1 0 0 1 1 0 1 1 0 1 1 0 0 1 1 0 0 0 1 1 1 0 0 0 1 0 0 0 0 0 1 0 0 0 1 1 0 0 0 0 0 1 1 0 1 0 0 0 0 1 1 0 1 1 1 0 1 0 0 0 0 0 0 0 0 0 0 1 1 1 1 1 0 0 0 1 0 1 1 1 1 1 1 0 0 0 0 0 0 0 0 1 0 0 0 1 1 0 1 0 1 0 1 0 1 0 0 0 0 1 1 0 0 0 0 1 1 1 0 1 0 0 1 0 1 1 0 1 1 0 1 0 1 0 0 1 0 1 0 0 0 0 1 1 1 0 0 1 1 0 0 1 0 0 0 1 0 1 1 1 1 0 1 0 0 1 0 1 0 0 0 0 0 1 1 1 1 1 1 1 0 1 1 0 1 1 1 1 0 1 0 1 1 0 1 0 0 0 0 1 0 1 0 1 0 1 0 1 0 0 1 1 1 0 1 0 1 0 1 0 1 1 0 1 0 1 1 0 0 0 0 0 0 1 0 0 1 0 1 1 1 0 1 1 0 1 0 0 0 1 0 1 1 0 0 0 0 1 0 1 1 1 0 1 1 1 0 1 0 1 0 0 0 0 0 0 1 0 1 1 1 1 0 0 1 1 1 1 0 1 1 0 0 1 0 1 0 1 0 0 1 1 0 1 1 0 0 1 0 1 1 1 1 0 0 0 0 0 0 1 0 0 1 1 1 0 0 0 1 1 0 1 0 0 1 1 0 0 0 1 1 0 0 0 0 0 0 0 1 1 0 0 1 1 0 1 0 0 1 0 1 1 1 0 0 1 0 0 0 0 1 1 1 0 0 0 1 1 0 1 1 1 0 0 0 0 0 1 0 1 1 0 1 0 0 1 0 0 0 0 1 0 0 1 1 0 0 1 0 1 1 0 0 0 1 0 0 0 0 1 1 1 0 0 1 1 1 1 0 1 1 0 1 0 1 0 0 0 1 0 0 1 0 0 0 1 0 0 1 0 0 1 0 1 1 0 1 1 1 1 1 1 0 1 1 1 1 0 0 0 1 0 0 1 1 0 1 1 1 1 0 0 0 1 1 1 1 1 0 1 0 0 1 1 0 0 0 1 1 1 1 0 0 0 0 1 1 1 1 1 0 1 1 1 1 1 1 1 0 1 1 1 1 1 1 1 0 0 0 1 1 1 1 1 1 0 0 0 0 0 1 1 1 0 1 0 1 0 0 0 1 0 1 1 0 1 1 0 1 1 0 0 1 1 1 1 0 0 0 1 1 0 1 1 0 0 0 1 0 0 0 0 0 0 0 1 1 0 1 1 1 1 1 0 0 0 0 1 1 1 0 1 0 0 0 0 0 1 0 1 1 1 1 1 0 1 1 0 1 0 0 0 1 1 0 1 1 1 1 1 1 1 1 1 1 0 1 1 1 1 1 1 1 1 0 0 1 0 0 1 1 1 0 0 0 0 0 1 0 1 0 1 0 0 1 1 0 0 1 1 1 1 0 0 1 1 1 0 0 1 1 0 1 1 0 0 0 1 1 1 0 0 0 1 1 1 0 0 1 1 1 0 0 0 1 1 1 0 1 1 0 1 1 0 1 1 0 1 0 1 0 0 1 1 0 0 1 0 0 0 0 0 0 1 0 0 0 1 1 0 0 0 0 1 1 0 1 0 0 1 0 0 1 0 0 0 0 0 1 1 1 1 0 0 0 1 1 0 0 1 1 0 0 0 1 0 1 1 0 1 0 1 1 1 1 1 1 1 0 0 1 0 1 1 1 0 1 1 1 1 1 0 1 1 0 1 1 1 0 0 0 1 1 1 1 0 0 1 1 1 1 1 0 1 0 0 0 0 0 1 1 0 1 1 0 1 1 0 1 1 0 0 1 1 1 1 1 1 1 0 1 1 0 0 1 1 1 0 0 0 1 1 1 0 0 0 1 0 1 1 0 0 0 0 1 1 0 0 1 1 0 0 0 0 0 0 0 1 1 0 0 1 0 0 0 1 1 0 1 0 1 1 0 0 0 1 0 1 0 0 0 0 1 1 0 1 0 0 1 1 0 0 1 0 1 1 1 0 0 1 0 1 0 0 1 0 1 0 0 0 0 1 1 1 1 1 0 0 0 1 0 0 0 0 1 1 0 1 0 0 1 1 1 0 1 1 0 1 0 0 0 0 1 0 1 0 1 0 1 0 0 0 0 1 1 0 1 1 1 0 0 1 1 1 1 0 1 1 1 0 0 0 1 0 1 0 1 1 0 0 1 0 0 1 1 0 0 1 0 1 1 0 0 1 1 0 0 0 1 0 1 1 1 1 0 0 1 1 1 1 1 1 1 1 1 0 0 1 0 1 1 1 1 1 0 1 0 0 1 1 1 1 0 0 1 0 0 1 1 0 1 0 0 1 1 1 0 1 1 0 1 0 1 1 0 1 1 0 0 1 1 0 1 1 1 0 0 0 0 1 1 0 0 0 1 1 0 0 1 0 0 0 1 1 1 1 1 0 0 1 0 0 0 1 0 1 1 1 0 0 0 1 0 1 0 1 0 1 0 1 0 0 0 0 0 0 0 0 0 0 1 0 1 0 0 0 0 0 1 1 1 0 0 1 1 1 0 0 0 1 1 1 1 0 0 1 0 1 0 0 1 1 1 0 0 0 1 0 1 1 1 1 1 0 1 0 0 1 0 1 1 1 1 1 0 0 1 0 1 0 0 0 1 0 0 0 1 0 0 0 0 1 1 1 1 0 1 1 0 0 1 0 1 0 1 0 1 0 1 1 1 0 1 0 1 0 1 0 1 0 0 1 1 1 0 1 1 0 0 1 1 1 0 0 1 1 0 1 1 0 0 0 0 1 0 0 0 0 1 0 1 0 1 1 0 0 1 1 0 0 1 1 1 0 1 1 1 0 1 0 1 1 0 0 0 0 1 1 1 1 0 0 1 0 0 1 1 0 0 0 1 1 1 1 0 1 1 1 1 0 1 0 1 1 0 0 0 0 1 0 0 0 1 1 0 0 1 0 0 0 0 0 1 0 1 1 0 1 1 1 0 1 0 1 1 1 1 1 1 1 0 0 1 1 1 0 0 0 0 1 1 1 0 0 1 0 1 0 0 1 1 1 0 0 1 0 0 1 1 0 1 1 0 0 1 1 0 1 0 0 1 0 0 1 0 0 0 1 1 1 1 0 1 1 0 1 0 1 0 0 1 0 0 0 0 1 0 1 1 0 0 1 1 1 1 0 0 0 0 0 0 0 0 1 1 1 0 1 1 0 1 1 1 0 1 1 1 0 1 1 1 1 0 1 1 0 0 0 0 1 0 0 0 1 1 1 1 1 1 0 1 1 0 0 1 0 1 1 1 1 1 0 0 1 0 1 1 0 0 1 1 0 0 1 0 1 1 1 1 0 1 0 0 1 0 1 0 0 0 0 0 0 0 0 1 0 0 1 1 0 1 1 1 0 1 1 0 1 1 0 1 1 0 1 0 0 0 0 1 1 0 1 1 0 0 1 0 1 0 0 1 1 0 0 0 1 0 0 1 1 0 0 0 1 0 0 0 0 1 0 1 1 0 1 0 0 0 1 1 0 0 0 1 1 0 1 0 0 1 1 0 0 1 1 0 0 0 1 0 0 0 0 1 1 1 0 0 0 0 0 0 1 1 1 0 1 1 1 0 0 0 0 0 1 0 1 1 0 0 1 0 0 0 1 1 0 0 1 0 1 0 1 0 0 1 1 0 1 0 0 1 1 1 0 0 0 0 1 1 0 0 0 0 0 0 0 1 0 1 0 1 1 1 0 1 1 1 1 1 1 1 1 1 0 1 1 1 0 0 1 1 0 1 0 0 0 0 1 1 1 1 1 0 1 1 0 0 1 1 0 0 0 1 1 1 1 1 0 0 0 1 0 0 1 1 0 1 1 0 1 1 1 1 0 1 0 1 1 1 1 1 1 0 1 0 1 0 1 0 0 0 0 0 0 0 1 0 0 0 0 0 0 1 0 1 0 1 0 1 0 1 0 1 1 1 1 1 1 1 0 0 0 0 1 0 1 0 0 1 0 1 1 0 0 1 1 0 1 0 0 1 1 1 1 1 1 0 1 1 0 1 0 0 1 1 0 0 0 1 1 1 0 0 1 1 0 1 0 0 0 0 0 1 1 0 1 0 1 1 1 0 0 1 0 1 0 0 1 1 1 0 1 0 0 0 1 1 1 0 0 1 1 1 0 1 1 1 0 0 1 1 0 1 0 1 1 1 1 0 0 0 0 1 1 1 1 0 1 1 1 1 1 1 1 0 1 1 1 0 1 1 1 0 0 1 0 0 0 1 1 0 0 0 0 0 0 0 0 0 0 1 1 0 1 1 1 1 1 1 1 1 1 0 1 1 1 1 0 0 1 1 1 0 0 1 0 1 0 0 0 0 0 1 0 1 0 0 0 1 1 0 1 0 1 1 0 0 1 1 0 0 0 1 0 1 0 1 0 1 1 0 0 1 1 1 0 0 0 1 1 0 0 1 1 0 1 1 0 1 1 1 1 0 0 0 1 1 1 1 0 0 0 1 1 0 1 0 0 1 1 0 0 0 1 1 0 0 0 0 1 0 0 1 1 1 0 0 0 0 0 1 0 0 0 0 0 1 1 1 0 0 0 0 1 1 1 1 0 0 0 1 0 0 0 0 0 1 0 0 0 0 1 0 0 1 0 0 1 0 1 0 1 0 0 0 1 1 0 1 1 0 0 0 0 0 0 1 1 1 0 1 1 0 0 1 1 0 1 1 0 0 0 0 1 0 1 0 0 1 1 1 1 1 0 0 0 0 0 0 1 1 0 0 1 1 1 0 1 1 1 1 1 0 1 1 0 1 0 1 0 1 0 1 1 1 0 1 1 1 1 0 1 0 1 0 0 0 1 0 0 1 0 0 1 0 1 0 1 1 0 1 0 1 1 0 0 0 0 1 0 0 0 0 0 0 1 1 0 1 0 1 1 0 1 1 0 0 0 0 0 0 1 1 1 1 0 0 0 0 0 1 0 0 1 0 1 1 1 0 1 1 1 0 0 0 0 1 0 1 1 1 1 0 1 1 1 1 1 1 1 0 0 1 0 1 0 0 1 1 0 0 1 1 1 0 0 1 1 0 1 1 0 1 1 1 1 1 0 0 1 0 1 0 1 0 0 0 1 0 1 0 1 1 0 0 1 1 0 1 1 1 1 1 1 1 1 0 1 0 1 0 1 1 0 0 0 0 1 0 0 0 0 1 1 0 1 1 1 1 0 0 0 1 1 1 0 0 1 1 1 1 0 1 1 1 0 0 1 0 0 0 0 1 1 1 1 0 1 1 0 0 0 1 0 1 0 1 0 0 0 0 0 0 0 1 1 0 0 0 0 1 1 1 0 1 0 0 0 1 1 1 0 0 0 0 1 1 0 1 1 1 0 1 1 1 0 1 0 1 0 1 1 0 1 1 1 0 1 0 1 0 0 1 1 1 0 1 1 1 1 0 1 1 0 0 1 0 0 0 1 1 1 0 1 1 0 1 0 1 0 1 1 1 0 1 1 0 0 0 0 1 1 1 1 1 0 0 1 0 0 0 0 1 0 1 1 1 0 0 0 0 0 1 0 1 0 0 1 1 0 1 1 1 1 1 0 1 0 0 0 0 1 0 1 0 1 1 0 0 0 1 0 1 1 1 0 0 1 1 1 1 0 0 1 1 0 1 0 0 0 1 0 0 0 1 1 1 1 1 1 1 0 1 0 1 0 0 1 0 0 1 1 1 0 0 1 1 1 1 0 0 1 0 0 0 1 0 0 1 0 0 0 1 0 1 0 0 1 1 1 1 0 1 1 1 0 0 0 1 1 0 1 0 0 0 1 0 0 1 1 1 1 1 0 1 1 1 0 1 0 0 1 0 0 1 0 0 1 1 1 0 1 0 1 1 1 1 1 0 0 0 0 0 0 0 1 1 1 1 1 0 0 1 0 1 0 1 1 1 1 0 0 0 1 1 0 1 1 0 1 1 1 1 1 0 0 0 1 1 0 1 1 1 0 1 0 0 1 0 0 0 1 1 1 0 0 1 0 0 1 1 1 1 0 0 1 1 0 0 0 1 0 1 0 1 1 1 0 1 0 1 0 1 1 0 0 1 0 0 0 0 1 0 1 1 1 1 1 1 1 1 0 1 0 1 0 0 0 0 0 1 1 0 0 0 0 0 1 0 0 1 0 1 1 1 1 1 0 0 0 0 1 1 1 1 1 0 1 1 1 1 0 1 1 1 1 0 1 1 0 0 1 1 1 0 0 1 1 1 1 1 0 1 0 1 0 0 0 0 1 0 1 1 0 0 1 0 1 1 0 0 1 1 1 1 0 0 0 0 0 0 1 0 0 1 0 1 0 1 1 0 1 0 1 1 0 0 1 0 1 0 0 1 0 1 0 0 1 1 0 0 1 1 1 1 0 0 0 0 1 1 0 1 0 0 1 0 0 1 0 1 1 0 1 0 1 0 0 1 1 1 0 0 0 0 0 0 1 1 0 0 1 1 1 0 1 1 1 1 0 0 1 0 1 0 0 0 0 1 0 0 1 1 1 1 0 0 1 0 0 1 1 1 1 1 0 0 1 1 1 0 0 1 1 1 0 1 0 0 0 0 0 0 1 0 1 0 1 0 0 0 1 0 0 0 1 0 1 0 1 1 1 0 0 0 0 0 0 1 1 1 0 0 0 0 0 1 1 1 0 1 1 0 0 1 1 0 1 0 1 1 0 1 0 1 0 0 0 0 1 0 1 1 1 1 0 1 1 0 0 0 0 0 1 0 0 1 0 0 1 1 0 1 0 1 0 1 1 0 1 1 0 0 0 1 1 0 0 1 0 0 1 1 0 1 0 0 0 1 0 0 1 0 1 1 1 1 0 0 1 1 1 0 1 0 1 0 0 0 0 1 0 1 0 1 1 1 0 1 1 1 1 1 1 0 1 1 0 0 0 0 0 0 0 0 0 0 1 1 0 0 1 1 1 0 1 1 1 0 0 0 1 0 1 0 0 0 0 0 0 0 1 0 1 1 0 1 0 0 1 0 0 0 1 0 1 0 1 1 1 0 1 1 1 0 0 0 0 1 1 1 0 1 1 1 0 1 1 0 0 0 1 1 0 0 1 0 1 1 1 0 1 0 1 0 1 0 0 0 0 1 0 0 1 0 1 1 1 0 0 1 1 0 1 0 0 0 0 0 1 0 1 0 1 0 1 0 1 1 1 0 1 0 1 0 0 1 1 0 0 1 1 1 1 1 0 1 1 1 0 0 1 1 1 1 1 0 1 1 0 1 1 1 1 1 0 1 0 1 0 0 1 0 1 0 1 1 1 0 1 1 1 0 1 1 1 1 1 1 1 1 1 1 1 0 1 1 1 0 0 0 1 1 1 1 0 1 1 0 1 1 0 0 1 1 0 1 0 1 0 1 1 0 0 1 0 1 1 0 0 0 1 0 0 0 1 1 0 0 1 0 0 1 0 0 1 0 0 0 0 0 0 1 0 1 1 0 1 0 1 0 1 1 0 0 0 0 1 1 1 0 1 0 1 0 1 0 0 0 0 1 1 0 0 1 0 0 1 1 1 1 0 1 1 0 1 0 1 1 0 0 1 0 1 0 0 1 0 1 0 1 1 0 1 0 1 0 0 0 0 0 0 0 0 1 0 1 0 0 0 0 1 1 0 1 1 0 1 1 1 0 1 1 1 1 1 0 0 0 1 0 0 1 1 1 0 1 1 0 0 0 1 0 1 1 1 1 1 1 0 0 0 1 0 0 0 1 1 1 0 0 1 0 0 1 1 0 1 1 1 0 0 1 1 1 0 1 1 0 0 1 1 0 0 1 1 1 1 1 1 1 0 1 0 1 1 1 0 1 1 0 1 0 1 1 1 1 1 0 0 1 1 1 1 1 0 0 0 0 1 1 1 0 0 0 1 1 1 1 0 0 0 1 0 1 1 1 0 1 1 0 0 0 0 0 0 1 0 1 1 1 0 0 1 1 0 1 0 1 0 0 1 1 0 1 1 0 1 1 1 1 0 0 0 1 1 0 1 0 1 0 0 0 0 0 0 0 0 0 1 1 0 1 1 1 1 1 1 1 1 1 1 0 1 1 0 1 1 0 1 0 1 0 0 1 1 1 1 0 0 1 1 1 1 0 1 0 0 0 0 0 1 1 1 1 0 1 0 1 0 1 0 0 1 1 0 0 0 1 0 0 1 0 0 0 1 1 0 1 1 1 0 0 1 0 1 0 1 1 0 1 0 1 1 1 1 0 0 0 0 0 0 0 0 0 1 0 0 0 1 1 0 0 1 0 1 1 1 1 1 0 0 1 0 1 1 1 0 1 1 0 0 1 0 1 1 0 0 0 0 0 1 1 1 1 1 0 1 1 1 0 1 1 1 1 0 1 0 0 0 0 1 0 0 0 1 1 1 0 1 1 0 1 1 1 1 1 0 1 0 0 1 0 1 0 0 0 0 0 0 0 0 1 1 1 0 1 0 1 0 0 0 0 0 0 1 0 0 0 1 0 1 1 1 1 0 1 0 1 1 0 1 0 1 0 1 0 0 0 1 1 1 1 0 1 0 1 0 1 0 1 1 0 0 1 1 1 1 0 0 1 0 1 0 1 1 1 1 1 0 0 0 1 0 0 1 0 0 1 0 1 0 0 1 1 0 0 1 1 1 1 0 0 1 1 1 0 1 1 0 1 0 0 1 0 0 1 0 1 1 1 0 0 1 1 1 0 0 1 1 0 0 0 0 0 0 0 1 1 1 1 1 1 1 0 0 1 0 1 0 0 1 0 1 0 1 0 0 0 0 0 0 0 1 1 0 1 0 0 1 1 0 1 1 1 0 1 1 1 1 1 0 1 1 1 1 1 0 1 0 1 0 1 0 0 0 0 1 1 0 0 0 0 0 1 1 0 0 0 1 0 0 1 0 0 1 0 0 0 1 0 1 0 1 1 1 1 0 0 0 1 0 1 1 0 0 1 1 1 1 1 1 1 1 0 1 1 0 1 0 1 1 0 0 1 0 0 0 0 0 1 0 1 0 1 1 1 0 0 1 0 1 0 0 0 0 0 1 0 1 1 0 1 1 1 0 0 0 1 0 0 1 0 0 0 0 0 0 0 1 1 1 0 1 1 0 0 1 1 1 1 1 0 1 0 1 0 0 0 1 0 0 1 0 1 0 0 0 1 1 0 1 1 1 1 0 1 1 0 1 0 1 0 0 1 1 1 0 0 0 0 1 1 1 0 1 0 1 1 0 1 1 1 1 1 0 1 0 1 1 0 1 1 1 1 0 1 0 0 1 1 0 1 0 1 0 1 0 0 1 1 1 1 0 0 0 0 0 0 0 0 1 1 1 0 0 1 0 0 1 1 1 0 0 0 1 0 0 1 1 1 1 1 0 0 1 1 1 0 0 0 0 1 0 0 0 1 1 1 1 0 1 0 1 1 1 0 0 0 1 1 0 0 1 0 1 1 1 0 1 0 1 0 1 0 1 0 0 0 0 0 1 0 1 0 0 0 1 0 1 1 1 1 1 0 1 1 0 0 1 1 0 1 1 0 0 1 0 0 0 0 1 0 0 0 0 1 0 1 0 0 1 1 1 1 1 0 0 1 0 1 0 1 1 1 1 1 1 1 1 1 1 0 0 1 1 0 0 0 1 1 1 1 1 0 1 0 1 0 0 1 1 1 0 1 1 1 1 1 0 0 0 0 0 1 1 1 1 1 0 0 0 0 1 1 1 0 1 1 0 0 0 0 0 0 1 0 1 1 0 0 1 1 1 1 1 1 0 0 1 1 0 1 1 0 0 0 1 0 0 1 0 0 1 0 1 1 1 0 1 0 0 1 1 1 0 1 1 1 0 0 1 1 1 1 1 1 0 1 0 0 1 0 0 1 0 1 0 0 0 1 0 0 1 1 0 0 0 0 1 1 0 0 0 0 0 1 0 1 1 0 0 0 1 1 0 0 0 0 1 1 1 1 1 0 1 1 1 1 0 0 0 0 1 1 0 0 0 0 1 0 1 0 0 1 0 0 0 0 0 0 1 0 1 1 1 1 0 1 1 0 0 1 0 1 0 1 0 1 1 0 0 0 0 0 0 0 1 0 0 0 0 0 1 0 1 0 0 1 1 0 1 0 1 0 0 1 0 1 1 0 1 0 1 0 1 1 0 1 1 0 0 0 0 0 0 0 1 1 0 1 0 1 0 0 1 1 1 0 1 1 1 1 0 1 0 1 0 1 0 0 1 1 1 0 1 1 0 0 1 0 0 0 0 1 1 1 0 0 1 1 0 0 0 1 1 1 1 0 1 0 1 0 1 0 1 1 1 0 0 0 0 1 0 0 0 1 0 0 1 1 0 0 0 0 0 0 0 1 0 0 0 1 1 1 1 0 0 0 0 1 1 1 0 1 1 1 1 0 0 0 1 1 1 0 0 0 1 0 1 0 0 0 1 1 0 1 1 1 1 1 0 1 1 0 1 0 0 0 0 0 0 1 1 0 1 1 1 0 1 0 0 1 1 0 0 0 0 1 1 0 1 1 1 0 1 1 1 1 1 1 0 1 0 0 1 0 1 1 1 1 0 1 1 0 1 0 0 0 1 0 1 1 0 0 0 1 1 0 1 1 0 0 1 1 1 0 1 0 0 0 1 1 1 1 1 1 1 1 0 1 0 0 1 0 1 1 1 1 1 0 0 0 0 0 1 0 0 1 1 0 1 1 1 0 0 0 0 1 0 0 0 0 1 1 0 0 1 1 0 0 0 1 1 0 1 1 0 1 0 1 1 0 0 0 0 0 0 1 1 0 0 1 1 1 0 0 1 1 0 1 0 0 1 1 1 0 1 0 0 1 0 0 1 1 0 1 1 0 1 0 0 1 1 1 0 0 0 0 1 1 1 1 0 1 1 1 0 1 1 0 1 1 1 1 0 0 1 1 0 1 0 1 1 1 0 1 1 0 0 1 1 1 1 0 0 1 0 1 0 1 0 0 1 1 1 1 0 0 0 1 0 0 0 0 0 1 1 1 1 1 0 0 1 0 0 1 1 0 1 1 0 0 1 0 1 1 1 1 1 0 1 1 0 0 0 1 1 0 0 0 0 0 1 1 0 1 0 1 0 1 0 0 0 0 1 0 1 1 1 0 1 0 1 0 0 0 1 0 1 0 1 1 0 1 1 0 1 1 0 0 0 0 0 1 0 0 1 0 1 0 1 1 0 0 1 0 1 1 0 0 1 1 0 0 0 1 1 1 0 1 0 0 1 1 1 1 0 1 0 0 1 0 0 0 1 0 0 1 0 0 1 0 1 1 1 1 0 1 0 0 1 1 1 1 1 0 1 0 0 0 1 1 0 0 0 0 1 1 0 1 0 0 0 0 1 1 1 0 1 0 0 1 0 0 0 1 1 1 1 0 0 1 1 1 1 1 0 1 1 1 0 0 1 0 0 0 1 0 0 1 0 0 0 0 1 1 1 1 1 0 0 1 1 1 1 1 0 0 1 0 0 1 0 0 0 1 1 0 0 0 0 0 0 0 1 0 1 0 1 0 1 1 1 1 0 1 0 0 1 0 0 1 0 1 0 0 0 1 0 1 0 1 0 1 0 1 0 0 0 1 1 0 1 1 1 0 1 0 0 0 1 1 0 0 0 0 1 0 1 1 0 0 1 0 1 1 0 0 1 0 1 0 0 1 0 1 1 1 1 0 1 1 0 1 0 0 0 0 1 1 0 0 1 1 1 1 0 0 1 0 0 1 0 0 0 0 1 0 1 1 0 0 1 0 0 1 0 0 0 0 0 1 0 1 0 0 0 1 1 1 1 0 0 0 1 1 0 0 0 1 0 0 1 1 0 0 1 0 1 0 1 1 0 1 1 1 1 1 0 0 0 0 0 1 1 1 1 0 0 0 0 1 0 1 0 1 1 1 0 1 1 1 1 0 0 1 0 0 1 0 1 1 1 1 0 1 0 1 1 0 0 0 0 0 1 1 0 1 0 1 1 1 0 0 0 1 1 0 1 0 0 1 1 1 1 0 0 1 1 1 0 1 0 1 1 1 0 0 1 0 1 0 1 1 0 1 0 1 1 1 0 0 1 0 0 1 1 0 0 1 0 1 1 0 0 0 0 1 1 1 1 0 1 1 0 0 0 0 0 0 0 0 1 0 1 1 1 1 0 1 0 0 0 1 1 1 1 0 0 1 0 0 1 0 0 0 1 0 1 1 1 0 1 1 0 0 1 1 0 1 0 0 0 1 0 0 1 1 1 1 0 0 0 0 0 0 0 1 0 0 0 1 1 1 1 1 0 1 1 1 0 0 0 1 0 0 0 1 1 1 1 1 0 0 0 1 0 1 1 1 0 0 1 1 0 0 0 0 1 0 1 0 0 1 1 0 1 0 1 0 1 1 1 1 1 1 1 1 1 1 1 1 1 0 1 1 1 1 1 1 1 0 0 0 0 0 1 1 1 0 1 1 0 0 0 1 1 1 1 0 1 0 1 0 1 0 1 1 1 1 1 0 0 0 1 1 1 1 1 0 1 0 1 0 1 0 0 0 1 1 0 0 0 0 1 0 0 0 1 1 1 1 1 1 1 1 0 0 1 0 0 0 1 1 0 1 1 0 1 1 1 1 1 0 0 1 1 1 1 1 1 1 1 1 1 0 0 1 1 1 0 0 0 0 1 1 1 0 1 0 1 1 1 0 0 0 0 1 1 1 1 0 1 1 0 0 0 1 0 1 1 0 1 0 1 0 0 0 1 1 0 1 1 0 1 1 1 0 0 1 1 1 1 1 1 0 0 1 0 1 1 1 1 1 1 1 1 0 0 0 1 0 0 0 1 0 0 0 0 0 1 1 0 0 0 1 0 1 1 1 0 1 0 1 0 0 0 0 0 1 0 1 0 0 0 0 1 1 0 0 0 0 1 1 1 1 1 1 0 1 1 1 0 1 0 1 1 1 1 0 1 1 1 0 1 0 0 0 0 1 0 0 0 0 1 1 1 1 0 0 0 0 1 0 1 1 1 1 1 1 1 0 0 1 1 1 1 1 1 0 1 1 1 1 1 1 0 1 1 0 0 0 0 0 0 1 1 1 1 0 1 1 1 0 1 1 0 0 1 0 0 1 0 0 1 0 1 0 0 0 0 1 0 0 1 1 0 1 1 1 1 1 0 1 1 1 0 0 1 0 0 0 0 1 1 0 1 1 0 1 0 1 1 0 0 0 0 0 1 0 0 1 1 0 1 0 1 0 0 1 0 1 0 0 1 0 0 0 0 1 0 1 1 0 1 1 1 1 0 0 1 1 1 1 0 1 1 0 0 0 1 0 0 1 0 1 0 1 0 0 1 1 0 1 1 1 1 1 0 0 1 1 1 0 1 1 1 1 1 0 0 0 0 1 1 0 1 0 0 0 1 0 0 0 0 1 0 0 0 1 1 1 0 0 1 0 1 0 1 1 0 0 1 0 1 1 0 0 1 0 1 1 0 0 0 1 0 1 1 1 0 0 1 1 1 0 0 1 0 1 0 1 0 0 1 1 1 1 1 0 0 1 1 1 1 0 1 0 0 0 0 0 1 0 0 0 1 0 0 1 1 1 0 1 1 1 0 0 0 1 1 0 1 1 0 1 0 1 1 0 1 0 0 1 0 0 1 1 0 1 0 1 0 0 1 1 0 0 0 0 0 1 0 0 0 0 0 0 1 0 0 0 0 1 0 1 1 1 1 1 1 1 1 0 1 1 1 0 1 0 0 0 1 1 1 0 0 0 1 0 0 1 1 0 1 1 1 1 1 1 1 0 0 0 0 0 1 0 1 0 0 1 0 0 1 0 0 1 0 0 1 0 1 1 0 0 1 0 0 1 1 0 0 0 1 0 0 1 0 0 0 1 1 0 1 1 0 1 0 0 0 0 1 0 1 1 1 1 1 1 1 0 1 0 1 1 0 0 1 0 0 1 0 1 0 1 1 0 0 0 1 0 0 1 1 1 0 1 1 0 0 0 1 1 0 1 1 0 1 1 0 0 1 1 0 1 0 1 0 1 0 0 0 0 1 1 0 0 1 0 0 1 0 1 0 1 0 0 1 0 1 0 0 1 0 0 0 0 1 0 1 0 0 0 0 0 0 1 0 0 1 1 1 1 0 1 0 0 1 0 1 1 0 0 0 0 0 1 0 0 1 1 1 0 0 0 0 0 0 1 0 0 1 1 0 0 0 0 1 1 0 1 0 0 1 0 1 0 0 1 1 1 1 0 0 0 1 1 1 0 1 0 1 0 1 1 1 1 1 0 0 1 0 1 1 0 1 1 0 0 1 1 1 0 1 0 0 1 0 0 1 1 0 1 1 1 1 1 1 0 0 0 1 1 1 1 0 0 1 0 1 0 0 1 0 0 0 0 0 1 0 1 0 1 0 1 1 1 1 0 0 1 1 1 1 1 1 0 1 1 0 0 1 0 0 1 0 0 0 1 1 1 0 0 1 0 1 1 0 0 1 1 0 0 1 1 1 0 1 0 0 0 1 0 0 1 0 0 0 0 0 1 0 1 1 0 0 1 1 0 0 0 1 0 0 1 0 0 0 1 0 1 0 0 0 0 1 0 1 0 1 1 1 0 0 1 1 1 1 0 1 1 0 0 1 0 1 1 0 1 1 1 1 0 1 1 1 1 1 0 0 0 0 0 0 0 1 1 0 1 0 0 0 1 1 0 0 1 0 0 1 1 1 0 0 0 0 1 0 1 0 1 0 0 0 0 1 0 0 1 0 0 0 0 1 1 1 0 1 0 0 0 0 0 0 1 1 0 0 0 1 0 0 1 0 0 0 1 1 0 1 1 0 1 0 1 1 1 0 0 0 0 1 1 1 0 1 1 1 0 1 1 1 0 1 0 0 1 0 0 1 0 0 1 0 1 1 0 0 1 1 0 0 0 0 0 0 0 0 1 1 0 0 1 1 0 0 1 0 0 1 0 0 1 1 0 1 1 1 1 0 0 1 1 0 0 0 0 0 1 0 1 1 1 0 0 0 1 1 1 0 1 1 1 1 1 0 0 1 0 0 1 1 1 1 0 1 1 0 1 1 1 0 0 1 1 1 1 0 0 0 0 1 1 0 1 0 0 0 0 1 1 1 1 1 1 1 0 0 1 0 0 1 0 1 0 0 1 0 0 1 1 1 0 1 1 1 1 0 1 0 1 0 1 1 1 1 1 1 1 1 1 0 0 0 0 0 0 1 1 1 0 0 1 0 1 1 0 1 0 1 1 1 0 1 1 1 1 0 0 1 0 0 1 1 0 0 0 0 1 1 1 0 0 0 0 0 1 0 0 0 0 0 0 1 1 0 1 0 1 1 1 0 1 1 0 1 1 1 0 1 0 1 1 1 0 0 0 1 1 1 0 1 0 1 1 0 0 0 1 1 1 0 0 1 1 1 1 0 0 0 0 0 1 0 1 0 0 1 1 0 1 0 1 0 1 1 1 1 1 1 0 0 1 1 0 0 0 0 1 0 1 1 1 0 0 0 0 0 1 1 0 1 0 1 1 1 1 1 1 1 0 0 0 1 1 0 1 1 1 1 1 0 1 1 0 0 0 1 1 1 0 0 1 0 0 1 0 1 0 1 0 1 0 0 1 1 0 0 0 0 1 0 1 1 1 1 0 0 0 1 1 0 1 1 1 1 1 0 1 1 0 1 1 1 0 0 0 0 0 0 0 0 0 0 0 0 1 0 1 0 0 1 1 0 1 0 0 0 0 1 1 0 0 0 1 0 1 0 0 1 0 0 0 1 1 1 1 0 1 0 0 1 1 0 1 0 1 1 0 0 0 1 1 1 1 1 0 1 0 1 0 1 0 1 1 1 1 0 1 0 0 0 0 1 0 0 0 1 1 1 0 1 1 0 0 1 0 1 0 0 1 1 0 1 1 1 1 0 0 1 1 0 0 1 0 1 1 0 1 0 1 0 1 0 0 1 0 0 1 1 0 0 1 1 0 1 0 1 1 0 0 1 1 0 1 0 0 1 1 1 0 1 1 0 0 1 0 0 0 1 1 1 0 1 1 0 0 0 1 1 0 0 0 0 0 1 1 1 0 1 1 0 1 1 0 1 0 1 0 0 0 0 1 0 1 1 0 0 1 1 1 1 1 1 1 0 0 0 0 1 1 1 1 1 0 0 1 0 1 0 1 1 0 1 0 1 1 1 1 1 1 0 0 1 0 0 0 0 0 0 0 1 1 1 1 1 0 1 0 0 1 1 0 0 0 0 0 0 0 1 0 1 0 0 1 1 0 1 0 0 1 0 1 0 0 0 0 1 0 0 1 1 1 1 0 1 1 0 1 1 0 0 1 0 0 1 0 1 1 0 0 0 1 0 0 1 0 0 0 1 1 0 0 0 0 0 1 1 0 1 1 0 1 1 1 0 1 1 1 0 0 0 1 0 1 1 1 0 0 1 0 1 0 0 0 1 1 1 0 1 1 0 1 0 0 1 1 1 1 1 0 0 0 1 1 0 0 0 0 1 1 0 0 0 0 1 0 1 1 0 0 1 1 1 0 1 0 1 1 0 1 1 1 0 1 0 1 0 0 0 0 1 0 0 0 1 0 1 0 0 0 0 0 1 1 0 1 0 0 0 1 1 0 0 0 1 0 0 0 0 1 0 0 1 0 0 0 0 0 1 0 0 1 0 0 1 0 1 1 0 1 1 0 1 0 0 0 1 0 1 0 0 1 0 1 0 0 0 1 0 0 1 0 1 0 1 0 0 0 1 1 1 0 0 1 0 0 1 1 0 0 1 1 1 1 1 0 1 0 1 1 0 0 1 0 1 1 0 1 0 0 1 0 0 0 1 1 0 1 1 0 1 0 0 1 1 0 0 0 1 1 1 1 0 0 1 0 1 1 0 0 1 0 0 1 1 0 0 1 0 0 1 0 0 0 1 1 1 0 0 0 1 1 1 0 0 1 1 1 0 1 0 1 0 1 0 1 0 0 1 0 1 0 1 0 0 0 1 0 1 0 0 0 0 1 0 0 0 1 0 1 1 1 1 1 0 0 0 1 0 1 0 0 1 0 1 0 0 0 1 0 0 0 1 0 0 1 0 1 1 0 1 0 0 1 1 0 0 0 0 1 0 0 1 0 0 1 0 1 1 1 0 0 1 1 0 0 1 1 0 0 0 0 1 1 0 1 1 1 1 1 0 0 0 1 0 1 0 1 1 1 0 1 1 1 1 1 1 1 1 1 1 0 0 1 0 1 0 0 0 0 1 1 1 1 0 1 0 0 1 0 1 1 0 1 1 0 0 0 0 1 1 0 0 0 0 0 0 1 0 1 1 1 0 0 1 0 0 0 0 0 0 0 1 1 1 1 0 0 0 0 1 1 0 0 0 0 1 1 0 0 1 1 1 0 1 0 0 1 1 1 1 1 1 1 1 1 1 1 0 1 1 0 0 1 1 1 1 0 0 1 0 0 1 0 1 0 0 1 0 1 0 0 0 1 0 1 0 0 0 1 1 0 1 0 0 1 0 0 1 1 1 1 0 0 1 1 1 1 0 0 0 0 1 0 0 0 1 1 0 0 0 1 1 1 0 1 1 0 0 0 1 0 1 1 0 1 1 0 1 0 0 1 1 1 1 1 1 1 0 0 1 1 1 1 1 0 0 0 1 1 1 1 0 1 1 1 1 1 1 1 1 0 1 0 1 0 0 1 1 1 1 0 1 0 1 0 0 0 0 0 1 1 1 0 1 0 0 1 1 0 1 0 1 1 0 0 0 1 1 0 1 0 0 0 1 0 0 1 1 1 0 0 1 0 1 0 0 1 0 1 0 0 1 1 1 0 1 0 1 1 0 0 1 0 1 1 0 1 0 0 1 1 1 1 0 1 0 0 1 1 1 1 0 1 0 1 1 0 1 0 1 1 0 0 0 0 0 0 1 1 1 1 1 1 0 1 1 1 0 0 0 1 1 1 1 1 0 0 1 0 0 0 0 1 0 0 1 1 0 0 0 0 0 0 0 0 1 1 0 0 0 1 0 0 1 0 1 0 1 1 1 1 1 0 1 0 1 1 1 1 0 0 1 1 0 1 0 0 1 1 1 1 1 0 1 1 1 1 0 1 1 1 1 1 0 1 0 0 1 1 0 0 1 1 1 1 0 1 1 0 0 0 0 1 1 0 0 0 1 0 1 1 0 1 1 0 1 0 0 0 1 1 1 1 1 0 1 0 1 1 0 0 1 0 1 1 0 1 1 0 0 0 0 0 1 1 0 0 0 0 0 1 1 1 1 1 0 1 1 1 1 0 0 1 1 0 1 0 1 1 0 1 0 0 0 0 0 1 0 1 0 0 0 0 1 0 1 0 0 1 0 0 1 0 0 1 1 0 0 1 1 1 1 1 1 1 1 0 1 1 0 1 0 1 1 1 0 0 1 0 0 1 1 0 0 0 0 1 1 0 1 0 0 1 1 0 1 1 1 0 0 1 0 0 1 1 0 1 1 0 1 1 1 0 1 0 1 0 0 1 0 1 1 1 0 1 1 1 0 0 0 0 1 1 0 0 0 1 0 0 1 0 1 0 0 0 1 0 1 1 1 0 0 0 0 0 1 1 1 1 0 0 1 0 0 0 1 0 0 0 1 0 1 1 1 0 0 0 0 1 1 1 0 1 0 1 1 1 1 0 0 0 0 0 0 1 1 1 1 1 0 1 1 1 1 1 0 0 0 1 0 1 0 0 0 1 0 0 1 0 1 1 1 0 0 1 1 0 1 1 0 1 0 1 1 0 1 0 1 0 1 0 0 1 1 0 0 1 1 1 0 1 1 0 0 0 0 0 0 1 0 0 0 0 1 1 1 0 0 1 0 0 1 1 0 0 0 1 1 1 1 0 0 1 1 0 0 0 1 0 1 0 1 0 0 1 1 1 0 1 1 0 0 1 0 1 0 0 1 1 1 0 1 0 1 0 0 1 1 1 1 0 1 1 1 1 1 0 0 0 0 0 0 1 1 1 1 1 0 0 0 1 1 0 1 0 1 0 0 0 1 0 0 0 1 0 1 1 1 1 0 1 0 0 0 1 0 1 1 1 0 0 0 0 1 0 0 1 0 0 1 1 0 1 1 0 1 1 0 1 0 0 0 1 0 0 1 0 1 0 0 1 0 0 0 0 0 1 0 1 0 0 1 0 0 1 0 1 0 0 0 1 1 1 0 0 1 1 1 1 1 1 1 0 0 1 1 1 0 1 1 1 1 0 1 1 0 1 0 0 1 0 0 1 0 0 1 0 0 1 0 1 1 1 0 1 1 0 1 0 1 1 0 1 0 0 1 0 0 1 0 1 0 0 0 1 0 1 1 0 1 1 1 1 1 1 1 0 1 1 0 0 0 0 1 1 1 0 1 1 0 1 1 0 1 1 0 1 1 0 1 1 1 0 0 1 0 0 1 0 1 0 0 0 1 1 1 0 0 1 0 1 1 1 0 0 1 1 0 1 0 0 0 0 0 1 0 1 0 0 1 0 1 0 0 0 1 1 0 0 1 0 0 0 1 1 1 1 0 1 0 0 1 0 0 0 0 0 0 0 0 1 0 0 0 0 0 1 0 0 0 0 0 1 0 0 1 0 1 0 1 0 0 0 0 0 0 1 0 0 1 1 0 1 0 0 0 0 1 0 1 1 1 1 1 1 0 0 1 0 0 0 0 0 1 1 0 1 0 1 1 0 1 1 0 0 0 1 0 0 1 0 0 1 1 0 1 0 0 0 0 0 1 0 0 0 0 0 0 1 1 1 0 0 1 0 1 1 1 0 1 0 1 1 1 0 1 0 1 1 1 1 0 0 0 0 0 0 1 0 1 1 1 0 0 1 1 1 1 0 0 1 1 0 0 1 0 1 1 1 0 0 0 0 0 1 0 1 0 1 0 1 0 0 0 1 0 1 1 1 1 0 0 1 0 1 1 1 0 1 1 1 0 0 0 0 1 0 1 0 1 1 0 1 1 0 0 1 1 0 1 1 1 0 0 0 0 1 1 0 1 1 1 0 1 1 1 1 1 1 0 0 1 1 0 1 0 0 1 1 0 1 0 1 1 1 1 1 1 1 1 1 0 1 1 0 0 1 1 0 1 0 0 0 1 0 0 0 0 1 0 1 0 1 1 0 0 1 0 1 1 1 0 1 1 1 0 0 1 1 0 1 0 0 1 1 1 1 0 0 1 1 1 0 1 0 1 1 0 1 1 0 0 0 0 0 0 0 0 0 1 1 0 1 0 1 0 0 1 0 0 1 1 1 0 1 0 1 1 0 0 1 0 0 1 0 1 0 0 1 0 0 0 0 0 1 1 0 1 1 0 1 1 1 0 0 0 1 0 0 1 1 0 0 0 1 0 0 1 0 1 0 0 1 1 0 1 1 0 0 0 1 0 0 1 0 1 0 0 1 0 0 0 0 0 0 0 1 0 1 1 1 1 1 1 0 0 0 0 0 0 0 1 0 0 0 1 1 1 1 1 0 0 0 0 1 0 1 0 0 1 1 0 1 0 0 0 1 0 1 0 0 1 0 1 1 0 0 0 1 0 0 1 1 0 1 0 1 0 1 1 1 1 1 0 0 0 1 1 1 1 1 1 0 0 0 1 1 1 1 0 1 0 0 0 1 0 1 0 0 0 1 1 0 1 1 0 0 1 1 1 1 0 1 0 0 1 1 1 0 1 0 0 0 1 1 1 0 0 1 1 1 1 0 1 0 1 1 1 1 0 1 0 0 1 0 0 0 1 1 1 1 0 1 0 0 0 0 1 1 0 1 0 0 1 1 0 1 1 0 1 1 1 1 1 1 1 0 0 0 1 1 0 0 0 0 0 0 0 1 1 1 0 1 1 1 0 0 0 1 0 0 0 1 0 0 0 0 0 0 1 1 1 1 0 0 1 0 1 1 0 0 0 0 0 0 0 1 0 0 1 1 1 0 1 0 0 1 1 1 1 1 1 1 1 1 0 1 0 0 0 0 0 0 1 0 0 1 0 0 0 1 1 1 1 0 1 0 1 0 1 1 0 0 1 0 1 1 0 0 1 1 0 1 1 1 1 1 0 0 1 0 0 0 0 0 1 0 0 1 0 0 0 0 1 0 0 1 1 1 0 1 1 1 1 1 1 0 1 0 0 1 0 0 0 1 1 0 0 0 0 0 1 0 0 0 0 0 0 1 1 1 1 0 1 1 0 1 1 1 0 0 1 0 0 1 1 0 1 1 0 1 0 1 1 0 0 0 1 0 1 1 0 0 0 1 1 1 1 0 0 0 1 1 0 0 0 0 1 0 1 0 0 1 1 0 1 0 1 1 1 0 0 1 1 0 0 1 1 1 1 0 1 0 0 1 0 1 1 0 0 0 0 0 1 1 1 1 1 1 1 1 0 0 1 1 0 0 0 0 1 1 0 0 0 1 0 0 1 1 1 0 1 0 1 1 1 1 0 0 1 1 1 1 1 1 0 0 1 0 1 1 0 0 1 0 0 1 1 1 1 1 0 1 0 0 1 0 0 0 1 1 1 0 1 0 0 1 1 1 1 1 0 1 0 0 1 1 0 0 1 0 1 1 1 0 0 1 0 1 0 1 0 1 0 0 1 0 1 1 1 1 1 0 0 0 0 1 1 0 0 1 1 1 1 0 0 1 1 0 1 0 1 0 1 1 1 1 0 1 0 0 1 0 1 1 0 1 0 0 1 1 1 0 0 1 0 1 0 0 0 1 1 1 1 0 0 0 1 0 1 0 1 1 0 0 1 0 1 0 0 1 1 0 0 0 0 1 1 1 1 0 1 1 0 1 1 0 1 0 1 1 0 1 0 1 1 0 1 0 0 1 1 1 0 0 0 0 1 0 0 0 0 1 1 1 1 0 0 0 0 1 1 0 1 1 1 1 1 0 1 1 1 0 1 1 1 1 0 0 0 1 1 1 0 1 0 1 0 0 0 0 0 0 0 1 0 1 0 0 0 1 1 1 1 1 0 0 0 1 1 1 0 1 1 1 0 0 1 0 0 0 0 1 0 1 1 1 0 0 1 1 1 1 1 0 1 1 1 0 1 1 0 1 1 1 0 0 0 1 1 1 0 1 0 1 1 0 0 0 0 1 0 1 1 1 0 0 1 1 0 1 1 0 0 1 0 0 0 0 1 0 0 0 1 1 1 1 0 1 1 0 0 1 1 0 0 0 1 0 0 0 0 0 0 1 1 1 0 0 0 0 1 1 1 0 0 1 1 0 1 0 1 0 1 1 0 0 0 0 0 0 0 0 1 1 0 1 1 1 0 1 1 1 0 0 1 0 1 0 1 0 0 0 1 0 1 1 0 0 0 1 0 0 0 0 1 0 0 0 1 1 1 0 1 0 1 0 0 0 0 0 1 1 1 1 0 1 0 1 0 0 1 0 0 0 1 1 0 0 0 1 1 0 0 0 0 1 0 1 1 0 0 0 0 1 0 0 0 1 0 0 0 1 1 0 0 0 1 0 1 0 1 0 1 0 1 0 1 0 1 1 1 0 0 1 0 1 1 1 0 0 1 0 1 0 0 0 0 1 0 1 0 1 1 0 1 1 1 1 1 0 0 1 0 0 1 1 1 0 0 1 0 0 0 1 1 1 1 1 1 0 0 0 0 1 0 1 0 1 1 0 0 1 0 1 1 1 1 1 0 0 0 0 0 1 0 1 0 0 0 1 0 1 1 1 0 0 1 1 1 1 1 1 0 0 0 1 1 0 1 1 0 0 0 1 0 0 1 1 0 1 0 1 0 1 1 1 0 1 1 1 0 0 1 0 0 0 0 1 1 0 1 0 0 1 1 0 1 1 0 0 1 0 1 1 0 0 1 1 0 1 1 0 0 0 1 0 0 0 0 1 1 1 0 1 0 0 1 1 1 0 1 1 0 1 1 1 1 1 1 1 1 1 1 0 0 1 0 1 0 0 0 1 0 0 1 0 0 0 1 1 0 0 0 0 1 1 1 0 0 1 0 0 0 0 1 1 0 1 0 0 1 0 1 1 1 1 0 1 1 0 1 0 0 0 1 0 1 0 0 1 1 1 1 1 1 1 1 0 0 0 0 0 0 1 0 1 0 0 1 0 0 0 0 1 0 1 1 0 1 1 1 1 1 1 1 1 1 0 1 1 1 1 1 1 1 1 0 0 0 0 1 0 1 0 1 1 1 0 0 0 1 0 0 0 0 1 0 1 1 0 1 0 1 0 1 0 1 1 0 0 0 0 0 0 0 1 1 1 0 0 0 1 0 0 1 1 1 1 1 0 0 1 1 1 0 1 1 1 0 1 0 1 0 0 0 1 0 0 1 0 1 0 1 1 1 1 1 1 1 1 1 1 0 0 1 0 0 0 0 0 1 1 0 1 0 0 1 1 1 1 1 1 0 0 1 0 1 0 1 0 1 0 0 0 0 0 0 0 0 0 0 0 0 1 1 0 0 0 0 0 1 0 1 0 1 0 1 1 1 0 0 1 0 1 1 1 1 1 0 1 1 1 0 0 0 1 0 0 1 1 0 1 0 1 1 0 1 0 1 1 0 0 1 0 0 1 1 1 0 0 1 0 1 0 0 0 1 1 0 1 1 1 1 0 1 0 1 1 0 0 1 0 0 0 0 1 0 1 0 0 0 1 0 1 1 1 1 1 1 1 1 1 0 1 0 0 0 0 0 0 1 1 1 1 1 1 0 0 1 1 1 0 1 0 0 0 0 1 1 0 0 1 0 1 0 1 1 1 0 1 1 1 1 0 1 1 1 0 0 0 1 0 0 1 1 1 0 1 1 0 0 0 0 0 1 1 1 0 0 1 1 1 0 0 0 0 0 1 0 1 1 1 1 1 0 1 1 0 0 0 1 1 0 0 0 0 0 0 1 1 1 0 0 0 0 0 0 0 0 0 1 0 0 1 1 0 1 1 0 0 1 1 1 1 1 1 1 0 1 0 1 1 0 0 1 1 1 0 0 1 1 0 1 1 0 1 1 1 0 1 0 0 0 0 1 1 0 1 1 1 1 0 0 1 1 0 0 1 1 0 1 0 0 0 0 0 0 1 1 0 1 0 1 1 0 1 0 0 0 0 0 1 1 1 0 1 1 0 0 0 0 0 0 0 1 0 1 1 0 0 1 1 0 0 0 0 0 0 0 1 0 0 1 1 0 1 0 1 0 0 1 0 0 0 1 0 0 0 0 1 1 0 1 0 1 1 1 0 1 1 0 0 1 1 0 1 0 1 0 0 1 0 0 0 0 1 0 0 0 1 0 1 0 0 1 1 0 1 1 1 1 0 1 1 1 0 1 1 0 0 0 1 1 0 0 1 0 0 1 0 0 1 0 1 1 0 1 0 1 0 0 1 1 1 0 1 0 0 1 0 0 1 1 1 0 0 1 0 1 0 1 0 1 1 0 0 0 0 0 1 1 0 1 0 0 1 1 1 1 0 0 0 1 0 0 0 1 0 0 0 1 0 1 0 1 1 1 1 0 0 1 1 1 0 1 0 0 1 1 0 1 1 1 0 1 0 0 0 0 0 1 1 0 1 1 0 1 1 0 0 1 0 1 0 0 0 0 1 0 1 0 1 1 1 0 0 1 0 0 1 0 0 0 1 0 1 1 0 1 0 0 0 1 1 1 1 1 0 1 0 0 1 0 1 1 1 0 1 0 1 0 1 1 0 0 0 0 0 0 1 0 1 1 0 0 0 0 0 0 0 1 0 0 0 0 0 0 1 1 0 0 1 1 0 1 0 0 0 0 0 0 0 1 0 1 1 1 1 1 0 0 1 1 1 1 1 1 0 0 0 0 0 1 1 1 1 0 0 1 0 0 1 0 1 1 1 0 0 0 1 0 1 0 0 0 1 0 0 1 1 0 0 0 0 1 1 1 1 1 0 0 1 1 0 0 0 1 0 1 1 0 1 0 1 1 0 1 0 0 0 0 0 0 0 0 1 1 0 1 0 1 1 1 1 1 1 0 1 0 1 1 1 1 1 1 1 1 0 0 0 0 0 0 0 0 0 0 1 0 0 1 1 0 1 1 1 1 1 0 1 0 0 0 0 0 1 0 0 1 0 0 0 1 1 0 0 0 0 0 0 0 1 0 1 0 1 0 0 0 0 1 1 1 1 0 0 1 1 0 1 0 1 1 1 0 1 0 1 0 0 0 0 0 0 1 0 1 1 1 1 1 1 0 0 1 1 0 0 1 0 0 0 1 0 1 1 1 1 1 0 1 1 0 1 0 0 0 1 0 1 0 0 0 1 1 1 1 0 0 0 1 0 1 1 0 0 0 0 0 1 0 0 0 0 1 0 1 0 0 1 1 1 0 1 0 0 0 1 0 0 1 1 1 1 1 1 1 0 1 1 1 0 1 1 0 0 1 1 1 0 1 0 0 0 1 1 1 0 0 0 0 1 0 1 0 0 1 0 0 0 1 0 0 1 0 0 0 0 0 1 0 0 0 0 0 1 1 0 0 1 1 0 0 1 1 0 0 1 1 1 0 0 1 1 1 0 0 1 1 0 1 0 1 1 0 0 1 0 1 0 1 1 1 1 1 1 1 0 1 0 1 1 1 1 1 1 0 1 0 1 0 0 0 0 1 1 1 1 0 1 1 0 0 1 0 0 0 0 0 1 1 1 1 0 0 0 1 0 0 1 0 0 1 1 0 1 0 0 1 0 1 1 0 1 1 1 0 0 1 1 1 0 0 1 1 0 1 1 1 1 1 0 1 1 0 1 1 1 0 0 1 0 1 1 1 0 1 0 0 1 0 1 1 0 0 1 0 1 0 0 1 1 1 1 0 1 0 1 1 0 0 0 1 0 0 1 0 1 0 0 1 0 1 0 0 0 1 0 1 0 1 0 0 0 0 1 0 1 0 1 0 0 0 0 1 1 1 0 1 1 0 0 0 1 0 0 0 1 0 1 0 0 1 1 0 0 1 0 1 0 0 0 0 1 0 0 1 0 1 1 1 1 1 1 1 1 1 1 1 0 1 0 1 0 1 0 0 1 1 1 1 0 1 1 0 0 1 0 1 1 1 0 0 0 0 1 0 1 1 1 1 1 1 0 0 0 0 0 0 0 1 0 0 1 1 0 0 0 0 0 1 1 1 0 1 0 1 1 0 1 0 0 0 1 1 1 1 1 1 1 0 1 1 1 0 1 0 1 1 0 0 0 1 0 0 1 1 1 1 1 0 0 0 0 0 0 1 1 1 0 1 0 1 1 0 0 1 0 1 1 0 1 0 1 0 0 1 1 0 1 1 1 0 0 1 0 1 0 1 1 0 0 0 0 0 1 0 0 1 1 0 0 1 1 1 0 0 0 1 0 0 0 0 0 1 1 1 1 0 0 1 1 1 0 1 0 1 0 1 1 0 1 0 0 0 0 1 0 0 1 0 0 0 1 1 1 0 0 0 0 1 1 1 0 0 1 0 0 1 0 1 0 1 0 0 0 0 0 1 1 1 1 0 1 0 1 1 1 1 0 1 1 0 1 0 1 1 1 0 1 1 0 1 0 1 0 0 0 1 1 1 1 1 1 1 0 1 1 1 0 1 0 1 0 0 0 0 0 1 1 0 1 0 0 0 1 0 0 0 0 1 0 0 1 0 1 1 1 0 1 1 0 0 1 0 1 1 0 1 1 1 1 1 1 0 1 1 1 0 1 1 1 0 0 0 0 0 0 1 0 1 1 1 0 0 1 1 0 1 0 0 1 1 0 1 0 1 1 1 0 1 0 1 1 0 0 1 1 0 0 0 0 0 1 0 0 0 0 0 1 0 0 0 1 0 0 0 1 1 0 1 0 1 0 1 1 1 1 1 0 1 0 1 1 1 1 0 1 1 0 0 0 1 1 1 1 1 0 0 1 1 0 1 1 1 1 0 1 1 0 1 0 1 0 1 0 0 0 0 1 0 0 1 1 1 1 0 1 1 0 1 1 0 0 1 0 1 0 0 1 1 1 0 0 1 0 0 1 0 1 0 0 0 1 0 0 1 1 0 1 1 1 0 0 0 1 1 0 0 1 1 1 1 0 0 1 1 0 0 0 1 1 0 0 1 0 0 0 1 1 0 1 0 0 0 0 0 0 0 1 1 1 1 1 1 0 0 0 1 1 1 0 0 1 0 0 0 0 1 0 1 0 1 0 1 1 0 0 1 1 0 0 1 0 1 0 0 1 1 1 0 0 1 0 0 0 1 1 1 0 0 1 1 0 0 0 1 1 0 0 1 0 0 1 1 1 1 0 1 1 1 1 0 1 0 1 1 1 0 1 1 1 0 0 1 1 1 1 1 1 1 0 0 1 1 1 1 0 1 1 1 0 0 0 1 0 0 1 0 1 1 0 1 1 0 0 1 1 1 0 1 0 1 0 1 1 0 1 1 0 1 1 0 0 0 1 0 0 0 0 1 1 1 1 1 0 1 0 1 1 0 1 1 1 0 1 0 1 1 0 0 1 1 0 1 0 0 0 0 0 1 0 0 0 0 1 0 1 0 0 0 1 0 0 0 0 0 1 1 0 0 1 1 1 1 1 1 1 0 0 1 1 0 1 0 0 0 0 0 0 1 0 1 1 0 0 1 1 0 0 1 1 0 0 0 0 1 1 0 0 0 1 0 0 0 1 0 1 1 1 1 1 1 0 1 1 0 1 0 0 1 0 1 0 0 1 1 0 1 1 1 1 1 0 0 1 1 1 1 1 1 1 1 1 0 0 1 0 0 1 0 0 1 0 0 0 0 0 1 1 0 0 1 0 0 1 0 1 0 0 1 1 1 0 1 1 0 0 1 0 1 1 0 1 0 0 1 1 1 1 1 0 1 0 1 1 1 0 1 0 1 0 0 1 1 0 0 1 1 1 1 0 1 0 1 0 0 1 1 0 1 0 0 0 1 1 0 0 1 1 1 1 0 1 0 1 0 0 1 0 0 1 0 0 0 0 1 1 0 1 0 1 1 0 0 0 0 0 0 0 0 1 0 0 1 0 0 1 0 0 1 0 0 0 1 1 1 0 0 0 1 0 0 0 1 0 0 0 1 1 0 0 1 0 1 1 0 0 1 0 0 0 1 1 1 0 0 1 0 1 0 0 1 0 0 0 0 0 1 0 0 0 1 1 1 0 0 0 1 1 1 1 0 1 1 0 0 1 1 1 1 1 0 1 0 1 0 1 1 1 1 0 0 1 1 0 1 1 1 0 1 1 1 1 1 0 0 1 1 1 1 0 0 1 0 1 1 0 0 1 0 1 1 1 1 0 0 0 1 1 0 0 1 0 1 0 1 1 1 1 0 0 1 0 1 1 1 1 0 0 0 0 1 0 1 1 1 1 0 1 0 0 0 0 0 1 1 1 0 0 0 0 1 0 1 0 0 1 0 0 1 1 0 0 0 0 0 1 0 0 0 1 1 1 0 0 0 1 1 0 0 1 0 1 1 0 1 0 1 0 1 1 1 1 0 0 1 0 0 1 1 1 1 1 1 1 1 1 1 0 1 1 0 1 1 1 0 1 0 0 1 1 1 0 1 1 1 1 0 1 0 0 1 0 0 0 0 1 1 1 0 1 0 1 0 1 0 1 0 1 0 0 1 1 0 1 0 1 0 0 0 1 0 1 0 1 1 0 0 0 0 1 0 0 0 0 1 0 1 0 1 1 0 0 0 1 1 0 0 0 1 1 1 0 1 1 1 0 0 0 0 0 1 0 0 1 0 1 0 1 1 0 1 0 1 0 0 0 0 1 0 0 1 0 0 1 1 0 1 0 1 0 1 0 1 0 1 1 1 1 0 1 0 1 0 0 0 1 0 1 0 1 0 1 1 1 0 1 1 1 1 1 1 0 1 0 1 1 1 1 0 0 1 1 0 1 1 0 0 1 0 1 1 1 1 0 1 1 1 1 1 1 0 0 0 0 0 1 0 0 1 1 0 1 1 1 0 0 0 1 1 0 1 0 1 1 0 1 0 0 0 0 0 0 1 0 0 1 1 0 0 0 0 1 0 1 1 1 0 0 0 1 1 0 0 0 0 1 1 0 0 0 0 0 1 0 1 0 0 1 0 0 0 1 0 0 1 1 1 0 0 0 0 0 0 1 1 1 0 1 1 1 0 1 1 0 1 1 0 0 1 0 0 0 1 0 1 1 0 0 0 0 0 1 0 0 0 1 1 1 0 0 0 1 0 1 1 0 1 0 1 0 0 0 1 1 0 0 0 1 0 0 0 0 1 1 1 1 1 0 0 1 0 0 1 0 0 0 1 0 1 1 0 1 0 0 0 0 0 1 1 0 1 0 1 0 0 1 1 1 0 0 1 0 0 0 0 1 0 1 0 0 0 0 1 1 0 1 0 0 1 1 0 0 0 1 0 1 1 1 0 0 0 1 1 0 1 0 0 0 0 1 1 1 0 0 0 0 1 0 0 1 0 0 1 0 1 1 1 0 1 1 1 1 1 0 0 1 1 1 1 1 0 1 0 0 1 0 1 0 0 0 0 1 0 0 1 1 0 0 1 1 1 0 0 1 0 0 0 0 0 0 1 0 1 1 0 1 1 1 0 0 0 1 0 1 1 0 1 1 1 1 0 1 1 0 0 1 0 1 0 1 1 1 1 0 0 1 0 0 0 1 0 0 1 0 0 0 0 0 0 1 1 1 0 0 0 0 1 0 1 1 1 1 0 0 1 0 1 1 1 0 1 1 0 0 1 0 0 0 1 1 0 1 1 1 1 0 0 0 0 1 0 1 0 0 0 0 0 1 0 0 0 0 1 0 0 0 1 1 0 1 1 1 1 1 1 0 1 0 1 0 1 1 0 0 1 1 0 1 1 0 0 0 0 1 1 1 0 0 0 1 1 1 1 0 0 1 1 1 1 0 1 1 0 1 0 1 1 1 0 0 0 0 0 0 1 0 0 1 1 0 1 1 1 0 0 0 0 1 0 1 0 0 1 1 0 1 1 0 0 1 1 0 0 1 0 1 1 0 0 0 0 1 1 1 1 0 0 1 1 0 0 0 0 0 1 1 1 0 1 0 0 0 1 1 1 1 1 0 1 1 1 1 0 1 0 0 1 1 0 0 0 0 1 1 0 1 0 0 1 1 1 1 0 1 1 1 1 1 1 0 0 0 1 0 0 1 0 1 0 0 1 1 1 1 1 1 0 1 0 1 0 0 1 1 0 1 1 0 1 0 0 0 1 1 1 1 0 0 0 0 0 1 0 0 0 0 0 1 1 1 0 0 0 0 1 1 1 1 0 1 1 0 0 1 1 0 0 1 1 1 0 1 1 0 0 0 0 0 0 0 0 1 1 1 1 0 0 1 1 0 0 1 0 0 1 1 1 1 0 1 1 0 0 1 0 0 0 1 1 1 1 0 1 1 0 0 1 0 1 0 1 1 1 1 0 0 1 0 1 0 0 0 1 1 1 0 1 0 0 1 1 1 1 0 0 0 0 1 0 1 0 1 0 1 1 0 1 1 1 1 0 0 1 1 1 0 1 0 0 0 0 0 1 0 0 1 1 0 1 0 0 0 0 0 1 0 1 0 0 0 0 0 1 0 1 1 0 1 0 0 0 0 1 1 0 0 1 1 0 1 1 0 0 1 1 0 0 1 1 0 1 1 0 0 0 0 1 0 0 1 1 1 0 0 0 1 0 0 0 1 1 0 0 1 1 0 0 1 1 1 0 1 1 1 0 1 0 1 0 0 1 0 0 0 1 1 1 1 1 1 0 1 0 0 1 1 1 0 0 0 0 1 0 0 0 1 1 1 1 0 0 0 1 1 0 0 0 1 0 0 1 1 0 0 0 0 0 0 0 0 1 0 0 0 0 1 0 1 1 1 1 1 1 0 0 1 1 1 1 0 0 1 0 0 0 1 1 0 0 0 1 1 1 1 1 1 1 1 0 0 0 0 1 1 1 1 0 0 1 1 1 1 0 1 1 0 1 0 0 0 0 0 0 1 1 1 0 1 1 1 0 1 1 1 0 1 1 1 1 1 1 1 1 0 0 0 0 0 0 0 0 0 0 0 1 1 1 0 1 1 0 1 1 1 0 0 0 0 1 0 1 1 0 1 1 1 1 1 1 1 1 1 1 0 0 1 0 0 0 1 1 0 0 1 0 0 1 1 0 1 0 0 0 1 0 1 0 0 1 1 0 1 0 1 0 0 1 0 1 1 1 1 1 0 0 1 1 0 1 1 1 1 0 1 0 0 1 0 0 1 0 0 0 0 1 1 1 0 1 1 0 0 0 1 1 0 1 0 1 1 0 1 1 1 0 1 1 1 1 0 1 0 0 1 1 1 0 0 0 0 0 0 1 1 1 1 1 1 1 0 1 0 0 0 0 0 0 0 0 0 1 0 0 1 0 0 0 0 0 1 1 0 0 1 1 0 1 1 1 0 1 0 1 1 1 1 1 1 1 1 0 0 1 0 0 0 1 0 1 0 0 1 0 0 1 1 0 1 1 1 1 0 0 0 1 1 0 0 1 0 0 0 0 1 1 0 0 1 0 1 0 1 1 1 1 0 1 0 1 1 1 0 0 0 0 1 0 1 0 0 1 1 0 0 0 0 0 0 0 1 1 1 1 0 0 1 0 0 1 0 1 0 1 1 0 0 1 0 1 0 1 1 0 1 1 1 1 1 1 0 0 0 1 0 1 0 0 0 1 1 0 0 1 0 1 0 1 0 0 1 0 0 0 0 0 0 1 0 0 0 0 1 1 0 0 0 1 0 1 1 1 0 0 1 1 1 0 1 1 1 0 0 0 0 1 0 0 1 1 0 1 0 1 0 1 0 1 1 1 1 1 0 0 1 0 0 0 1 0 0 1 1 0 0 1 1 0 0 1 1 1 0 1 0 1 0 1 1 0 1 1 1 1 0 0 0 0 1 1 0 0 0 1 1 1 0 0 0 0 0 1 1 1 1 0 1 0 1 1 1 1 1 1 0 1 0 0 1 1 0 0 0 0 0 0 0 1 1 0 0 0 0 1 0 0 0 1 1 0 0 0 1 1 0 0 1 1 1 0 1 1 1 1 1 0 0 1 0 1 1 0 1 1 1 0 0 0 0 1 1 0 0 1 1 1 0 1 0 1 1 1 1 0 0 0 0 0 0 1 1 0 0 1 0 0 0 1 1 1 1 0 1 0 1 0 0 1 1 0 0 0 1 1 0 1 0 1 1 0 0 1 0 0 1 0 1 1 1 1 1 0 0 0 1 1 1 1 0 1 0 0 1 0 1 0 0 0 1 0 0 0 1 1 1 1 1 1 0 1 0 1 0 1 0 0 1 0 1 0 0 1 1 0 0 1 1 1 0 1 1 1 0 1 1 1 0 0 0 0 1 1 1 0 1 0 0 0 1 0 1 0 0 1 1 0 1 0 0 1 0 1 0 1 1 1 1 0 1 0 0 0 0 1 0 0 0 1 1 1 1 0 0 1 0 1 0 0 1 1 0 0 0 0 1 0 0 0 1 0 1 1 0 0 1 1 0 0 1 1 1 0 1 0 0 0 1 1 1 1 0 0 1 0 0 0 0 1 0 0 0 1 1 1 0 0 0 1 1 1 1 0 1 1 0 1 0 0 0 1 0 1 1 1 0 0 0 1 0 1 1 0 0 0 1 0 1 1 0 1 0 0 1 0 0 0 0 1 1 0 0 0 0 1 1 1 1 1 1 1 0 0 1 1 0 0 1 1 1 1 0 1 1 1 1 1 0 0 0 1 0 0 1 0 1 1 0 0 0 1 1 1 0 1 1 1 1 1 1 0 1 1 0 1 1 1 1 0 1 0 0 1 1 1 0 0 0 0 0 1 0 0 1 0 1 1 1 1 0 0 1 1 1 0 0 1 0 1 1 1 0 1 0 0 0 1 1 0 0 0 1 1 0 0 0 0 0 1 0 1 1 1 0 0 0 0 0 0 1 1 1 1 1 1 0 0 1 1 0 0 0 0 0 1 0 1 0 0 1 0 0 1 1 0 0 1 1 0 1 0 1 1 1 1 0 0 1 0 1 0 0 0 0 1 0 1 1 0 0 1 1 0 1 1 0 0 0 1 1 1 1 0 0 0 0 1 0 0 1 1 0 1 1 1 0 0 1 1 0 1 0 1 0 0 1 0 0 1 0 0 0 0 1 0 1 0 0 0 1 1 1 0 0 1 0 0 1 1 1 0 0 0 1 1 1 1 0 1 0 1 0 1 1 0 0 1 1 1 1 0 1 0 1 1 1 0 0 0 0 0 1 0 0 0 1 0 1 1 1 0 0 0 1 0 0 0 1 1 1 0 0 0 0 0 0 1 1 1 0 0 0 1 0 1 1 1 0 0 1 0 0 0 0 0 0 0 1 0 0 1 0 0 0 0 1 0 0 1 0 0 0 0 1 1 0 1 1 0 0 0 0 1 1 0 0 0 0 1 1 1 0 0 1 0 1 0 0 0 1 0 0 1 0 1 1 0 1 1 0 0 1 1 0 0 0 0 0 1 0 0 0 0 1 0 0 1 0 0 1 1 1 0 1 1 1 1 1 0 1 1 0 0 0 0 0 1 0 1 0 1 1 1 0 0 1 1 1 1 1 0 0 0 0 1 0 1 1 1 1 0 0 1 0 0 1 0 0 1 1 1 1 0 0 1 0 0 0 1 1 1 1 1 0 1 1 1 0 1 0 1 1 0 1 0 0 1 0 0 0 0 0 0 0 1 1 0 0 1 0 1 0 1 0 0 0 1 0 0 1 1 1 1 1 0 1 1 1 1 0 1 1 1 1 1 1 0 0 1 0 0 1 1 0 1 0 1 1 0 0 0 1 0 1 1 0 1 0 1 0 0 0 0 0 0 1 1 0 1 0 0 1 1 0 0 0 0 1 1 0 0 0 0 1 0 1 0 1 0 1 0 0 1 1 1 0 0 0 1 0 1 1 1 0 0 0 0 1 0 1 0 0 0 0 1 1 0 1 0 1 1 0 1 0 1 1 0 1 0 1 1 0 1 1 1 0 0 1 0 0 1 0 1 0 0 1 1 0 1 1 0 0 0 0 0 1 0 0 0 1 1 1 0 1 1 1 0 1 0 0 0 1 0 0 0 0 0 0 1 0 0 0 0 0 1 0 0 1 0 0 0 1 1 1 0 1 0 1 0 1 1 0 1 0 1 1 1 1 1 0 1 1 0 1 1 0 0 0 1 1 0 1 1 1 0 0 1 1 1 0 0 0 0 0 1 0 1 1 1 0 1 1 0 0 0 1 1 0 1 0 0 0 1 1 0 1 0 0 0 0 0 0 1 0 0 1 1 1 0 1 0 0 0 1 1 1 0 1 0 1 0 0 0 1 1 1 0 0 0 0 1 1 0 0 0 1 0 1 1 0 1 0 0 1 0 1 1 0 0 0 0 0 1 1 1 1 0 0 0 0 0 1 0 0 0 0 1 0 0 1 0 0 0 1 0 0 0 1 0 1 1 0 0 0 0 1 1 1 0 1 1 1 1 1 0 0 0 1 1 0 1 1 1 1 1 1 0 0 1 0 1 0 1 1 0 0 1 1 1 1 1 0 1 1 0 1 0 0 0 1 0 0 1 0 0 0 0 0 0 1 0 0 0 0 0 0 0 0 1 1 1 1 0 0 0 1 1 0 0 1 1 0 0 0 1 0 0 1 0 1 0 0 0 1 1 1 0 1 0 1 1 0 1 1 1 0 1 1 1 1 0 1 0 0 0 0 1 1 1 0 0 0 0 1 1 0 0 0 0 1 1 0 0 0 0 0 1 0 0 0 0 1 1 1 0 0 0 0 1 0 1 0 0 0 1 1 0 0 1 0 1 0 0 0 1 1 0 0 0 0 1 0 1 1 0 1 0 1 0 1 0 0 0 0 0 1 1 1 1 1 0 0 0 0 0 1 0 0 0 1 0 0 0 0 0 0 0 1 1 1 0 1 1 1 1 0 1 1 1 0 1 0 1 1 1 0 1 1 0 1 1 0 0 0 0 1 1 1 1 1 0 0 1 1 1 0 1 0 1 1 1 0 0 0 0 1 1 0 1 1 0 0 1 0 0 0 1 0 0 1 1 1 0 1 0 1 1 1 1 0 0 1 1 0 0 0 1 1 1 0 0 1 1 0 0 1 1 0 0 1 0 0 0 0 1 0 0 1 0 0 0 1 1 0 1 1 0 1 1 1 1 0 0 1 1 1 0 1 1 0 0 0 1 0 0 1 0 1 1 1 1 1 0 1 0 0 1 1 1 0 1 0 0 0 1 1 0 1 1 1 0 0 0 0 0 0 1 0 1 1 0 0 0 1 1 0 1 1 0 0 0 1 1 0 1 0 0 0 1 0 1 1 1 1 1 1 1 1 1 0 1 1 1 1 1 0 0 0 0 1 0 0 0 0 0 0 1 1 1 0 1 1 0 0 0 1 1 0 0 1 1 1 1 0 0 0 1 1 0 0 0 1 0 0 1 0 1 1 1 1 1 0 0 0 1 1 1 0 1 1 0 0 0 1 0 0 0 0 0 0 0 0 0 0 1 1 1 0 0 0 0 0 0 0 0 0 0 0 0 1 0 0 0 0 1 0 0 0 0 1 1 0 0 1 0 0 0 0 1 0 0 0 0 0 0 0 0 0 1 0 1 0 0 0 0 1 0 0 1 0 0 0 0 1 1 0 1 1 0 1 1 1 1 0 0 0 0 0 0 1 1 0 1 1 1 1 1 0 0 1 0 1 1 1 1 0 0 0 0 0 1 0 0 0 1 1 0 0 1 1 1 1 1 0 0 1 0 1 1 0 1 0 0 0 1 0 1 1 1 0 0 0 0 0 1 1 0 0 1 0 0 1 0 0 0 1 1 1 1 1 1 0 1 1 1 1 0 0 1 0 1 0 0 0 1 0 1 1 1 1 1 0 1 0 1 1 0 1 0 0 0 1 0 0 1 0 0 1 1 1 0 1 1 1 0 0 0 0 0 1 1 0 0 0 1 1 0 1 1 1 1 1 1 0 0 0 0 0 0 0 0 0 1 0 0 1 1 1 1 1 0 1 0 0 0 0 0 0 1 1 0 1 0 1 1 0 0 1 0 0 0 1 0 1 1 1 1 0 1 1 1 0 0 0 0 1 1 0 0 1 0 0 1 0 0 1 0 1 0 1 0 1 1 1 0 1 0 0 1 1 0 0 0 0 1 0 1 0 0 1 1 0 1 0 1 1 1 0 1 0 0 0 0 0 1 1 1 1 1 1 1 1 1 1 0 0 0 0 0 0 0 0 1 1 1 1 0 0 1 0 0 0 1 1 0 1 0 0 0 0 0 0 0 1 1 1 0 0 0 0 1 1 1 0 1 0 1 1 1 1 0 1 0 0 1 1 1 1 0 0 1 0 1 1 1 0 0 1 1 1 0 0 0 0 1 0 0 1 1 1 1 0 1 1 1 1 0 0 1 0 1 0 1 0 1 1 1 1 1 1 1 0 1 1 0 1 0 1 0 1 0 0 0 1 0 1 0 0 1 1 0 1 0 1 0 1 0 0 1 0 0 1 1 0 0 0 1 1 1 0 1 0 1 1 1 0 1 1 0 1 0 1 1 1 0 1 0 0 0 0 0 0 1 1 1 1 1 0 0 1 1 1 0 1 0 1 1 0 1 0 0 0 0 0 1 0 0 0 0 0 1 0 1 0 0 0 1 1 0 0 1 0 1 1 0 1 0 1 0 1 0 1 1 1 0 1 1 0 0 0 0 1 1 0 1 0 1 1 0 1 1 0 1 1 1 0 0 0 1 0 0 0 1 0 1 0 1 0 1 0 0 1 1 1 0 0 1 0 0 1 0 0 1 0 1 1 1 0 0 1 1 0 0 0 1 0 0 1 0 1 0 0 0 1 0 0 0 1 0 1 1 0 0 1 0 0 1 1 0 1 1 0 0 0 0 0 1 1 0 1 1 1 1 1 1 0 0 1 0 0 0 1 1 0 1 0 1 0 1 0 0 0 0 1 0 0 1 0 0 1 1 1 0 0 1 1 0 1 0 1 0 1 0 1 0 0 0 1 0 1 1 1 0 1 1 1 0 1 1 1 0 0 1 1 1 0 1 1 0 1 1 1 1 0 0 1 0 1 1 1 0 1 1 0 0 1 1 0 0 0 1 0 0 1 0 1 1 1 1 0 1 1 1 0 0 1 1 1 1 0 0 1 0 1 0 1 1 1 0 0 0 1 0 1 0 0 0 0 1 1 0 1 1 0 1 1 1 0 1 1 1 1 0 1 1 0 0 1 0 1 0 1 0 0 1 0 0 1 1 0 0 1 0 1 0 0 0 0 1 0 1 0 1 0 1 1 0 0 0 0 1 0 1 0 1 0 1 0 0 0 0 0 0 0 1 1 0 1 0 0 1 0 0 1 0 1 0 1 0 0 0 1 0 1 0 1 1 0 0 0 1 1 1 1 1 0 1 0 0 1 0 0 0 0 0 1 1 1 1 0 0 0 1 1 1 0 0 1 1 0 0 1 1 1 1 0 1 1 0 0 0 0 0 0 0 1 1 0 0 1 0 0 1 0 1 1 0 1 1 1 1 1 0 1 0 1 1 0 1 1 1 0 0 0 1 1 0 1 1 0 1 1 0 1 0 1 1 1 0 0 1 1 1 0 0 1 1 1 1 0 0 1 1 1 1 0 0 1 0 0 0 1 0 1 0 1 1 0 1 0 1 0 1 0 1 1 0 1 1 0 0 1 0 0 0 1 1 0 0 0 1 0 0 1 1 1 1 0 0 1 1 0 1 0 1 0 0 0 0 0 1 1 1 1 1 1 1 1 0 1 0 1 0 1 1 1 1 0 0 1 1 0 1 1 1 0 1 0 1 1 0 0 1 1 0 1 1 0 1 0 1 1 1 1 0 1 1 1 1 1 1 1 0 0 1 1 0 0 0 0 0 0 0 0 0 1 1 1 1 0 0 0 1 1 0 1 0 1 1 1 1 1 1 0 0 1 0 0 0 0 0 1 1 1 0 0 1 1 0 0 1 0 1 1 1 1 1 1 1 1 0 1 1 1 0 0 0 0 0 1 0 1 1 1 0 0 0 0 1 1 1 1 1 0 1 0 1 0 1 0 0 0 1 1 0 1 1 1 0 1 1 0 1 1 1 1 1 1 0 1 1 1 1 0 1 0 0 0 1 1 0 0 1 0 0 1 1 0 1 0 0 1 0 0 1 0 1 0 0 0 1 0 1 1 1 1 0 1 1 0 0 1 1 0 0 1 0 0 1 1 0 0 1 0 0 0 1 1 1 0 1 1 0 1 1 1 1 0 1 0 0 0 0 1 1 0 0 0 1 0 1 1 1 0 0 1 0 0 1 0 0 1 0 1 0 1 1 1 1 1 1 0 0 1 1 1 1 1 0 0 1 0 1 0 1 1 1 0 1 1 0 0 0 0 1 1 0 0 0 0 0 0 1 1 0 1 0 0 0 0 1 1 1 1 0 1 1 0 1 0 0 0 0 1 0 1 1 0 1 1 1 0 0 1 0 1 1 1 0 1 0 0 0 0 1 0 1 0 0 1 0 1 0 0 0 0 0 1 1 1 0 1 1 1 0 1 0 0 0 1 0 1 0 1 1 0 1 1 1 0 1 0 1 0 1 1 0 0 1 1 0 0 1 1 1 0 1 0 1 1 1 0 1 1 0 0 0 1 0 1 0 0 1 0 1 1 0 1 1 1 1 1 0 1 1 0 1 1 1 0 0 0 1 1 0 1 0 1 1 0 0 1 1 1 1 0 0 0 0 1 0 0 1 1 1 1 1 0 1 0 1 0 1 1 0 0 1 0 1 0 0 0 0 1 0 0 0 1 1 1 0 1 1 1 0 1 0 1 1 0 1 0 1 0 1 0 0 0 0 0 0 1 1 1 0 0 1 0 1 1 0 1 0 0 1 0 1 1 1 1 1 0 0 0 0 0 0 0 0 1 0 0 0 1 1 0 0 1 0 0 0 1 0 1 0 1 1 1 1 1 0 1 0 0 1 0 0 1 0 1 1 0 0 1 1 1 0 1 1 1 0 0 0 1 1 1 0 1 0 0 0 1 1 0 0 0 0 1 0 1 0 1 0 0 1 0 0 1 1 0 0 0 0 1 0 0 0 0 0 1 0 1 1 0 0 1 0 1 0 0 0 0 1 0 0 1 1 0 0 0 0 0 0 0 0 0 1 1 0 1 1 1 1 0 1 1 0 0 1 1 1 1 1 1 0 0 1 1 0 1 0 1 0 1 1 0 0 1 1 0 1 0 0 0 1 1 0 0 1 1 1 0 0 1 0 0 1 1 1 1 0 0 0 1 0 0 1 1 1 1 1 1 0 0 0 1 0 1 1 1 0 1 1 1 1 0 1 1 0 1 0 0 0 0 0 1 0 1 1 1 1 0 1 1 1 1 0 0 0 0 1 1 1 0 0 0 1 0 1 0 0 0 1 0 0 0 0 0 1 1 0 1 1 0 0 1 0 1 1 1 0 1 1 1 1 0 1 1 1 1 0 1 0 0 0 0 1 0 1 0 0 0 0 1 0 0 0 0 0 0 0 1 0 1 0 1 0 0 0 0 1 0 0 0 0 0 1 1 0 0 0 1 1 1 1 1 0 0 0 0 0 1 1 1 1 0 1 0 1 0 1 0 1 1 1 1 1 0 0 1 0 0 0 0 0 1 0 1 1 0 0 0 0 0 0 1 0 0 1 0 1 0 1 0 1 1 1 1 1 1 0 1 1 0 1 1 1 1 0 0 0 1 0 1 0 0 1 0 0 1 1 1 0 1 0 1 0 1 0 1 0 0 0 0 1 1 1 0 1 1 0 1 0 1 0 0 1 1 1 0 1 1 1 0 1 1 0 1 0 1 0 0 0 0 1 1 0 0 0 1 1 1 1 0 0 1 0 0 1 1 0 1 1 1 0 1 1 1 0 1 0 0 0 0 1 1 0 0 0 1 0 1 0 1 0 1 1 0 1 1 0 1 1 1 0 1 1 0 0 0 0 1 0 1 1 1 1 0 0 1 0 1 0 0 0 1 1 1 1 1 1 0 1 0 1 0 0 1 1 0 1 1 1 0 1 0 1 0 0 0 0 1 1 0 0 1 1 0 1 1 1 0 0 1 1 1 1 0 1 1 0 1 0 1 0 1 0 1 0 0 0 0 1 1 0 1 0 1 0 1 1 1 1 1 1 0 1 1 0 0 1 1 1 0 0 1 1 1 1 0 1 1 1 0 1 0 1 1 0 1 0 0 0 0 1 0 1 1 0 1 0 0 1 1 1 0 1 0 0 0 1 1 0 1 0 0 0 0 0 1 0 1 1 0 1 0 1 1 1 1 1 1 1 0 0 1 0 1 1 1 0 1 1 0 0 1 1 0 1 0 0 0 0 1 1 1 1 1 0 1 1 1 0 1 1 0 1 0 1 1 1 1 1 0 1 1 0 1 0 0 1 1 1 1 1 0 0 0 0 0 0 0 0 1 0 0 1 0 0 1 1 1 0 0 0 0 0 0 0 0 1 0 1 1 0 1 0 1 0 0 0 0 1 1 1 1 0 1 0 1 1 0 0 1 0 1 1 0 0 0 0 1 0 0 1 1 0 1 1 1 1 1 1 1 0 1 1 0 0 0 0 1 0 1 1 0 0 1 0 1 1 0 1 0 0 0 1 0 1 1 1 1 0 0 1 0 0 1 1 0 0 0 1 0 0 1 0 0 1 0 0 1 0 0 1 0 1 1 0 1 1 1 1 0 0 1 1 0 0 1 1 0 1 1 0 0 1 0 1 1 0 1 0 0 0 0 1 0 0 0 1 1 1 1 1 1 0 0 1 1 1 1 0 1 0 0 1 1 0 0 1 1 1 1 1 1 1 0 1 1 0 1 0 0 1 1 1 1 0 1 0 1 1 0 1 0 0 1 1 0 1 0 1 0 0 0 1 1 1 1 0 0 0 0 0 1 1 1 0 1 1 1 1 1 0 0 0 0 0 0 1 0 1 1 0 1 1 1 1 1 1 0 1 0 1 0 0 0 0 0 0 1 0 1 1 0 1 1 1 0 1 1 1 0 0 1 0 0 1 0 0 1 0 0 1 1 0 1 0 1 0 0 1 1 1 0 1 1 1 0 0 0 1 1 1 0 1 1 0 1 1 1 1 1 0 0 1 0 0 0 0 1 0 1 0 0 0 0 0 1 0 1 0 1 1 0 0 0 1 0 1 0 1 1 0 1 1 1 1 0 1 0 0 0 0 1 1 1 1 0 1 0 1 1 0 0 0 0 0 1 1 1 0 1 1 1 0 0 1 0 1 1 1 1 0 1 1 1 1 0 1 0 0 1 0 1 0 1 0 0 0 1 0 1 1 0 0 1 0 0 1 1 0 1 1 0 0 1 0 0 0 0 0 0 1 0 1 0 0 1 0 0 1 0 0 1 0 1 0 0 0 1 1 1 0 0 1 1 0 1 0 1 0 0 1 1 1 1 1 0 1 1 0 0 0 0 1 0 0 1 0 1 0 1 1 1 0 0 1 0 1 0 1 0 0 0 1 0 0 1 0 1 1 0 0 1 1 0 0 1 0 1 1 0 0 0 0 1 0 0 1 0 1 1 0 0 0 1 1 1 1 1 1 0 1 1 0 0 0 1 0 1 1 1 1 1 1 1 1 0 0 1 0 0 1 0 1 0 0 1 1 0 0 0 1 1 1 0 1 0 1 0 0 0 1 0 0 1 1 0 1 1 0
325 17149
55009 25851
53231 21059
66602 41652
26790 63790
21338 58479
61573 39179
56427 41846
15610 64919
11576 4813
56195 17502
65653 52968
24617 38223
17853 33954
45911 62690
5915 45553
66127 14136
34451 44802
45524 13850
3339 22388
59368 67707
42677 10502
4002 42592
68313 47117
16740 38277
66208 59598
55168 228
31237 37778
21858 1734
26210 33308
56965 29787
8615 39726
59377 34337
51700 42591
35402 68458
15703 50020
34445 20561
8915 31034
44949 22709
40256 7038
20779 49800
67816 26886
4427 24676
56448 39855
48136 66006
410 39174
62112 30114
33939 55763
21764 12617
24831 33610
52058 11597
18075 44854
3317 31835
8160 15617
26463 48422
17591 63640
19060 6326
40545 12564
51136 65960
64660 38545
6183 9234
6143 22501
30555 17204
64141 46573
43768 28845
44852 53391
63700 32142
12517 58148
14511 38704
27127 56104
23064 11134
66619 22775
31379 54967
36297 61483
51795 29002
67065 936
8377 62316
34011 64522
57359 49155
54772 21755
63682 62080
64278 7982
12453 23205
48961 50698
66164 4293
18126 36454
2341 66262
47573 53593
31902 22617
949 4060
14172 7196
40710 20529
10618 49185
48010 63949
13125 12271
35543 28910
24369 29105
36352 38896
11770 28826
26969 64303
399 53456
5515 12067
25928 31225
18853 18150
8699 42270
53139 59736
5499 62431
45911 55969
9143 42056
23865 22755
8438 55660
41332 11892
16536 41692
2213 45229
50758 39834
67333 15446
67611 42927
28569 68194
19940 22857
43915 26482
63351 14061
30727 41867
23169 27647
52136 36658
65658 60130
18164 38484
60350 61165
47901 58715
49472 18206
24496 1993
1412 738
64629 12420
16885 25630
23703 11971
21775 56232
5127 2523
29658 66011
68359 5863
13519 33799
27955 49200
27610 22327
21330 19888
22058 47318
2876 23136
37916 64727
11725 38331
46424 68811
33735 12782
31071 45292
62717 24494
67756 15283
33510 62853
62236 39941
22122 49287
71 64953
32967 37006
42960 61412
56699 35445
23446 2249
63355 30630
60861 29446
23538 67884
25565 42707
7555 1905
3368 31689
24875 26140
20225 29327
13062 11255
16112 18731
28874 33138
5494 11751
55348 25766
52262 9316
60236 36299
4203 5211
44767 29118
65670 66041
65219 15146
19218 15289
65542 50288
20938 24309
44924 28744
15272 66159
1303 18906
62265 52009
45154 26860
8803 47305
16448 31318
55299 9913
57083 67511
44141 27113
64339 25051
16557 23363
51317 66368
47594 61010
54491 19819
42224 3761
11616 16045
60246 30138
39885 34126
1709 12030
60951 9192
22071 61629
14032 53670
64259 5964
68237 67460
10321 30253
5940 31655
28854 18836
51349 17384
68438 3926
13696 29072
13923 6441
52182 55868
2458 20684
65819 21500
59474 68737
29305 24918
208 46863
30929 55329
67195 12955
4548 28471
61891 57097
12749 67461
17117 35183
29290 25193
49320 52235
19434 66998
10354 17361
68818 51131
37707 10934
2828 34004
32216 53570
68513 31484
43516 24610
66767 55465
45687 57518
46596 26296
31058 61497
29826 18743
33351 31360
22110 23699
39368 47713
49950 67839
56486 18658
48688 48900
22007 61026
30745 60711
53978 46390
48092 18982
67139 13358
10960 3101
23941 17308
55820 46532
57510 64858
15133 12121
54213 31371
3705 21131
30342 15001
51304 62438
41942 15878
47012 64444
64115 33234
1423 47896
19919 6938
31114 59110
60628 46282
59690 43311
11912 43403
52980 46700
16017 12445
60208 12398
9052 47653
21323 44573
62688 57076
67053 25517
23372 46464
10174 40938
50547 65301
37835 41042
62422 39146
51164 27827
1627 33287
61026 12231
1326 39682
45476 33049
12094 31791
61440 26312
12946 21367
40289 35396
67561 3497
59997 62547
33117 24944
57240 7479
61048 4541
53766 13744
32717 24694
31303 40081
11152 25759
34718 15506
10916 60123
26639 63228
56474 32023
5590 32358
59858 89
37049 38714
33614 2755
28397 53692
58620 27070
11133 50103
17329 36366
3624 29481
68249 21246
33734 57293
50969 59497
31029 59098
18356 50184
29643 25992
47345 46936
38188 27592
49687 19207
68768 8400
16553 578
57644 35492
16886 61514
48744 42168
28215 39753
32444 2618
4298 29548
6074 5007
43958 57869
53503 2172
27253 34712
27518 28643
59853 51407
18147 37264
12611 4572
3682 55290
24412 56407
7929 37230
16904 57386
57301 30528
18535 27694
14818 57976
4433 25198
38335 28501
12708 51743
17784 25846
36878 17232
66242 49479
45822 19374
22875 65977
32811 36528
30319 45690
12999 12367
34148 2014
53912 36059
49582 39238
28328 52456
39964 52876
30494 42079
37731 57654
49166 889
13237 58083
24243 53644
3488 9250
48424 7931
43970 43220
24689 28768
15221 46856
34598 10801
9342 63415
14651 59535
22859 25815
66601 27631
68339 32348
40633 57243
65777 65187
33803 50141
61603 64561
51817 44977
67377 33279
1802 16149
24343 43599
13514 65315
21407 43302
25033 6089
32901 31861
62753 34468
54778 64626
6539 6245
22356 4284
64611 38337
43401 17778
39114 10294
15482 19585
50667 38659
59894 27883
45758 66970
31104 23853
49614 23278
34986 56897
44165 11781
5005 21641
32902 54728
29274 42882
40171 41786
48093 54856
21244 39007
18575 12573
50983 449
19617 26721
35689 33466
48154 27751
25000 24067
48332 66371
58404 55282
47240 31090
48780 67068
3108 48960
56085 26369
36808 35966
55283 34028
37531 26053
50172 28760
22461 26467
63805 5421
18247 65547
23329 67701
18097 63524
1659 1881
1509 7282
47799 6231
40329 65030
16900 62176
46162 7904
64689 23369
50610 56875
19811 32523
37001 46757
31371 38544
17595 3338
44032 53915
37050 9583
64421 1594
18545 57391
10054 32365
51353 15133
67462 30189
11965 45669
44914 64664
56153 55948
31672 22346
6179 66396
50210 25384
47977 3974
55763 5457
4819 12947
25572 13479
33021 20750
47016 22979
63812 30215
19400 10673
63836 63523
53262 15759
42978 29754
25450 18073
20142 40641
12845 31683
12234 37448
19616 66279
40958 11664
50870 45300
27354 57481
41392 9016
25868 18849
66341 56714
4860 2924
57693 38437
45081 25213
18931 48410
19078 42226
18993 26803
56728 1043
46751 27770
31210 39626
31737 65602
14245 14950
66995 57398
40828 49238
64121 65362
41263 47021
49571 32754
62966 29617
64133 61492
11832 62364
9017 21067
52569 23567
59924 51502
23011 18743
23198 56639
24009 10874
63890 55468
63769 2280
58821 5538
21468 6207
1550 3650
42297 36585
64903 35302
23407 1106
67539 2315
1942 18028
17657 3679
48867 60401
34124 30586
26110 19353
32479 45088
12598 49994
29832 47482
13388 29416
21457 24099
50910 4168
54402 1509
1333 26936
53067 8173
66917 51112
25669 11705
44598 52239
44810 5649
11274 1870
289 27822
43777 52420
35019 48925
852 12649
44379 50497
37773 15919
23023 32639
51657 1264
28760 18303
23095 61611
19902 48384
12752 19666
44549 12182
5730 68486
9783 57698
16669 63645
65507 2573
54342 19151
1115 32962
64916 10866
20319 49303
30141 5003
9641 20870
66102 1616
23616 7819
28189 60304
37121 3501
4848 48178
25934 44278
9368 59929
41979 20549
33005 39967
24667 37659
35681 12301
56581 21663
10503 33754
47549 6872
17905 63072
51813 63599
30223 29406
54337 28237
28811 187
55845 44760
62656 25471
2888 4853
13302 33087
38837 6361
45409 27291
58090 28586
1953 65338
34019 54558
16337 55604
1271 28122
22434 11819
43528 63272
66110 34080
51152 60631
29907 38428
26315 45383
30617 34053
851 43384
64395 51725
60150 22591
24192 21973
16246 60260
57520 37464
28483 48926
38037 55368
60727 3963
34768 41623
55136 53503
63571 16181
33314 33807
64648 23608
33597 25342
627 33988
21769 1055
37572 34945
46024 39727
43385 45704
62446 60745
40771 24705
4841 67231
34278 63171
55442 12543
33195 67600
42044 36772
47452 7389
56418 16944
24761 26950
41721 42498
804 16501
57310 49290
40629 54070
19538 27296
31288 32769
34194 23460
57926 56981
64876 11115
38348 55210
757 58141
20722 39862
13687 45629
65761 29971
57768 63701
24077 59318
53005 18092
64373 55767
50077 57172
54193 12883
51183 33297
11519 22063
63727 66608
61771 40478
57138 29880
51359 37161
7998 66894
4641 45420
50611 31864
35171 7411
44733 11071
44841 7292
63721 63985
55586 29410
24954 19565
11672 54265
44564 6241
43370 31979
64294 59502
38688 31230
32532 19655
50822 22547
28222 9584
55228 26960
24665 63308
51032 19065
44662 30526
64341 40594
7054 33919
67186 66278
22750 15460
49262 65057
33610 65488
7117 34998
47752 25006
15244 23270
51871 19287
16586 9331
22002 68171
15486 45221
37022 20542
52826 62169
10167 30401
66261 64775
17512 31089
55440 35859
6947 63804
64041 64444
55533 46518
31831 61470
45500 56887
30312 13884
31256 62392
68628 434
8102 39117
21738 333
63420 11900
26399 6935
42413 57658
40617 14350
28177 56936
37105 63952
31151 62421
21175 64712
21041 45570
42230 60242
59199 35770
65545 37269
51284 10633
50501 15911
3257 54266
5370 42418
7211 67296
41616 5812
28740 55336
13062 35546
25273 57725
60082 37077
10340 40923
5437 2229
7516 40579
51215 25221
19989 25541
38923 32903
16801 20187
62524 13315
18649 12107
31247 62077
37515 31852
36806 32587
53375 24495
34119 9716
63201 17447
45987 23994
42343 44071
20695 64644
29735 4708
38291 53875
39522 41915
18842 51968
12292 9604
7591 35052
15523 51001
37300 29165
31238 43810
39317 21603
40256 48811
45669 25169
11359 38044
30663 27904
8826 13320
16251 6626
33483 13991
58762 11298
27937 47819
49761 31018
20905 32351
34838 61303
55126 36482
16651 66643
61449 6560
51324 32851
35993 65291
11508 5581
34951 24988
44898 23173
68277 2759
46749 50611
33637 50830
475 67233
61737 66013
4626 61338
56162 27980
43180 26496
46182 67612
26382 56773
33609 43785
47501 548
6069 66784
33345 45565
56045 33255
66143 21650
32807 31230
33602 335
11142 56112
64593 51490
33448 64161
42842 55416
55345 49817
34165 47698
9781 569
44288 22104
17142 3280
4365 37322
44835 6088
68316 11493
60009 3767
28191 4764
8328 54650
29965 53520
6031 64934
57488 3268
471 16122
49357 34398
26656 63353
45661 18801
42824 39162
14173 53333
17741 63703
8850 45504
14682 6197
1276 50441
65636 44432
68169 19362
23907 45348
55414 41629
3087 41646
51834 23256
40597 25887
67352 61624
37099 21052
41693 52553
283 27504
23034 22901
6325 39030
34395 5545
29232 28673
660 10675
33376 48430
30657 48239
36691 28878
67154 52943
9062 64480
25180 24114
8962 23561
46495 41763
26840 60349
30939 49439
6847 53121
20380 33400
32562 5648
34440 63813
14154 61499
22193 59941
2895 43875
23261 29307
17060 11256
40138 5031
18370 4660
48163 43542
30823 30005
9666 40517
47723 60223
45668 46868
30338 56405
7532 64609
50271 52726
16129 8871
35111 18791
32960 64133
16788 43739
51902 3782
21074 20956
9393 26242
9483 33477
57828 56075
7357 22657
67939 20424
17184 48487
5403 32765
26202 32287
41839 25275
55719 53019
65035 57323
19782 30962
28452 68347
61661 47586
64152 13441
68622 35927
9176 22320
9331 970
22855 38862
22139 31207
28479 57030
28904 68214
1251 51429
29381 60283
4536 24215
33614 3554
66254 4058
12217 62281
61674 42009
1683 48302
42253 21550
34880 56894
59110 54111
10643 63089
30482 56533
20235 39994
66458 43236
49069 6264
21880 30514
58556 57098
56314 51655
19352 18102
4549 59235
20161 66227
32695 201
56019 21541
22239 52368
57165 27421
2003 633
56768 20333
15902 25747
9038 23211
28619 66876
62860 27281
67868 45576
65400 50864
68367 44939
8305 6604
27785 7371
16980 46247
67743 26451
48622 63451
35583 33214
54320 19147
36904 28170
35808 54087
29784 45402
61280 10256
7836 41311
57516 65608
65753 42690
34345 50241
9053 61593
57089 12583
12405 20019
68691 24257
27213 55161
5921 54555
36524 40762
45354 407
3691 2112
3775 10355
57405 39070
23678 10524
60279 68646
64284 18943
3359 14162
40463 59475
12349 35525
53626 52266
68721 11951
45329 24416
41719 8295
3198 44868
15955 2518
15805 4284
12171 53426
50644 42999
10430 13803
15061 28668
52959 9842
53539 19847
17034 4530
58580 48857
59998 21856
14899 21230
50991 27466
33736 29624
43346 29196
51978 47110
60822 50964
64258 12073
11097 4230
41228 29162
49982 30971
60717 8529
28083 37985
16284 54849
4155 53376
51262 63712
29042 26612
12296 40644
34494 17354
25380 56664
42097 18716
3389 36801
56807 3928
60315 65214
28273 36880
15068 41113
53960 49257
30384 39703
9627 34581
1169 33047
55889 34166
57607 59786
58719 57663
18898 25812
61928 1666
56399 27890
17902 10933
31969 806
28225 68134
20926 15427
50738 45298
65005 51888
2123 19007
32683 53308
22574 52800
67343 3908
3611 55430
6592 44616
1838 36369
64075 29370
15990 61417
33006 59221
57252 56746
11580 46531
2599 23527
57077 50033
66393 13053
15689 28597
37097 14214
16440 57533
32586 15314
32577 26941
13134 62600
67251 55239
20429 47581
49309 57082
328 44802
13960 57394
39823 31948
9308 64577
1339 55617
49401 47098
5475 52006
32212 49599
62319 56133
10682 37517
17135 12713
27063 68355
44623 13002
56177 48241
12119 6905
8860 68617
42771 18587
65678 34744
34029 46607
43351 9859
43459 7078
55074 54762
5268 40373
6457 43717
43708 24133
29694 67974
62136 48100
20459 63787
11460 49170
53521 41398
63032 20349
9342 62329
19784 58029
43310 23308
59668 46708
17567 46579
66737 46913
64379 29789
55298 3696
50786 15240
32108 60408
15534 4222
46566 17016
66925 6422
24464 57637
39495 34871
45006 56334
60326 11605
61095 64783
47685 61108
28247 46500
39569 44118
33801 49056
27107 23709
47428 38161
44643 14708
28103 54177
52869 20625
5343 48948
2707 48061
68601 29277
23063 15355
12953 31674
14311 67719
10641 4890
47598 7313
23898 52477
44643 68583
18948 48528
31572 39113
838 51544
3423 18191
47297 14080
5475 46786
31576 50756
24206 56717
52579 55789
26994 53316
27958 37913
40596 45127
40040 43687
60734 35682
61286 59974
54762 58188
58170 40039
35012 67312
41516 12861
60708 1743
51075 17403
55996 17043
48968 8423
51142 24202
8863 19295
11335 40069
25930 56529
14677 39782
851 1940
62699 13248
50234 5302
35478 30662
55807 34446
17128 65300
5772 59843
45624 44303
47259 12601
20290 39659
5849 64769
5396 8162
30957 25044
27602 19785
4179 42924
49299 58465
15660 35598
13646 62104
39986 50733
53626 7158
44803 38974
62638 51946
11027 54385
45778 41659
315 54539
68234 44763
36016 22850
5909 38251
24903 50937
32693 39123
42896 16022
61057 42213
40931 19818
3762 48563
51587 53608
12522 48948
27515 37516
14109 23683
32486 28635
54119 46782
20166 23238
24446 54809
2009 56750
35149 6976
49125 58358
64924 38940
21076 39694
58856 22422
63088 27066
59419 39471
41333 27671
5808 46276
19804 5109
15322 65338
38734 47037
68642 59840
46969 17906
24585 23704
14343 61169
20351 27278
60620 36468
48298 40094
13250 12317
7299 39496
17301 67055
51359 41817
45404 47517
3819 20246
36842 20709
68612 58863
12486 44905
19200 36735
35921 68040
14488 15462
17079 5498
23662 26447
24484 22251
51312 12473
58292 4384
58522 10485
64011 3530
25075 6456
44294 9185
38338 39320
5807 40443
10096 40382
48952 24181
36128 39155
5303 46766
47667 68508
63826 51858
65425 12750
58806 16342
42469 20033
7332 65994
12622 41109
33649 44811
60611 34552
64408 39161
56265 19991
46953 39304
46468 16440
46392 52056
61977 22585
50094 45259
64083 49540
23249 4063
57686 785
40510 13920
4005 46056
22308 31840
10103 59405
10351 49394
18809 61566
10306 38465
4723 19321
23988 56921
26503 51438
59305 35842
53935 28974
42596 3580
55018 58623
2883 26887
60328 29612
51775 22697
32993 17091
48118 15092
47565 33441
12091 2787
58956 31128
19910 20760
20984 50993
15965 59892
45979 32309
59986 4146
66134 39031
63053 43823
52967 43218
2300 67461
56611 61439
13851 45672
39544 14821
62166 10673
25420 43418
59606 18246
57105 11694
59816 62100
68008 50476
68284 18002
8023 54508
60533 3452
24981 35390
46908 34482
28384 56766
61515 25855
39575 36483
51028 16463
7957 43634
8607 13497
57184 57556
57130 17561
24250 32702
30848 57457
28347 23214
30694 29567
51445 34101
2099 58539
44208 9579
25846 760
65455 46948
8932 31105
48136 52260
59082 47710
22881 58360
48523 38438
24960 2413
9406 21069
46276 18277
33661 50242
8473 44202
20826 39389
47227 10592
25524 14119
891 58345
2807 27858
67850 47987
15534 67992
22524 61205
16391 23750
48377 11740
6543 54138
40327 41447
25383 20639
9053 13909
14638 4865
12117 129
6164 43652
16731 66592
23379 41730
38885 7589
6107 3382
50998 45371
43194 36114
12271 37597
20248 63468
45977 36349
6093 18821
6711 2589
12785 32134
63395 35582
28885 62252
45551 37098
53641 40354
14843 28526
33805 35733
5545 24997
7035 68728
23566 55206
9484 35093
39266 45472
29529 25460
22615 52513
50528 27906
25939 46043
36101 1220
36017 24497
59309 6195
19759 53952
30923 8700
5384 40990
10487 13584
4716 15305
55954 61616
35752 8045
49273 49501
10701 15484
51103 21138
63880 20076
23805 49552
13125 63848
39020 4097
36147 48715
39532 3134
44169 54645
51444 27287
63482 17084
66019 64917
27520 63193
43454 13864
18588 3816
45942 51115
28640 52321
64752 54998
54039 47782
15569 68727
40606 61219
30947 51126
13967 26940
55067 13981
45402 14244
55469 19505
38001 39292
39580 19133
563 8631
612 11439
10494 496
1085 19929
49915 7003
58514 45165
27227 67408
4385 7538
28340 44857
65847 24537
64487 36746
61687 24981
44757 3990
20274 51521
56827 1159
8692 4917
6265 45265
16111 50092
5674 53856
33958 52644
66480 59031
53844 39705
37267 28542
4932 41751
13853 10764
33175 66890
5864 59588
2757 68485
27428 36934
57197 3420
37268 19458
67295 18702
24961 28039
10882 18057
23418 12141
47857 10429
45379 43217
28321 46564
53927 44439
23695 42554
13236 57512
9720 15966
49854 12307
59016 43700
35455 1943
6010 67765
44585 46145
68558 34524
23286 47831
51157 1067
28779 39518
16446 49091
68682 65464
65830 48932
13977 58737
2203 1593
45173 38724
28793 65826
44095 1538
24194 11424
46983 61912
25972 66383
5502 2736
19798 4184
1415 38469
66189 61013
27361 35502
3313 32426
22395 38255
27803 46150
46176 24532
11581 10112
9881 47980
58407 35513
8930 29752
7835 16788
34001 20104
30473 6821
57775 46132
45145 52122
6432 61511
5046 20020
28490 3089
54680 61097
49805 62834
26223 38005
46846 30671
5396 50754
33552 17862
52952 9756
4775 10727
21200 66207
12366 31632
33680 65988
64768 38560
32273 54924
19407 14947
22828 17254
52203 52786
40551 24622
67251 37200
58396 40082
16904 56604
40243 5316
33929 35887
41893 43042
65693 13021
41608 10031
23009 40466
22158 9520
39121 29355
18397 5973
13661 58786
28445 9840
67018 45905
49565 13190
14381 19378
17899 67911
19124 23687
1605 20143
4338 34572
1209 3993
4228 46525
32383 44301
1541 11901
5787 46851
11716 57008
41300 68358
3424 36557
49437 43979
34349 29098
42580 51949
55917 8806
48921 12133
54635 64316
29945 34071
17015 22742
17263 56905
50153 18980
44980 48534
3723 21682
48409 14082
57730 35559
26391 63563
46331 21635
34584 24041
27041 54146
14992 31581
28460 68230
23664 49655
4026 57066
55352 55608
49776 66861
14734 14716
25293 40181
47808 9665
13370 16334
17737 17289
47646 50389
30516 45446
15173 58048
14824 32325
43925 3839
64322 39704
20325 32511
27609 33106
16445 24129
32534 32561
32057 37135
21372 43268
58133 56977
43085 50305
51255 10038
61142 12429
28208 6030
19902 20158
3991 58487
55281 29300
12481 64217
5397 10488
31835 15245
46065 29811
38767 23981
33097 42966
21958 42327
28411 18870
27135 52936
28072 13247
39405 59843
61646 30718
40012 8428
67748 10166
68700 8716
17941 59287
2222 53477
24453 40369
31019 47104
35330 9225
42263 34061
17790 53682
68700 52852
28745 5979
53199 12705
42839 50867
44899 9501
26426 67938
20525 54375
48809 64538
61493 42240
34418 46196
16290 12360
58305 64067
21852 22673
33468 56473
7038 53519
22404 44415
44874 61557
40469 40951
58999 39522
45834 55503
45786 29150
34803 5208
2367 53940
57821 68704
13030 35416
4229 52949
3248 48147
43929 44552
19881 66453
33438 2039
16692 41315
22015 44728
18432 23428
28448 12575
23054 22270
12153 34213
43216 16857
36550 67705
23951 29925
50643 51571
13766 55187
41162 29349
56423 11698
47522 25988
15126 43795
32494 1722
27726 25873
10982 10980
31621 58803
44351 6476
18509 58864
36338 53770
45984 23653
32387 51855
46137 36784
47708 33319
60598 54446
61461 39270
48952 60553
36145 53059
29812 17731
26611 47631
14224 20371
55315 2949
60736 22177
869 43945
39552 10695
51473 32243
53212 61360
47174 13859
34810 56616
34262 18691
7274 13654
31328 44773
21876 5864
34267 45014
27959 9698
43509 35568
44721 27605
10882 37113
34851 27850
8922 59407
27628 51386
66792 31302
68390 747
55108 8982
16523 16187
47027 45487
12743 39987
45743 59604
57503 43456
65625 849
40321 46789
18565 19099
29872 57984
57566 68447
29169 35196
46015 18435
12333 63216
61505 13108
33564 40995
30668 35279
10255 58766
57178 48061
18603 6173
22162 25038
62634 744
37300 3934
26341 49506
53022 55589
48280 36969
54329 8407
10119 43744
61465 41944
63969 1030
34264 14697
4920 9011
47455 56450
48811 46842
34422 51433
13279 62985
67033 41044
67235 14428
53338 14389
2978 8268
48901 54905
35369 23200
31553 52053
21744 38570
63571 44357
5076 13149
14494 55816
7924 66052
45919 38979
7644 5524
25507 46634
58693 54029
35363 2288
46499 66451
34628 26522
1856 13676
53642 45611
16229 68442
39961 65945
36607 19692
51591 53005
33414 24286
4787 23487
36775 68124
9556 22633
30569 8225
22153 19307
64564 47290
56785 60810
44447 11491
47979 35888
31946 24796
38103 13610
68595 42791
32716 39722
64649 30872
59333 18396
12655 3454
43655 62219
41033 44675
4475 3638
35630 63792
46730 9721
56956 67299
55653 2677
29140 64399
7127 5209
47892 9857
11516 67200
39947 42730
38440 28488
28192 10264
42510 7492
14739 39196
51283 44810
26107 53275
37716 56452
1533 37767
45783 61741
3109 22385
64416 55462
40751 42967
66163 40361
27876 14869
27170 38259
3268 40731
53891 17441
32095 61097
15188 20201
52871 61403
55912 48884
19671 23137
37072 32489
58560 9899
59534 54061
49465 63901
22548 47797
35043 38505
11411 27519
62191 39027
17359 53702
18372 42859
56728 7622
55803 19203
28276 50387
29039 30152
68051 1810
26648 57966
25896 64912
49722 50775
66696 10827
58835 3817
53234 52264
47301 65668
6022 11708
59978 40524
68044 17674
45853 38285
37938 23005
67808 58764
53131 59940
43404 55632
49416 61098
5541 707
36729 17710
13394 14431
34771 19814
8388 35797
48585 45979
68236 45712
68487 68065
65390 51563
53523 64588
43721 50240
21909 27286
4726 50284
55748 66529
39717 27082
51518 12691
64777 33315
14258 20753
6276 58565
53996 68226
1862 28680
41301 56837
55500 61909
50881 16257
63111 38097
39626 9188
14738 15978
39035 4931
1789 54918
21788 24104
45801 37400
23724 34864
20854 52497
35575 40921
39802 18243
2098 16419
34384 15883
10728 3628
19295 3395
18848 33966
3473 21991
6270 20603
27330 11689
30845 43069
2136 37429
44577 13029
23790 63755
51652 1513
18066 55431
54359 5234
46640 31186
2 35419
2703 49018
55529 47178
33996 50791
54351 37922
19206 64450
68130 16907
52102 60969
28670 12001
46101 14914
60388 51878
25993 22790
61530 2283
514 9732
33084 39834
17128 6073
12827 54276
555 39751
5187 22171
20133 32666
13689 845
41710 43123
29056 14821
31858 63617
28778 5256
47987 49627
52677 5537
60731 24937
38853 59371
58486 67375
13352 33507
52576 67564
59682 24261
56130 33819
51457 1551
29785 27698
55304 304
59184 63940
30470 7775
68650 8506
16313 3257
64172 26957
45396 38264
67892 58025
11485 49038
25433 66557
946 58978
10409 18274
66726 57981
20586 26283
15241 26985
55278 43491
42596 7879
63289 42276
18010 2307
52502 52530
36678 56604
24944 50170
49541 67902
4578 28563
54552 18838
64914 5578
20301 1334
6410 3397
62737 50538
375 25582
52375 6184
34553 54932
9258 52733
55440 49579
36958 47858
3351 939
36751 42660
42108 53632
44968 8987
67165 49268
63786 16336
42437 15368
56659 64109
7296 29911
15032 19303
63403 28672
48636 11062
2751 13894
38015 19503
25399 59895
49758 62073
23180 23751
52519 67573
13697 2129
8877 49189
52552 28378
53011 3738
42606 38121
30877 52819
18391 23762
12289 1495
61762 65769
58858 45019
23223 47872
34530 49685
42320 67595
17243 540
39404 41413
54850 27938
67923 4448
15285 42546
46728 12850
66785 30109
41185 55064
24414 63446
19298 30869
10848 21063
49867 20892
68198 55370
44449 49452
47471 66221
42803 40743
68654 23765
48931 22515
37207 41377
49123 31701
48254 8695
47403 20376
8218 44003
45789 38552
7098 32606
49354 7189
9473 4209
68077 11445
50924 9337
8541 12390
32845 12657
42946 54808
39333 66912
27799 59491
59049 48206
26356 55362
7245 10901
20069 3142
3832 31727
31802 19200
63500 13617
43939 5456
41891 25178
26079 15087
36159 30645
68627 4784
18466 26742
17242 62923
54717 33463
32794 33846
9100 31170
47726 50187
38067 10688
48296 40005
61648 13961
5872 27721
67236 62730
41854 40881
25363 15223
33158 31460
28506 59055
16491 36908
31648 66452
25221 57479
1032 51074
43027 14854
27220 40485
23373 64273
63608 28762
9469 44779
12861 53745
10911 32369
64912 20787
23696 40569
41674 37782
63622 45707
22773 33323
57300 2301
4023 31978
40661 14230
60091 23012
26591 25496
36692 52320
25897 59393
44707 4909
19399 41954
23472 17624
47285 2012
50815 32291
14916 13023
43046 54456
20973 18403
26890 46996
52585 29116
57207 18427
36218 5300
36544 27706
26229 49094
13221 21274
54292 27129
53835 22253
5247 45807
26721 67350
6779 5877
26226 19174
11011 5590
49527 54716
18995 15963
13073 39558
32613 60439
46968 42735
47898 3834
13738 394
47818 6416
22193 55517
65066 19697
57755 41613
63087 23460
50856 3875
44512 32094
25321 45222
3372 40517
39449 19050
13194 52746
60546 49532
57054 23253
26362 12112
7082 46776
24134 63837
13019 8441
35302 21666
13481 55235
25155 67359
18831 22945
18223 53943
4259 65249
67017 35523
42066 18815
63869 54018
33904 63907
33900 44272
41164 35660
41553 55896
50563 45268
56138 41868
27899 54922
63530 58080
15023 13148
12120 64114
19722 57816
33475 49872
22741 28839
12427 48423
66724 9451
59950 68476
25943 46355
62811 65216
58212 48290
645 11352
33503 6335
26271 46692
20592 15319
39688 46914
3027 6213
39612 322
15967 13118
46596 49603
9035 17599
58407 62248
22249 22624
12460 13952
49021 26739
38025 19875
56587 3427
15327 115
65280 66401
27166 9440
61580 27065
51107 19547
34912 24457
1372 11814
43746 46348
4653 51422
55671 11966
7367 47730
48060 46663
51591 32527
29406 39750
44610 29467
41142 59801
41434 22917
9583 1726
62053 11813
33627 38829
48283 11021
9490 63645
55775 41718
19763 56883
15699 30358
24110 68772
20636 55950
34421 516
60254 5433
22264 17581
54572 554
16115 6748
64411 31748
40666 18135
37597 9512
50450 42933
37579 45096
26892 62773
51380 53073
13780 34711
5632 7701
62782 50559
38172 38578
66635 16129
12678 13287
7875 39734
67556 57962
44439 26577
43370 4037
18032 10806
34625 59931
49795 25771
24221 53709
46245 12662
46418 47646
41534 2630
48540 27683
17938 20603
30452 44963
18141 67841
25683 53574
66757 54703
40279 56903
65828 5984
57221 28829
46187 58016
15218 49053
61968 25703
61576 44619
39860 6485
12565 50525
39486 55823
48747 3857
37299 5157
60659 58289
68806 61378
41079 38107
21035 12834
59681 16715
61545 4069
21630 39615
2631 58141
56615 19649
56201 27676
214 29132
31830 16319
38340 50277
39724 33605
26277 66228
40432 41865
37409 56210
45172 54987
53108 12347
51446 5247
58009 62529
66991 40650
30581 2146
64257 17097
64387 44915
12974 36643
14823 35574
48218 3112
67740 63510
41476 10309
24786 49286
13981 42852
43229 61076
39757 16104
60635 46137
23693 68488
9968 51980
54197 42010
12966 27172
2606 60495
18000 59151
58191 6573
60158 15539
39201 57649
27756 18700
58538 38456
57299 57652
62927 15813
37547 12981
2013 33926
17721 42511
25729 15289
19346 27198
26465 38189
9413 32076
29511 58894
20737 35820
9103 19956
33107 13363
32205 26090
41395 50696
32994 7898
43168 48201
56249 34877
42704 11784
20917 56942
38965 36352
64029 608
31156 56818
48968 66344
9054 41274
17933 7007
65445 51703
16993 59471
3698 37930
48826 41923
45899 56745
22811 10863
35282 57218
46094 43769
10466 38710
68652 10630
54926 2948
47327 34382
58347 6197
39703 46901
18112 96
19864 6224
11679 32833
2780 26272
38069 5928
14650 51412
45520 21431
6419 4277
16621 7630
16613 36263
40068 53188
42882 58513
34868 28700
16261 432
3650 61164
10158 16949
12774 12269
8343 1589
27769 39154
12674 46935
7004 43270
981 53401
17085 57637
44626 14722
44327 47468
940 41557
1185 23410
58712 31440
21815 1960
36999 45845
64713 44026
36296 56599
5211 29768
20027 15612
57753 12581
3927 62182
49511 14673
29992 36807
59871 7779
10286 12835
33768 64122
13066 63282
57358 37980
27141 3839
55779 34593
6950 61047
2219 36611
60638 47276
53361 68656
49946 51720
15316 64985
46981 14053
62732 59142
5436 41083
50158 47728
6126 30831
44851 51619
35549 39215
6990 60654
5177 13443
25979 14909
54725 31108
6948 35307
65785 6489
59563 19766
41821 10403
25031 7031
14174 44673
42946 38738
40268 36508
18743 34278
56483 59316
57067 34644
3811 37029
19129 5573
68619 32184
57381 13612
11552 59048
53702 67508
42812 53904
19117 26063
32094 47352
3621 46880
27162 30226
58267 63288
48890 37961
15918 31751
42480 8287
57534 59713
32269 53382
51621 63281
9260 26780
33109 52083
2795 42175
63314 66626
55742 26350
58474 58642
7878 59019
56986 19448
5306 30603
8597 54489
11450 40786
35128 37622
34725 61334
50820 2593
40702 7110
38999 27521
67953 64239
65506 19375
47576 42985
12791 49726
26522 31516
17465 46930
11916 55261
56397 11280
568 4264
64863 3350
10795 10352
4060 3707
40481 31786
40426 7320
20575 59635
44928 29383
53468 63748
1550 14946
28294 1451
20007 48728
15095 23285
18769 18478
14467 39108
21893 13644
58260 52270
45278 54886
49418 40005
26186 62756
1868 53591
39132 4841
8514 35584
17083 40944
16385 63697
7458 43477
54564 68573
42973 60407
50850 42690
1440 64457
63123 49923
48625 53311
39359 630
31657 67314
65123 29227
5374 6853
57589 64846
20749 58627
48023 18945
35566 50319
22620 52269
67305 1994
48381 43787
18446 68283
5936 10311
10201 67792
58102 66509
50469 26089
45518 32081
1034 66987
54886 15054
66713 55882
48233 58814
68482 15288
51549 46812
15463 5419
50671 25424
14364 63826
51666 12573
8542 55243
29282 34229
66999 14811
32438 59136
53386 8053
7750 38829
47743 26102
48922 13023
10965 44867
7238 41905
53843 46264
19958 13117
468 23553
23505 50420
32613 46682
50683 44769
14767 5778
48270 36407
1822 23835
18511 34598
61184 25411
59532 39345
17190 30702
9994 57619
68599 35828
65360 5654
26007 51561
18212 43684
60795 62585
63660 54324
15420 21748
52467 68310
1302 52470
3001 33254
29555 25164
35889 6494
39636 41610
54140 37581
51409 45250
698 5849
20506 41090
59705 15648
22659 61045
57715 10829
68776 19067
61142 13239
9677 50393
27968 62692
3479 35893
2023 6090
45602 41362
29241 46914
32336 1547
31047 30423
47786 4347
40440 37658
38962 51295
63505 35116
60255 66721
27803 43356
35100 1923
49749 50823
57768 25549
34631 2040
46379 20979
28007 1717
11161 24212
41058 51741
57051 35204
26002 37978
27002 44337
36871 53746
46393 6209
2154 46146
20782 52315
38884 49111
67845 10913
24062 49753
26973 11994
15422 18889
56650 25035
32308 12105
11158 47196
47054 12767
33633 52197
24453 65075
13451 32670
11558 27098
160 8783
42424 62260
66231 18885
10681 62910
54538 12808
66671 59478
62528 42380
21969 17157
39160 27870
58032 49622
60451 41952
56012 67741
68453 66198
33961 39694
39209 51097
2199 57837
7303 15687
23090 55784
5878 43084
50323 9985
9935 28239
6053 14297
23002 18345
22015 35029
37016 37454
23226 27962
64677 18175
15310 17410
18231 34959
59864 21790
9354 23301
23203 61857
62587 296
56513 66358
52167 42184
59463 38309
18870 64948
68282 64677
12652 35301
52913 14221
57721 30326
40976 60882
41781 57745
1021 22131
7112 61315
46078 1452
56570 6230
60226 66568
18233 66179
14437 26370
66331 60960
59701 37936
65267 66717
327 34616
8426 6617
30208 48035
58733 51552
15851 924
10548 63908
8535 38781
18340 39754
22241 38001
24304 15131
21383 67848
27941 28588
55267 41892
43169 12978
23429 46904
33136 46723
35781 66183
30740 57858
42050 2630
36737 64527
22349 43964
13386 41889
35117 27524
44752 36262
67584 60203
28750 30576
32635 22346
48255 48955
67632 49965
7984 48292
34204 12485
39845 20174
12467 49286
25454 50502
2059 55669
68820 179
43895 35075
13512 67383
61383 58588
23572 45291
31842 49493
38584 33007
23481 8347
1091 5926
44561 66467
23099 9116
1058 23196
10653 57463
67686 15049
37734 26307
4106 31031
6041 45252
24427 37608
53133 40757
37669 64666
64375 13770
23568 15154
40739 10951
57090 24879
21135 64223
6120 39138
51211 28564
44341 68179
6716 61309
50331 68543
51884 23363
48979 3861
58587 25723
24427 22418
65656 15308
11079 40026
45628 35477
53171 31010
56105 48527
66248 28085
52920 63039
2111 53657
30228 16179
60911 32583
27559 19873
38066 20671
43584 39937
108 56629
36544 22182
41127 21222
43045 35532
6662 28299
60498 50492
60029 7914
64025 57305
36750 30820
54559 9095
65733 24412
10747 41847
36326 36243
49117 33831
55093 43024
13600 15566
60320 17848
4645 29991
29037 58192
411 51349
54306 47694
10361 44215
57809 35082
31411 37709
49927 34662
6695 41520
66204 17222
20912 34142
17915 56864
14341 2858
2091 16488
12983 65346
40324 24068
31762 61769
62011 53936
36767 63873
19780 5449
12476 63309
48321 30754
27713 2428
67291 1625
45049 37181
43354 53446
58422 26208
28467 36312
47310 10836
21065 56187
57651 43393
2618 28645
30956 52473
45828 22529
21802 50347
62095 29965
37927 64269
3355 32730
2020 59760
19332 65058
27171 46924
29500 47783
11037 13853
37856 1670
35506 67134
47263 30099
54506 21202
7718 16192
28720 34185
37222 44914
65878 9748
59757 12391
20787 18126
15224 25374
58161 66672
46944 21233
37706 44748
19122 20610
7599 49431
20168 56015
18858 14198
9383 49256
2267 68240
21459 51536
6353 32502
56096 64278
31584 51108
55237 57453
65165 45162
36384 13821
37320 68625
51187 53294
34629 25671
45685 42765
67103 888
22981 5081
67160 62229
20523 68472
48400 21408
17428 24850
58940 41587
37132 63920
55372 15182
10453 9534
45327 48826
29665 62650
31355 28185
82 31287
20861 14320
23336 64816
5164 38353
56510 60220
59289 56583
66877 50332
31015 57830
37748 10696
51337 4709
67862 59458
63006 59979
25158 66501
14260 53353
39985 48569
27306 21029
35962 53427
40821 38390
64733 53008
26325 23927
14092 4719
36842 19350
21955 61926
6786 65507
33550 28774
6320 53869
65479 40119
42374 2796
68266 40705
64909 58216
9099 67501
68358 23406
38778 17233
44112 46998
63387 22654
45010 49874
24261 54005
17871 3877
64489 6033
7592 26374
27926 29000
51544 34495
62259 18229
40929 49937
62206 22210
586 25727
52951 2851
10200 67980
37940 47657
40282 41034
37978 61495
30530 26615
14496 17547
64211 30852
11096 47875
55644 68541
41428 11846
24529 39906
37118 2445
13747 55413
65691 20591
25787 38173
14102 4346
54031 58170
4824 22375
31030 68366
4803 6459
7784 39623
29571 9105
63384 14001
52742 35550
30926 64643
20748 52260
11945 47108
37827 56442
22606 44897
10296 53255
8938 21863
3663 45224
14302 31295
9875 68731
34540 15589
62579 31867
44040 25056
6923 35909
20003 56146
19978 19228
38413 40480
17017 45350
12173 63330
39398 19255
33108 45964
33137 6220
64858 23312
62189 50998
50863 34186
63228 53228
19676 48184
43013 44869
64228 41291
12657 6150
38393 3727
5767 4270
39282 29097
5998 21283
10558 61924
18693 19186
56888 18510
40217 12568
62335 55335
6728 6407
7511 39240
46072 56303
13065 28168
8786 66957
59695 29318
17109 38775
37158 8620
21567 54303
42671 286
48727 18838
56859 52913
16109 58263
28554 67601
46189 38338
65995 36507
2995 19577
38510 32380
30683 51335
11339 32464
16252 40195
24069 19862
12696 64458
29122 61208
67709 37288
29120 20131
16991 58457
62186 10602
59332 50401
41192 65147
22333 31632
31328 60300
25821 31567
22250 26
11769 44588
60436 45298
67869 20130
21153 52699
63686 21846
48457 8024
63779 37213
39821 43752
31995 65036
21411 57019
43698 23658
50186 2376
37966 59961
40979 61536
34564 58568
37881 56764
62303 65988
12747 15472
37407 48561
68167 47093
7511 2293
39882 15406
38738 15455
23760 17620
42907 68680
39216 27058
20757 43448
24010 19334
9668 57263
18080 68287
50723 6240
55680 63640
47377 12139
65081 15871
48580 49733
52370 35509
27415 50115
19757 10769
59849 63177
63569 50482
12262 24733
40031 41097
598 4117
26612 6395
63434 18137
54392 62842
17129 19753
67583 24480
65477 22317
42303 68422
68103 61542
22869 13903
47575 50077
16600 63732
50613 32221
7338 50886
53582 9570
13597 42598
14984 41046
49070 35828
61590 15962
44048 4723
5913 8252
10401 59756
51898 60058
37201 41304
5324 62636
13275 42369
55611 19804
1402 67381
36709 25762
46857 45954
18183 16615
60420 61678
50776 51053
33040 39061
15016 39078
32169 54604
33865 51453
1472 60904
47020 44491
9078 18515
39369 23229
51609 15223
35091 14629
31119 68592
50931 49190
50267 34216
46454 31858
15014 40567
8424 12310
22652 19248
3852 21295
1056 54649
56262 8704
13740 29444
56073 47655
44591 24228
32466 20543
38966 3678
33103 64064
20742 52232
49725 24556
51570 41729
3624 58640
62138 62800
14914 65326
32518 22326
14387 18077
54642 48500
56605 13062
67264 37816
4548 46727
34329 60135
13686 66735
16280 60232
12843 28698
38196 58015
1177 29303
26813 4079
37027 3020
30037 61663
41849 63104
5108 19037
56516 9149
3548 12532
63845 17826
60076 52874
13168 12303
36631 14534
54108 54864
44977 2604
37888 40006
68689 17589
28043 24294
62659 32526
46580 7068
29991 12413
15240 1922
4901 65858
40620 11973
29226 13471
2704 32002
64792 66324
51236 22949
16196 19067
25925 28390
2391 50753
11242 23576
11939 59744
49560 5319
37152 28681
53508 67125
46886 63938
51666 5562
2974 39850
45923 43147
25979 11471
4973 14396
47863 63526
55621 67630
60070 23899
30441 67779
29848 46843
2622 4322
56179 46690
2985 46151
12172 62211
47833 14953
26262 10188
35147 55342
54772 52324
11685 50012
12024 17504
34142 59668
38710 24759
29937 28382
60057 24180
59486 9586
67840 27903
17608 30614
47832 9799
29524 7840
45623 51038
23084 66601
36266 63826
7048 16250
19994 8170
63964 44042
19324 24287
66977 12917
54223 1796
63613 65735
56037 44744
17190 65723
31267 28561
20401 52536
23311 43548
40772 12193
25878 32715
35371 30962
36460 63481
13301 44135
24834 25659
15269 57935
58128 53077
18817 48033
36360 28865
64572 45152
61519 29884
20446 38498
62625 32824
9944 54860
7384 28785
43378 56061
16722 60997
19478 12275
68807 13148
56394 41002
58848 1045
22498 60072
14652 62193
27532 34269
63519 63195
46660 36422
42490 36715
51431 18322
19277 4178
11955 53861
35957 4266
7191 42081
58931 20506
37530 15644
37994 66375
136 15673
38622 64299
62121 52177
29710 21343
21373 17113
64076 38330
35610 49701
42130 21842
22814 6116
15440 38676
67284 19747
53244 11706
66250 10592
16300 33447
32340 53344
66139 7237
30402 57748
67540 63021
20854 65335
36767 21272
8590 5031
62414 64497
68299 32777
48771 24283
6162 48021
992 1096
31145 34841
46637 9190
43581 34464
66621 46480
36053 61970
39085 5941
30092 28441
14533 47534
44960 32597
56053 7938
35711 25859
53726 51739
56183 64476
6557 41511
23880 19296
32292 13224
49873 4434
40736 40101
62034 56133
60240 50983
1828 25691
34056 38996
57861 11232
14545 22879
54017 6529
29749 18406
15518 67279
60171 3791
59946 7393
1610 35678
18010 26502
22642 6145
36460 45820
6782 10415
21581 20388
16385 55993
68179 29978
38760 18672
12821 59320
52189 20239
25763 53547
11315 60340
18340 15746
58622 55702
59908 36000
39546 36664
13060 65426
351 4853
14044 3596
27445 27611
40098 45238
34046 7909
46650 57008
12599 43363
58756 26669
51534 58452
47767 63708
58035 59565
31015 25435
22048 13393
20805 26086
21853 66425
38308 5104
41510 65079
65788 11560
26786 50230
40768 44009
21220 42840
31853 55580
66317 30056
34519 42406
11532 12533
66734 46717
32576 5477
7146 66612
49954 54960
68193 17070
9674 65143
2449 25258
52169 23048
64223 57500
8487 59572
13396 22472
836 1420
39917 55976
30267 34101
66338 12604
13134 31548
13594 8763
36767 63493
60287 36447
61424 6428
42302 38708
42451 48765
29047 4210
31932 10614
34041 20923
43063 30687
16585 58950
18556 37306
30256 316
60723 54751
844 52232
48785 742
43275 17424
16467 43631
21835 24265
7670 49559
41367 20500
8157 50684
33829 45787
43305 22973
46738 62113
12197 65808
21611 14380
51480 50071
59884 31982
33522 42604
23960 52040
38233 8158
10810 55446
18533 24414
8112 20550
7552 64159
44133 19377
63763 50490
45703 8595
46758 35135
11475 42181
27072 15993
48674 6966
13622 14547
21089 33364
64801 41992
50820 15239
14408 2610
12220 4224
64941 31150
15039 51440
6997 57275
2652 14721
6009 37498
47317 3203
14702 17913
55351 22963
22014 38964
1462 20279
57740 2399
48230 10286
3034 32364
8250 29974
15540 13996
45464 68179
11625 4145
43082 11257
55396 17136
36723 25561
41836 12687
10178 5067
40853 36005
46049 39784
67346 50389
12114 31030
23795 8819
57840 4941
49818 29511
45236 32942
9073 29538
47548 51723
30968 4999
16420 49723
7438 8777
41964 9530
420 43540
44731 66007
27934 38280
47890 59781
57597 2822
11042 34642
41890 9858
39224 34208
64250 59363
13547 57317
54444 48836
36354 59747
14860 50205
36879 55114
53417 7654
53319 24747
21611 14209
37977 65674
45807 9658
27276 25378
49139 67034
63865 62331
36851 2838
53666 14795
49063 67038
66808 21626
33779 57715
854 67172
524 68339
8475 45922
27161 22490
39929 44681
25504 62817
55579 58726
13538 10450
35956 9494
62542 44430
870 60716
2339 66258
52986 49757
61042 28874
5712 38575
65041 47434
56635 25025
63523 40734
104 65583
2375 8721
62215 68701
9805 57345
28445 13100
5234 44240
64107 12901
35577 44848
5816 24406
12376 26187
61128 27884
48301 37979
7626 20260
48691 4559
49951 15879
53491 55113
50314 40192
47900 24065
14896 19685
20252 53155
50001 51623
48238 63432
25081 55806
48743 57187
4465 9421
48151 67871
28040 57910
65273 25413
43325 7399
26528 48081
51575 50665
65255 64642
59346 6455
29108 46340
1569 26854
6488 13715
32027 45131
63498 32251
31998 31745
38183 63459
62134 53431
25968 39669
66554 3502
55033 60722
15103 38156
8664 47994
14665 43669
66923 19020
54905 44250
8019 25931
58750 11633
61873 12996
53849 58067
64870 53257
64081 48618
41501 12253
59728 21492
33163 64092
49981 47901
6136 17895
23530 43431
12865 68076
24624 36156
39147 13562
40603 23470
31992 15951
56325 56489
2112 51577
7289 67110
6828 5880
58385 41492
19988 14845
28551 16981
23251 67167
3566 13698
1233 37526
25152 4687
1022 43853
21667 48655
62376 4307
63881 15065
58984 1117
7227 46966
35356 47027
26799 66680
9091 57159
23316 17276
63897 26768
11283 36228
2551 68707
9886 10068
40986 68441
1877 31427
7711 15957
53820 15469
22551 6768
13980 30484
24105 22712
15056 50174
48305 23101
1444 22666
59197 59235
22535 17226
3103 31980
64084 29197
68221 4164
24398 19034
46258 62163
65513 38256
1603 61983
41116 57415
53199 60777
17528 57629
51814 28159
14008 38270
61806 54231
28047 1329
23926 37578
63607 43636
7399 58242
60169 54029
21927 16274
1429 25478
31139 4329
52960 41271
50967 47966
41118 65296
44956 49525
25953 42944
15491 4765
68311 9612
14185 16476
48586 8938
33990 37378
39733 59972
38009 5340
50100 20845
33472 6021
35840 3848
21191 50814
21113 59703
829 38572
14592 56922
68251 18350
57204 41709
16307 1264
3580 68703
38369 12715
2356 15270
37786 28196
64917 31953
5370 68034
21423 55013
38885 19126
24298 13507
7675 42874
42454 38742
41478 38905
9160 27594
61348 44278
25198 53434
5079 35209
25184 1757
46271 37899
8606 44268
61485 57247
37312 68194
62888 68276
3599 65958
5620 17065
52203 65322
34418 6690
30088 19889
9268 59267
11248 11413
36936 58833
55866 23972
16730 31199
24639 64569
26944 51506
47412 31152
66256 34564
50579 33930
51792 564
37758 28638
60162 20114
26479 38756
31200 68424
3972 12197
51891 52403
39709 62993
53396 57552
40028 63837
46674 25858
35824 43950
35460 16163
14532 12734
41786 28683
4053 57234
10052 8824
43949 58632
32158 53411
43486 65404
26046 60705
62066 21324
52175 46011
14985 62712
60835 786
53693 19380
42863 16429
9247 46943
25342 49583
68088 53951
58488 36161
9047 66258
42387 21851
9312 28712
65496 195
59360 8007
45212 32366
47647 45825
11283 34008
62788 35320
61919 60805
22301 7328
2138 22595
46516 47505
59452 30271
57186 3348
61762 3922
3125 15991
11982 353
2963 24937
4910 48111
50447 17978
44852 60729
22877 2619
4199 40834
51565 43158
13520 530
106 41340
5137 48044
53322 42776
5075 21914
24286 1561
939 39249
18190 54222
51876 7449
50651 12592
27567 48077
14623 28592
46051 59278
7335 24017
20024 16540
26165 15380
36718 62192
36846 10944
29972 68041
28633 874
9765 37025
37632 28655
16396 27165
30870 22777
34309 42265
50865 31386
1896 27204
45150 36758
48930 32314
27078 52916
61972 38640
39174 47385
27892 61855
35614 30348
49901 25304
57319 13112
22353 2634
60366 25016
8897 23595
17946 62363
43469 52210
54817 59404
15139 20548
6918 60988
26459 1436
12539 60116
62882 55197
62255 65090
18633 40319
1806 53326
23403 56099
54408 55386
27623 54286
43312 47966
8543 63431
7637 40810
43637 24870
4809 66456
23326 5165
50920 13920
62266 58996
54970 32640
4885 27757
32721 19197
13562 57679
20600 45269
46438 54164
32682 8182
50794 24516
61911 15735
11057 641
39516 13663
8677 62207
40383 55053
18954 56747
22976 56392
9820 64643
47292 42543
62125 28523
22512 21757
12528 55839
55296 53310
62112 53366
58398 35907
52460 13911
15828 61116
3741 39770
50178 27633
29968 55745
52957 20584
17483 16649
9043 8114
64653 32459
21390 41734
14298 49796
57686 40696
36768 64255
67098 25602
31082 22773
3897 41529
12074 17529
11115 5057
29067 36853
22634 34088
19129 30440
58202 64256
7356 7204
17641 9254
13671 12746
62538 18063
39380 27045
22419 68431
34883 42669
55817 24646
22354 51109
61428 44100
50485 31237
34289 49696
52332 21474
50000 1228
15859 5244
26723 65622
6232 9108
23167 48216
33786 49129
12806 33817
60312 28751
48685 56202
22308 15019
23547 28166
58913 42452
60000 38492
55722 54991
36428 64123
39686 4298
34107 64223
59058 47830
59467 16767
32558 25956
14991 44259
58860 63641
4597 6807
45569 26113
52862 19235
9697 2664
35939 36628
36167 35129
57740 54361
11178 64136
15340 2492
55622 60985
3882 50275
45407 37496
8180 49630
25494 20868
34620 23029
21286 56458
9355 31257
56177 16043
22725 27567
20612 52836
12646 68607
52828 21878
68613 16139
48297 67614
6013 26877
42188 34939
19326 11699
3836 9154
19748 34019
49795 55093
48061 52643
23507 39258
15850 60594
59117 36592
27367 12215
1587 3056
34424 10739
10995 54273
65546 36080
58328 29417
39593 23240
22011 34038
899 33836
7619 27122
1266 14822
57308 26798
17425 17314
44870 67918
23400 32801
59361 19808
19998 57894
12001 61938
56212 30463
52384 50241
27973 34700
28473 20262
66219 7434
59792 58268
47570 58367
44094 24638
27495 16455
58985 64110
62873 13175
16606 4391
59063 66613
68301 61736
56529 59383
43853 22280
14195 15925
56591 18719
24533 46219
17824 37292
8469 37998
29497 8888
36080 52977
67787 33309
58711 44776
65408 50146
18877 17176
21450 9269
65045 46102
52840 36100
17352 14858
36551 43202
62415 45792
66946 11768
5356 690
13359 26301
20977 44866
68820 67932
16334 34932
4405 49873
15397 60870
65873 10626
12718 65586
42900 37310
4636 56480
6880 17730
67335 65222
26601 61053
41269 459
48450 5766
42530 49589
45485 62161
51438 23067
14970 3971
8678 11353
41176 17301
30949 6043
31023 55988
63350 50427
52357 33164
32423 3299
15715 54144
13828 15012
13220 31396
31469 43039
7139 9193
5951 28843
11528 44117
68472 51794
7693 66992
30870 12784
48056 13643
18844 26290
19745 33307
21713 56404
50558 45931
15696 50609
43925 56514
8058 30791
62066 3362
49818 2158
13246 51810
16845 45788
12906 67528
46468 52273
29704 22668
23085 45799
38844 21005
1571 43092
51678 19295
62115 67954
38176 39665
50282 6062
13989 11902
2279 63769
66109 12799
54153 33442
57990 38385
44163 59719
67854 50228
40752 49150
15845 67338
35012 9577
62308 14604
54688 68576
8086 32012
25448 14908
24136 8210
52240 60210
44484 62919
44308 35031
6178 29925
10943 49704
56231 47526
11940 36501
49214 29586
58727 45038
56419 34538
60539 38436
45785 26565
33247 53454
19727 57561
2619 49223
57632 38328
65931 16735
48170 60038
59691 29201
34714 38270
39502 36891
4440 66141
16394 48537
28406 51855
45430 26290
9631 49467
42366 33176
6220 3570
8499 61866
14216 52165
49256 35327
26287 56505
24675 53509
5253 48731
66781 40971
55659 47127
4038 40630
3097 51350
67752 41864
62261 2719
19637 37604
17088 52323
4092 66641
64291 47325
62056 13150
60113 14430
12967 64110
18971 6528
29497 12619
63161 23020
19630 28565
22582 1630
3141 57038
23485 54900
8945 64324
30396 53107
439 51852
59123 38760
3173 42088
53194 67941
2777 34385
30713 51646
44915 35373
8770 34622
40662 22235
5586 47053
32614 45350
6602 47477
29646 41569
45350 43012
55468 67551
49462 68053
3534 47378
22616 45456
1725 54982
9356 1460
45764 10736
22772 55126
4563 36651
37603 52484
63772 44068
66761 21869
46069 44034
48210 62726
62150 42416
21808 34911
36923 29690
43694 65849
20532 30621
67847 2065
5249 17642
13238 10361
56286 28956
60209 34527
41735 22386
60264 38776
14886 28769
430 14846
12683 14772
42789 52110
27648 24213
51319 56278
60374 33855
32572 32774
8571 5930
45722 1971
14516 14377
10213 31478
51201 34519
9041 15530
46551 16745
23978 27239
45888 33378
39545 47732
2863 58031
2933 14750
7308 36894
11465 44974
31325 64263
32274 67984
68794 59444
15111 23850
52577 31405
45055 12966
4556 66831
55457 32941
55549 26523
32992 59926
20336 50816
53763 22047
42162 13024
22669 13987
56463 40187
52438 28799
4946 16376
16732 36192
13691 28871
2838 44685
7484 12289
61147 39211
2743 23359
54183 48983
40715 54948
26148 10495
53787 67125
11450 45948
40954 63242
31431 1778
52278 64310
58854 53385
57811 47220
57830 4822
42105 45211
11076 35046
7116 8332
13750 850
17310 48005
1172 8185
27075 39587
19895 19593
60574 22913
30561 61727
52022 4570
25416 36569
67973 43382
732 3864
17974 23021
57234 21891
18954 6551
57888 47446
66691 33342
60663 20068
25444 45490
45282 59702
26592 18589
19264 29086
21036 54763
43870 61445
31109 24077
39931 11405
14199 63073
16908 59259
3780 47287
55387 40160
25524 51015
8050 60105
30112 12441
13491 44073
18070 38283
28123 8643
10412 58269
65056 56570
21203 33406
46631 36590
1368 63163
30942 40705
4129 23614
63909 39350
33816 28963
16766 39027
34611 41967
52370 29950
40688 46397
6534 35870
9677 35526
15414 11401
66769 68043
5840 13789
1203 51122
58561 31028
14420 66342
3238 2412
59593 50244
10640 33033
46741 25757
25532 6784
58210 25025
36646 68609
45805 57003
21427 53400
28588 49451
16193 24877
41744 28088
64079 35091
4610 3084
7096 10364
10057 42105
45908 31969
32706 66959
39262 8481
30035 65208
51037 67988
33689 63371
54947 14556
2548 21529
56568 34643
46937 20638
19757 9030
26568 23647
29419 66029
27122 868
65605 28180
24530 38600
42661 37152
36800 67423
68178 9234
33445 7585
10417 50118
5862 60165
32594 46537
4126 44064
20751 27764
36180 15424
10312 34448
54711 53308
45368 18328
36927 44563
60546 24713
17605 38983
24252 20672
15483 43507
53293 33840
33912 55849
32349 17390
31137 54978
11189 62899
17930 64128
30145 51113
3546 35645
20786 56801
5500 11344
43230 18520
31130 47824
58800 34009
1415 11428
47822 54972
10456 19
10917 10583
68433 7182
23749 9959
11054 29471
57514 15668
27871 65255
43105 27545
14501 44994
25113 20752
17205 67428
25804 12382
13310 62620
44761 20241
2882 17781
36147 39328
24502 62284
40561 10096
21762 38928
46425 1371
23986 19106
66066 3410
1225 62114
50773 54047
62944 16791
56999 28191
25314 11472
67395 57819
65415 65536
30181 67097
2043 19493
31187 49350
4331 68765
6405 66122
51939 8743
55780 30136
41319 49194
52303 67553
2673 3413
35613 17646
68674 55204
39810 50819
36925 16988
64311 62216
17464 63618
63268 29032
3838 2371
59214 45810
17804 40209
17672 47979
16101 55973
47737 47411
4434 34036
3132 56367
37790 42962
26241 35228
41559 47774
18857 57483
63431 18765
57011 19198
2597 47027
21778 34165
16507 1535
60407 58665
23856 55489
66603 17496
55286 59666
17278 9999
63910 40354
57902 5728
10566 58594
67088 17454
9614 34254
34839 8652
5083 21713
11165 35247
10197 18179
62907 11877
59789 22387
11903 30244
47050 7134
52962 59010
25978 47726
37799 51590
20458 3820
23991 15050
22432 59387
63287 33239
25775 8115
14946 17103
67894 50032
5507 36504
56415 10743
34817 7339
37421 38567
68098 16665
39722 61105
59868 13230
8380 10288
2467 52459
36943 5934
58538 57947
5194 18151
16263 46183
65435 42458
33209 62129
7137 53374
32760 41778
35397 47476
36249 52034
52231 3515
66600 15493
65113 48642
49092 16707
48438 40356
66936 44170
40369 50454
21916 31981
33170 40385
54237 42815
67714 64028
27890 61691
43560 2393
44786 45635
14265 19800
22040 29788
6846 66502
65412 13095
66804 54448
32812 2521
66006 3158
22864 37685
3354 56609
60762 25023
66517 55347
20674 58787
32829 57782
26232 56112
38272 31345
46229 3649
36493 14993
41031 12659
8910 62211
8053 60231
43213 34240
17005 33315
6972 39836
38141 17876
58152 29483
42667 52421
4130 13271
18359 40609
63688 40263
16482 50428
19857 37167
9029 3602
13773 55369
64255 20267
52834 62352
12960 20070
50135 12810
63704 19648
56157 46088
16898 8410
15082 46968
6877 54981
48495 49088
30591 8284
65651 45692
8002 60422
56829 4749
4213 54270
15556 11466
26689 11637
10655 22006
58700 61161
43897 21266
50813 1745
23243 35923
36168 43298
26316 32318
46128 47750
42369 3507
20435 26912
16056 32188
46955 57707
42462 34465
58027 12229
65630 36918
3736 53823
19675 65061
35122 14363
3864 851
55582 19018
32676 22351
46971 10034
32766 52544
7955 47765
39856 44529
2249 13166
16067 5424
38545 24385
59959 34078
33664 5984
56703 7844
64611 48333
7436 37587
61728 23220
53153 8288
24493 42888
1507 45790
8537 44264
19196 56323
21729 4731
67150 65095
45094 46595
37135 36859
28065 65657
6677 15053
51666 33640
50448 39935
59179 46815
38744 16432
6158 32495
15812 59581
67079 62889
59463 19841
15724 8987
58033 15546
7396 52716
54160 63805
28124 29631
9384 65605
2321 47339
24478 63585
61922 28020
14241 58686
53525 68208
37412 20911
38341 3449
16880 42366
63779 5453
4420 396
41193 58359
53140 50690
66638 58946
25885 36184
40763 26709
14284 10124
37767 25211
60503 26019
47746 63031
3508 1295
40523 66802
19612 51496
59987 12915
17448 27841
56645 16506
49057 39607
37170 41781
31800 48461
32148 34832
33103 7353
40365 17980
23297 11354
54561 30666
36361 21431
49948 10634
60964 5306
12921 20205
14518 67428
48964 3496
40126 67179
59340 44858
65421 29998
33196 36739
54434 39857
52089 12787
11854 9978
15684 48147
59777 55290
2128 28285
22366 20790
2393 14827
28584 23178
4450 6732
26191 48909
26555 6900
35808 31658
29899 20695
38481 61384
65596 22801
32547 1236
65771 13798
50787 22363
49016 57209
66838 55856
21138 47430
46560 58101
49923 27175
20062 34207
11441 30109
42883 60645
39953 15938
40281 25315
55674 66813
51953 26694
62939 14192
23806 26349
28915 53135
13238 65255
17910 64077
37465 27207
67767 35379
11861 27096
58510 43423
10478 9136
50621 64696
53527 1561
40914 30289
52913 68483
33405 50060
13609 12663
59682 14499
38530 30078
9068 32282
62201 32191
45618 42885
58893 3818
27912 49456
41663 6868
8748 61636
22377 7506
60456 40260
34461 11506
26045 61414
68161 48344
36279 770
27409 15383
14825 36404
20963 1556
12361 52939
42739 210
27598 15910
27492 30473
24563 23422
25347 11604
15285 67099
51059 46367
28411 2581
51994 20498
41345 65913
14673 29309
27879 61400
34353 34094
34961 61642
21743 28085
29723 2215
10528 39183
2387 34278
5408 37661
57548 46171
40212 63451
36465 2107
22424 6491
13245 58671
54086 36597
59628 51982
58457 65400
58285 57897
57421 63265
65712 54414
33484 53912
55351 14215
45095 32828
13914 55525
52525 27700
36543 3147
57215 28109
8832 48570
44707 38291
53343 46117
110 58081
66085 12458
3487 65847
37629 22191
37544 44825
63301 18484
16219 43074
39566 21505
36202 61440
28127 65687
57513 6790
67245 53349
43802 66292
44741 54973
61255 36560
9851 43215
58600 55084
27758 43770
64106 13431
59177 30412
64722 50426
29775 18318
49866 34253
19105 39767
21931 15195
63855 58856
14044 36013
11012 34633
40075 62986
5464 940
40067 25827
37349 36506
10847 174
28506 22377
15828 60550
65132 26094
40995 24209
30917 64445
62904 19020
23576 68251
40848 8431
7355 58153
51393 45860
64279 6805
45798 3573
20244 61208
62418 29436
58683 33927
40695 12426
38494 8222
63913 10804
54988 50203
51305 58106
21576 40282
36313 1544
35335 34610
35497 54290
29824 60864
56537 29143
10085 12602
9239 55565
63189 60109
38124 52950
14016 62347
6599 52151
8783 30008
38875 10547
6635 52833
65880 31720
39899 19490
40426 531
17286 32463
25988 35100
52328 13790
25674 19077
1745 67456
47236 25512
64828 37700
42443 67809
62788 32906
24503 2921
15403 66749
61347 40336
53881 9921
28336 48727
38998 15511
18557 6710
3552 52468
39801 60568
38013 55802
30156 22444
11200 49810
67753 50416
38331 38615
6633 9832
20176 19950
26764 32953
57355 53876
50603 58734
29420 66718
7731 20274
10697 49029
48506 14838
10404 32496
31813 60383
20593 10126
68477 47048
29710 20314
61851 13770
57882 3276
53053 64910
24164 23278
16024 58688
4419 58508
52166 43389
3638 4377
55969 62530
67260 4874
6215 28544
15492 35730
62441 36507
31477 15571
12642 51910
22166 60418
36443 7983
16491 22253
48106 37300
25930 24969
7037 2418
24386 208
42663 12978
39486 11381
27936 27414
5907 43901
47333 64392
51301 43432
62317 4979
60546 35754
23682 30843
60852 47821
7719 33595
12855 10233
14355 43629
28169 36890
64705 64485
47957 867
44562 57742
419 42406
55731 67270
15468 57208
969 42948
6883 30714
25812 41921
6850 14888
16692 36140
47925 21694
39712 21449
33437 61329
16866 44107
40441 31674
26310 31684
26049 16787
38859 32321
22922 28458
21651 51557
58402 38638
65989 57323
15378 2924
7435 17421
8308 33967
33091 57164
36606 45732
61919 5685
32316 35048
64321 35118
42002 37938
49298 38178
33455 13795
25280 7042
51050 39837
3505 23688
61614 41123
34471 32224
50527 48607
75 23636
7658 68030
60094 32572
53443 5681
4389 55513
8915 39962
13274 26085
25441 34607
1646 11186
19910 23214
21486 48174
28699 9140
9207 3537
16834 22257
48613 7842
53110 47822
36870 25451
7257 37749
55674 42080
36885 55621
36121 22688
64311 3113
41177 61391
13769 40814
13396 17891
59386 22873
40397 5616
18952 24689
24231 46743
11474 9757
17610 40266
48348 62500
24671 62490
67782 30221
64627 64288
43699 39977
21469 20048
39443 11891
47807 18775
5578 13883
14815 37354
44557 25899
66580 59882
8351 39624
15204 30994
63833 55067
28203 35350
13090 1705
9933 36067
30168 37949
44694 21992
51114 198
58092 22122
34145 47100
18772 30845
27120 9694
19892 40440
30999 59254
12847 59738
55939 56245
10510 63015
50692 46871
39093 7853
41081 38953
20657 5959
24402 1845
44422 62517
49754 2166
61426 56637
61995 59100
46954 43330
10304 30607
50637 35324
10752 60100
8206 29959
23936 23827
3639 51633
38442 65489
61792 68540
58570 54356
35866 37948
45310 10005
14903 25239
24063 21437
36598 18184
28981 62933
18572 34034
24264 28697
8144 52683
24076 765
65786 35586
56952 54822
14449 41744
43117 64265
22525 64065
7076 25286
40182 10711
5875 16139
12296 21881
59344 8463
59721 65423
28063 68286
26773 12061
21197 25256
21366 42854
36242 42740
10688 49576
18312 10670
11719 30983
55844 52788
27942 45351
67480 60591
22032 13300
55055 20623
14361 55635
11768 41120
22784 65866
43576 41108
45612 37626
53604 11664
21053 25230
4490 68377
351 10972
50957 18663
18317 56003
33851 41652
6111 29265
46858 7581
38006 2383
38681 6609
65593 22466
3977 5295
33917 11765
8595 40046
57505 21055
65969 56623
22953 4609
60759 34812
64205 19982
68550 25104
5515 40765
56065 19489
39882 43257
33383 53992
38211 7475
12295 34201
27533 18756
32020 2037
1183 9239
5962 24695
64790 20692
54352 49693
18124 63260
27116 28034
21844 25624
54460 49158
47830 26546
24610 42099
67275 34947
12275 47842
61312 12311
24185 39595
54830 4309
34488 12401
8817 20056
21909 25124
65964 11731
39353 58254
17075 24508
56210 34353
1147 23043
22189 37646
57876 50824
67373 19518
15379 55766
8161 11762
44464 55734
60725 60614
63466 57870
38555 24848
48829 14331
29767 40680
923 53291
9944 56223
45256 24498
39604 67167
66374 2727
26531 68818
36532 14324
65485 55688
25233 38849
23031 12630
62460 62357
53227 29949
44966 21931
27070 9358
10996 54727
52973 48567
36993 23797
8939 37325
13127 23507
45623 858
30014 61281
47972 46483
28259 36202
68326 38645
22060 15401
9503 17795
34641 31741
53371 40383
62103 5906
56994 23080
65905 44134
52694 823
53987 16066
18093 61953
41678 42716
59519 15553
30211 5323
5240 12404
48167 8726
3124 21407
18424 47994
40889 16433
39151 36866
68515 12015
44921 39342
36107 27138
24787 5277
1596 48251
67823 66356
68734 9978
17868 42778
52805 31112
59442 5355
27661 13944
51885 2850
9232 8150
9026 23044
49819 22529
18814 6342
29310 9402
25529 41965
30585 33918
58910 15481
26976 66247
51252 16167
5447 29793
4489 56613
3535 63067
21269 8080
16335 44141
50486 60783
20038 253
7494 25526
24430 11184
4465 1403
51529 7012
42798 24828
41949 930
21779 19332
50798 829
43507 26624
25284 19067
38588 54934
18125 44361
41845 42180
19434 45677
11170 52610
63541 28451
39167 11315
19313 21102
536 44686
26582 30672
37317 34319
24176 14616
4150 37557
4851 55308
31709 42774
8807 5864
56626 16764
48517 16416
10766 18742
36898 51308
32363 38963
23675 13488
5218 60989
54912 10813
67997 5035
57197 52473
27562 21257
41481 67987
52452 3937
68762 14134
46788 65954
60808 19714
46278 42580
8468 64095
37789 4254
55420 14127
8598 66847
61565 61808
66368 56090
61537 33443
35553 15151
8046 61228
61025 61158
35043 20535
37114 30776
29714 58557
61638 67621
48417 50601
47694 46731
131 11819
1200 16057
11583 21638
56953 14765
48257 37106
50153 962
30230 35880
68442 39147
13656 50497
39 30004
24977 4315
29522 44167
8036 33147
45613 16014
6325 51395
16657 4578
8113 66455
56743 20475
34351 47041
34573 26531
48816 15327
428 68309
9103 29784
28645 29156
9398 29358
65878 15238
39037 41668
7859 9816
41575 35821
30749 28963
39767 6365
25301 60052
41757 28406
25424 51
44847 14302
54682 36022
42744 9774
48674 61425
30985 38653
51506 67150
30934 19276
31228 33490
13341 21021
25680 17873
29812 25969
25901 60896
41511 42531
6606 54036
14320 59381
1485 26029
34084 42513
12927 11887
5993 65720
64821 41997
40061 18177
1093 7072
56224 64270
33530 26697
53960 21802
21482 55995
48709 903
50256 1636
44570 32178
45703 24767
22833 12130
67601 50314
5215 31891
35220 29648
49779 21000
40787 41942
50217 20075
57417 43029
22152 3897
28464 12949
26539 53987
13560 46814
68730 66446
49517 15754
9213 34940
66206 1830
24980 2017
4924 7753
56352 2438
25151 47991
37253 67157
66023 42702
32405 61962
29089 33086
53188 52443
68231 54469
23929 12957
10050 65970
61217 61306
58912 7610
5200 16722
60651 55713
38667 6954
4623 27145
6863 10367
60215 32690
46874 67927
54282 29595
39376 41201
21507 11024
29661 38629
56595 11077
64125 36300
9388 9938
47345 15394
46192 38048
52403 4491
57100 50566
35206 63568
53339 67032
4399 11947
25434 4528
40637 63883
14003 37512
54045 34739
44597 32724
30419 31885
65244 28817
10254 42594
67865 50326
54390 65115
51268 60139
22766 58091
61681 25691
25726 3757
63851 49790
21859 6417
19344 6068
20310 56936
64862 7054
16088 51227
50114 60675
22629 64600
47283 66343
56863 54252
30729 3044
3293 19410
2469 61842
24156 15112
10881 58405
16410 49380
14756 23574
35381 45407
14438 43948
61986 64195
18360 17560
40851 5698
49113 26283
62208 49080
28213 6630
56575 23712
35231 68288
40473 1819
20213 14856
32371 15463
64637 50551
56803 58384
4523 28637
35883 7381
54059 54184
43523 36430
40145 35384
62078 15291
52765 51480
46848 38446
66759 64489
18083 16463
526 56906
50121 5828
11065 29377
29062 61363
20823 18310
23857 36635
50221 47468
10952 58498
45687 43527
66911 13285
52322 17357
6073 20956
37395 50860
65526 66122
52163 43815
1191 11505
36967 24072
50561 36
24489 8581
63436 6090
42720 37070
58606 13879
40906 62124
62900 23384
40513 5335
51172 9706
16025 62998
16287 24419
63241 64021
68185 24179
22918 36514
1417 2587
28289 5072
67086 53090
60076 65862
5469 66071
37424 52959
45966 49352
34972 33609
13621 24381
11655 812
9245 3948
49695 45691
8561 42018
39642 45343
11410 63906
31129 42156
40313 39232
21081 20690
65425 32051
2905 27709
62159 9410
43766 22047
58634 68020
29979 58149
65660 46912
24110 8897
33186 20522
64085 11074
58210 38381
8128 13194
52511 45234
13830 30628
56062 27631
33229 812
41420 66949
46770 54318
53626 7883
56364 61858
53388 48203
13929 23883
22625 43874
39317 63951
51717 33820
20858 56304
48773 9124
7077 38062
37513 66122
57149 61472
30361 53579
15912 26407
6472 3233
63616 16877
2200 41392
10007 46440
9575 32793
44478 26104
5419 58519
61380 48813
34597 46838
4929 64144
55426 60549
48661 67142
63248 3264
32493 20395
32991 26943
38190 36492
18036 38479
53541 65076
49703 11891
68593 63297
41397 68150
2765 30149
9645 50886
26680 7759
50331 56849
59969 3986
34855 40885
57481 16050
58590 49039
26879 28651
5366 33775
24962 13354
34990 15904
64055 223
11157 46769
3053 55677
53168 50211
37736 26932
54982 50505
65376 65241
21950 54109
2246 12088
66809 17654
55215 25449
6946 11944
20788 36077
4358 481
52874 12711
42924 50718
45406 54094
2379 15835
38562 61732
4469 59645
51037 40968
38473 55065
25895 9150
3450 13583
25005 55118
16602 19263
38449 28798
31994 45857
64681 31229
34993 27073
31040 50712
38791 28105
62504 55779
19120 23928
21770 47918
43630 36078
2001 18075
34809 36416
65510 11851
51377 51776
46850 23996
12761 68037
28405 6753
3205 31318
8608 50371
29227 51477
6563 10589
19267 16396
52526 60316
38748 49636
34874 44762
28065 56820
15906 24983
52755 34175
31593 32998
52320 64122
46031 55610
3161 26938
62043 11644
37648 20011
65916 43001
67738 11825
12894 945
20156 53657
13322 39672
37519 46746
68190 53744
32762 86
67090 3831
60132 9045
41405 34081
60141 18594
45508 12777
18524 14336
34272 55218
53376 26255
47802 20321
33455 39913
59484 6204
37078 4908
38123 38451
17303 53202
35143 38936
31339 48152
25883 19101
38068 5027
35151 43852
33983 20441
54013 54948
18450 42014
11860 6012
32589 33387
3374 25820
43443 31388
42072 67260
16177 38290
48531 55509
65024 46543
67522 48045
16867 50547
47058 40198
20914 19610
31300 2834
58721 10140
49379 52865
23110 52535
32571 55531
64240 50332
9474 20773
46843 11708
22177 38401
30244 6815
57900 12807
5718 34433
4724 14204
10659 67944
1652 34789
67225 36747
44551 53670
28604 56370
13752 33832
48277 37773
29349 57624
23182 23398
20856 40558
32906 17671
2715 51097
31926 32272
39439 25360
62467 4013
44174 49451
17341 21992
59857 14187
64501 41701
68531 9125
30503 68192
51439 65461
40207 48804
12348 25529
15532 51553
60042 58387
32866 30912
40502 59589
30572 65118
39775 36083
44990 11753
27194 11440
22956 48169
43315 27078
45948 20068
60204 21291
46839 50446
60187 64182
61972 68647
33185 6281
27357 38770
10027 17990
64402 10618
51628 35608
24903 35544
43049 47482
47750 45499
4416 62308
58261 37560
4595 43504
814 17163
27420 508
54924 66932
23277 53489
65346 4964
12604 53213
63019 67379
9040 28849
46972 11148
42227 10559
57330 62539
618 23725
26578 30164
5140 42608
34490 64405
14741 45270
18160 31384
67087 63424
38972 22801
14749 32807
30287 24692
17084 36721
58117 25845
44919 15666
4854 56163
31334 408
65922 13744
2459 35197
23855 57860
20482 63639
19670 35101
13438 18601
52061 21340
11073 31900
53913 19616
8893 35787
34115 67357
35954 57343
63288 24523
8890 6573
58591 1901
45385 47086
59834 30412
44632 64443
2753 26118
29380 38678
18950 46521
60062 39726
2607 39103
48679 33098
34798 5829
24920 47542
13588 60748
35786 32880
28960 16967
41042 5949
18155 17894
24052 56979
49191 44061
285 66581
94 15567
14422 52710
27774 49766
60245 21205
65786 30161
34235 36909
26686 53716
62275 46377
319 65844
17575 46756
52288 21114
29029 6715
28914 7994
58009 66648
29756 11769
65471 28767
59117 15079
761 38633
68145 54830
23264 1678
53110 59377
16282 15292
2377 62149
4842 39729
6583 5925
61645 13907
19268 1663
60033 41144
2091 9912
5221 26652
46654 27572
1151 17791
64286 36343
39876 47832
16844 18588
18172 61725
31976 21331
22166 10763
6188 4338
61597 14600
62299 10313
53734 21392
38162 52259
40165 7488
14083 20143
66780 57045
42471 41875
35428 58488
9592 51605
34026 16295
51613 44872
1121 12735
29205 29663
68371 44282
55656 37323
23647 29541
58642 51176
44984 40813
41509 7363
11119 67607
39401 42955
64456 25405
11245 31949
26109 23074
42487 67404
42618 50088
54899 51818
58944 36344
15536 29041
32232 39456
26002 12526
56142 62546
47598 22533
63705 14470
44513 51420
56082 38626
4692 60667
53436 51429
66690 8951
22186 61568
4684 39906
64189 3572
51650 10836
23539 38767
8865 13358
2970 53152
17826 19261
50455 62377
68514 36367
31765 12708
46595 68318
32601 47653
10227 40980
67795 15705
32504 14960
43340 33120
43716 21661
6149 49747
37120 47689
11177 37587
38481 20196
21265 24630
45182 37364
8491 28612
1009 12763
15080 10899
38669 31290
48047 54145
36323 49242
49477 43273
66989 44169
10783 5
6357 6440
45287 36169
26855 29237
58605 35905
47232 40207
30983 33547
65162 66603
53364 4382
47444 51324
67187 9416
24106 54181
21240 47207
59543 43043
43010 20430
45946 37271
56669 32258
57400 15212
41621 33257
63503 28078
131 41314
30176 38881
53621 19488
378 43832
31732 39181
43808 3413
37137 67896
34126 1695
35524 20655
49233 35892
42712 10296
68135 60909
50481 63250
32134 17758
31443 57190
12259 31918
44464 35735
8786 15321
28621 35239
56713 33928
63299 7566
33400 18161
46834 57593
35724 67256
34049 23927
23412 53540
25345 58708
55504 64721
29688 16347
31122 67903
8869 45117
6528 10427
13590 31531
3458 37440
35076 133
18973 51196
65153 48452
45232 59432
2244 62704
57761 62425
62928 48840
32635 56256
8192 55518
27690 41709
24960 10630
62081 68563
62118 62476
37469 1494
53895 3095
7900 49978
52474 15549
39242 2906
10344 63102
9931 30650
56803 36656
65076 56259
8157 49258
7102 35774
52725 21349
9591 19041
23537 47596
1233 4686
24238 30915
3647 21181
2729 67449
53565 18704
66669 29096
25989 40082
64041 66921
10075 59739
23419 970
41840 15429
26312 67007
58020 2627
14575 15934
52478 47743
37763 35892
39844 2454
64076 53592
47167 10060
63048 25693
42286 11416
64540 5519
26033 37324
60519 7788
65518 65091
22886 49600
62996 42608
63093 21709
26933 58799
61668 29423
31862 49116
58943 29095
47279 30866
450 68703
25992 14110
4838 63808
8565 44196
65465 65439
65717 33743
29187 64814
8957 66318
26773 34657
58836 39746
50342 47854
34385 51390
44987 12396
31220 35900
19828 62473
12553 40865
11225 46360
14415 65558
48795 40458
61570 57147
26471 6894
19315 66424
9515 49014
64087 29374
6889 58818
23640 50815
11550 50841
50224 64192
56264 32146
35379 4791
66542 5409
36355 43954
44893 21929
60037 22682
6615 27929
18343 45023
39608 36058
22156 42708
2358 32225
28343 14290
47061 56745
6522 53859
23446 58821
57066 31689
53749 67030
56696 65776
22733 11294
23416 28312
54532 35239
51753 1102
63126 44156
44769 59559
8934 382
42411 2174
181 45414
24149 9384
54717 56198
66813 51800
1465 50976
15968 1958
50677 45160
40650 44060
58299 11790
16586 65490
26350 68230
51315 62289
37366 64520
35568 30834
7961 67653
65383 32643
18365 5737
35003 61592
48981 11525
61109 54988
52674 5009
64354 10481
43073 39368
8020 15107
47668 38566
4198 59898
43267 12923
49889 53337
43672 63846
18831 59892
3049 50569
32010 54262
11683 57604
60132 67814
19335 62280
39577 2215
7131 31786
66761 5054
23276 41202
35483 3269
24477 67925
63360 3271
54409 8563
446 22751
21140 41533
3014 34908
21862 20597
17064 22092
31654 29923
16526 30376
21414 16192
48073 40988
24440 64156
1791 13165
31813 5347
58029 8549
62845 53125
52887 40122
20778 19077
25073 23726
19027 35764
38154 38251
63626 35545
59683 28551
53857 60608
29657 27180
19617 11924
67886 50912
43440 5908
23815 48247
55649 60392
49105 7275
9636 850
57779 46848
54844 52763
59820 41180
25669 46057
65945 2518
60887 1327
30362 58071
53674 50001
43213 20547
31037 59234
60839 9460
44353 44148
32722 54019
32866 4359
58600 27617
47499 47604
50556 62657
16503 57230
17706 58912
65014 64154
21780 67756
54372 60068
36082 34070
16521 27918
34953 12868
64136 39638
28244 13008
15898 36245
17030 32217
19326 14137
33009 44753
54447 22962
1548 55825
3636 26056
21484 30169
46832 65793
25928 19430
18582 34113
23365 23984
20224 49117
22186 39451
34942 22280
65748 56837
64287 68307
33674 56148
15908 67201
63441 35313
56102 48181
26440 25441
51206 67283
5051 10761
66541 65718
15367 10141
10042 10032
2264 15346
36094 47895
43356 8614
8085 21884
55900 701
317 27673
39853 13758
15391 20309
48178 35421
31613 20603
67484 53694
19581 47214
22266 53358
31623 67586
51958 32225
61874 14530
54709 36888
47799 13070
23070 40166
51021 17076
36889 2255
64116 62915
25037 50302
6294 53193
55887 24472
37491 4545
60483 37404
16734 28107
7433 15969
42449 65703
49979 3869
37761 66180
52777 15817
60011 41408
38090 42130
29714 1836
9895 52981
64862 65566
479 34971
64042 1680
7346 10602
29635 40032
32247 20227
49999 56918
45070 33979
25979 27028
45043 68068
57711 63754
61377 57061
25829 27257
57239 9109
8884 47312
51496 54622
50979 56836
12552 16359
2153 4088
6225 3053
41057 45898
30143 40255
32657 65326
51158 61510
30184 51464
24866 63553
62972 13163
42467 39599
10091 24951
10521 28650
59853 3142
38422 40233
27775 52
44413 40998
30447 47241
58048 37107
22424 15114
3118 16106
45223 10616
35199 38177
38634 53057
21252 28515
21491 43143
51805 51330
9526 21740
24921 3941
62307 14743
16036 15829
14774 30875
3560 5600
33822 63677
56493 50581
2965 56797
33726 45071
50736 37088
10970 53751
39384 65060
56113 37644
23230 52091
12484 3412
51583 6453
19998 56974
24585 28093
14362 48958
37777 988
13715 22962
32091 34801
67537 68790
20407 12640
20726 61372
5756 16527
299 38335
7825 28697
67393 54990
36887 50717
54700 18880
15455 64082
28987 10801
47430 51861
44324 42852
31735 37859
13126 20776
50041 46951
23768 62409
31543 13492
46820 5060
8895 31454
58526 27148
44792 62013
60069 24536
10578 52945
3497 23607
53916 17305
61479 5465
38082 23601
44697 14046
36722 25263
36548 60189
32323 7683
28427 43882
43002 44144
11044 47912
33499 28523
1366 49177
18959 23005
63529 42696
34417 67819
26780 17627
63440 64096
5236 61793
14039 12074
21336 10439
25473 46725
6074 48881
46933 130
31978 44431
44923 31444
23194 39037
36177 46989
10506 21723
8502 44859
46046 50501
30013 4611
52396 6335
27318 8703
60914 26270
2186 19731
7348 61012
35638 29207
2260 16099
61169 43622
12318 40221
42245 64230
53102 18258
17409 28385
29928 67677
20426 38735
54660 3957
56417 57362
38323 36228
3181 9024
27848 38945
31928 23156
2775 64550
4477 20644
61534 34238
40186 67526
61346 24234
42455 23637
2253 58338
42232 50183
11481 40636
63143 60544
3576 3002
26666 39462
30269 63951
61503 58103
19330 62954
63142 35829
32945 14164
52196 14251
59570 46196
22165 43769
20456 23861
30905 57992
22016 17792
38722 50968
19528 43061
40600 24242
67180 30484
8295 36484
39016 38290
28092 35675
2121 28514
45038 64731
64970 27055
38729 12508
57406 56408
51245 35184
15197 25366
39855 47104
44736 42911
28439 19958
4738 61120
25611 39579
44932 53982
61741 48220
30031 13161
66199 63990
17013 52724
52634 9187
49979 34663
42741 12750
23134 67808
41096 12880
66081 24561
14972 35591
12695 13371
31247 65921
35889 23959
55203 57603
5610 61536
37766 56834
66808 49487
8917 33341
29505 352
63255 32849
40154 14149
46911 32466
35619 28696
39833 59164
2064 21453
36332 7976
10294 32198
49908 67050
6810 11408
60672 42728
56651 35209
33278 35509
43988 27508
58116 32890
37408 40517
20888 3266
5598 9776
44745 66438
12709 17688
58084 12218
30767 11432
36020 68044
35655 12617
65829 7872
29188 43196
35097 51005
33612 6123
20882 41116
24301 39625
617 59193
67925 20665
2610 50846
26931 68767
25219 26362
55710 38002
40951 68460
46232 60177
59665 64307
66414 60936
62294 46649
12490 10664
12836 27482
54296 29859
11053 46986
61399 24326
6717 34389
34181 43506
54546 59549
47054 3984
4496 21852
21700 5908
42181 43324
55427 50298
20981 4369
35649 46689
53058 68331
15534 43526
37359 17621
17482 10983
43680 37224
16197 26944
13063 61997
68651 65142
43227 66407
15210 63057
55384 15828
16005 30786
68588 7066
66753 46774
32138 10077
9304 25448
31079 25589
34442 9405
11230 27918
11799 67512
64465 41200
6629 15372
10150 13559
46768 23532
1108 29738
40961 57321
41688 29522
53205 22220
43004 39902
35624 21857
20281 20950
26413 2529
20127 34664
62199 25386
67868 15762
62710 22806
5267 29053
65993 44106
120 41240
64807 47999
15667 9462
27264 30739
2026 20912
64007 68610
62807 54720
39801 66328
62796 26553
63282 27715
51940 45334
59824 55361
20896 11888
51434 3817
4797 46727
37025 51835
28837 4514
63751 19109
65628 28413
62310 41838
35535 67269
11889 18550
32643 53707
24821 58914
67974 67987
64982 2606
20922 37299
634 64878
16487 62315
585 38338
40930 20217
67354 991
16004 13854
31311 54898
66062 19018
67543 58939
36018 4349
19025 37830
59671 43053
31884 24382
36575 58070
32177 6371
24356 43803
44722 16400
42043 22889
32992 48642
53702 40064
12347 53249
7240 14984
5427 67329
60331 16543
27899 9648
31491 16561
6885 62211
30216 36413
63559 20066
32453 16054
15258 11807
55989 34615
7482 17235
34808 43572
47037 28781
14940 47053
59085 48013
19114 10792
33144 30655
33615 62122
37520 60877
58545 32975
17635 20997
51460 51799
21042 33382
40270 42626
64306 55386
57233 35625
8297 30790
32456 25153
2752 57896
50632 3042
20355 27753
39290 42414
35739 62611
18555 53567
16091 64519
34565 16453
50292 5633
26222 31249
15655 35385
26982 28612
32857 6656
49578 30585
45017 58082
68168 60730
6660 37281
51164 31434
68759 24503
17328 35045
852 1366
58417 52066
37956 52596
18927 59975
4357 45395
36827 58205
11115 48314
64473 28775
48809 40360
17603 33283
12498 49680
10925 31229
49318 44423
64479 52220
56055 42134
44245 3015
65675 57071
297 3951
67448 61620
41864 14906
50666 6647
20002 4110
34461 8527
4690 45101
54927 30460
45749 25847
53066 38845
50580 57406
29213 17033
59054 57402
21775 18011
30354 67898
44465 60450
55415 27174
30424 20953
6667 6941
7131 36617
21274 6683
6670 4949
64961 62683
15817 24384
14677 47133
5082 9406
7880 16606
48061 23365
58304 21980
34331 46600
40619 18162
7408 50623
29397 36373
55565 9551
9055 2795
17807 65877
10345 25279
42920 45632
35726 1007
36626 48466
34289 23324
46844 44506
39972 31175
53462 6660
58047 66088
56181 24132
14625 61708
31114 21967
23203 59623
35448 17418
31932 35140
26912 7993
67724 44677
14321 21568
7570 65220
19339 7637
66061 24690
59543 17462
26263 55557
36755 54123
24818 48666
54435 37484
50412 1103
48313 5432
63169 44115
61165 11710
12459 68286
62839 49971
925 16548
41608 52542
68092 40450
22503 34628
58929 57610
42264 9609
50737 20304
19333 55562
7517 24557
57868 55717
54533 65688
30052 52940
16014 12775
21385 25258
16255 21355
19621 7489
8106 40318
44734 25691
54878 25676
36069 37006
65305 18092
27475 6073
34625 54668
18100 24887
9249 31081
63197 43953
51720 34195
50491 40807
26792 26047
11210 5420
48714 42085
56983 66611
59325 61874
1197 13351
8449 14279
33635 22262
5488 34375
55961 53812
63307 18610
15398 36666
18884 64280
21592 44867
19304 7377
55042 63316
43361 203
4598 15075
5187 52265
4091 38902
18239 26329
55107 47803
44416 33508
48114 6528
35772 57802
23321 55101
18133 58218
26441 38454
15551 63520
31602 24688
18300 32000
1849 45410
19183 8922
50780 6815
39041 22770
59830 28578
44451 58221
12162 14869
44443 51099
34583 49158
197 38612
7667 62583
53802 60927
46254 55105
66903 66073
65291 33601
7471 51730
6595 50275
17273 55052
22999 36105
29827 1000
25474 19171
2989 53591
17607 4342
45750 31694
62660 9714
5772 52843
40859 41642
11783 40221
29447 13091
55217 42769
4046 39079
65223 14890
35179 18670
58889 57352
19774 53217
36188 30832
60752 867
54759 44178
16694 19772
58506 40097
20367 15287
48019 65517
59867 43362
49190 46515
1227 63391
19202 49144
4017 19898
36942 6372
43928 43546
32503 28995
40272 553
9818 51891
38099 33509
43094 45847
9531 20882
24717 25882
35380 33574
36409 68471
64997 34214
20053 39106
12419 22044
42965 27803
29438 20384
39425 60222
39447 6248
9107 61513
13038 35531
59803 5958
51617 14126
64758 43876
57503 20214
14176 13470
40328 19388
42078 27389
5544 13111
55527 52944
21749 62736
19548 57282
20410 21016
32544 53998
65557 10199
40935 38604
12382 11374
19682 9277
23660 64118
39368 40922
28968 55651
30735 29684
68365 43496
7975 39465
52658 20210
30679 23454
14858 49413
5464 67175
59609 30634
29873 24482
52236 22228
38438 16647
37595 53514
15320 51213
33354 57692
67671 44916
14117 26138
48480 22100
28686 33632
16738 44067
61541 58643
16450 41312
57053 4711
61553 13195
40360 31921
32008 21295
42290 43498
44263 36564
22214 25467
50174 18985
26250 5401
45048 57316
32877 66051
67403 53619
3424 66279
64555 43994
31069 16893
67382 39112
48118 708
62736 31029
7485 51578
13709 27484
11584 63352
17709 26251
46745 38278
20258 23306
25831 62174
12280 3994
51227 43417
16896 29572
37476 44377
19466 32469
10164 1405
2840 51837
65498 59006
50770 68761
40700 317
61556 36031
25799 8896
4734 52663
65340 34231
6570 35691
38521 56549
39960 15008
16979 7478
32764 14413
39293 26997
37435 65495
51122 29183
40284 41409
10495 35238
24802 2048
9676 33288
24354 45300
55173 20793
7604 2224
50745 19867
23958 65900
47614 24175
12049 3434
7478 14981
67816 9064
65223 34459
36380 47360
68531 26884
6998 61485
41207 28044
22679 10116
9260 45834
34312 11663
4966 5931
38627 60527
51233 1709
19065 9372
4452 14422
68244 68189
20724 25748
12496 260
42662 25505
61729 47071
52252 28292
11901 29097
3085 64711
7849 25558
46600 52433
22154 914
35664 43889
52631 62843
35572 46875
46388 18392
2861 46300
26977 43481
37635 3692
21621 12845
47978 6420
46926 30433
24932 23938
3073 47038
33523 61970
51076 52372
23295 49737
59191 22975
48038 59102
25689 25622
33225 37289
49126 64808
6393 32579
6582 64404
8718 27285
42363 44164
12956 63953
45708 31716
18874 51152
58720 47291
56957 38997
49533 559
63491 68294
46290 14049
48994 54483
11882 62422
10650 26400
34465 66952
64050 38646
8490 6117
16512 21417
9881 10320
56326 64088
16119 20397
41804 14014
54202 66394
55587 18914
22761 54775
63162 20590
57006 25752
45155 7968
36705 14513
22234 18743
68334 15485
22594 40928
11400 2193
5006 21871
43643 15764
28381 3896
35061 49448
27234 4139
48080 24576
53700 9352
53018 64652
21469 53307
39480 18604
65629 66864
51976 15851
60166 17317
63222 2979
48618 57608
26093 25873
12039 30263
32983 66506
60288 13299
26485 65678
52446 19388
66764 31840
467 37248
7465 68662
59641 41016
38071 26661
27803 30742
359 15361
564 37365
35400 4354
68681 58804
31564 60860
59862 25929
56868 16839
48531 54739
50859 6357
4950 3810
24639 54829
10145 57749
60785 24340
16456 45846
6630 52661
9345 67266
44762 43726
50336 50565
35917 42713
21828 63612
5149 25917
10962 13117
67894 42615
23556 26369
24216 7884
562 57001
7941 12144
19873 60723
29503 61355
34082 56504
1411 53629
31257 46601
44226 24133
26728 27048
431 5527
46360 31685
34112 32898
31191 12902
37307 53608
8325 18129
46795 22326
38407 39318
2433 30148
3134 40416
61777 38248
65474 24482
14800 3031
4676 23556
46165 295
7538 59595
24707 7063
2822 57755
62365 27306
10561 47617
54834 68273
46462 63421
45026 26645
20965 63831
16404 13618
68175 14078
59374 65685
13688 31432
45620 7473
55317 22660
245 34533
34663 67036
27125 16682
29635 48651
32617 3288
49430 40863
47786 16512
2313 19737
2991 24464
9801 57651
30140 61023
55887 33949
27894 16380
64816 45379
59703 3345
25238 46738
60606 22812
18761 14870
14667 14850
47268 30240
34978 40789
10436 38801
48599 47089
22942 52987
5821 18754
50524 13546
56493 255
30451 61799
15886 64388
55007 19105
63473 718
66010 3513
31100 32929
35488 1004
45523 147
23642 15307
21931 1420
1109 58656
41818 19462
30308 50235
13241 7297
23642 47415
64287 48171
67835 51514
37575 6839
36587 37491
14560 1128
16751 6224
57663 65763
46238 67374
30167 29645
11360 6634
35818 32068
39144 31854
50825 23895
16324 38913
51861 30415
63944 43077
18359 12959
28442 20764
49020 62630
24852 26211
64927 45899
46600 30282
11033 1894
27956 51710
19284 26893
8129 37839
28478 68270
29793 2251
28301 64971
64723 19786
23503 13668
29214 47992
8521 7277
39777 56455
7359 52353
35642 5287
550 67912
26209 13142
60922 30588
23195 59866
13994 47490
38109 1897
25776 47359
6962 62136
9785 56873
61497 21076
58604 38850
16686 24197
58491 33258
32271 4347
9036 20764
29531 37919
33303 10194
11527 16596
62008 55704
56763 35806
14320 27290
57383 68671
29264 62895
30523 21430
12369 52623
18104 49727
56585 12758
29964 18273
19121 52968
46186 61849
50425 61507
56598 5022
32691 3106
45924 61501
45699 66980
8362 52300
21250 36986
34381 67443
66197 31091
39624 20513
55111 63524
60266 56307
58532 1864
39916 64216
67087 22758
34235 62531
22916 56019
36032 38336
54217 39759
29711 8061
21625 7141
17077 66629
30435 43623
65672 33021
52590 37381
22310 2261
47082 39027
37385 47990
62765 17846
52546 46586
22948 12544
17550 25012
16201 65167
51437 64046
16598 63393
32731 57293
64402 22107
18262 23217
42807 62727
45208 63967
6520 12441
30243 23994
34274 48228
26396 10538
61398 48392
41719 25088
59030 27588
34872 1656
49348 54240
22468 35281
12216 36135
17258 3297
9780 56316
20729 54448
40331 28575
11272 51157
49305 4953
43842 935
10795 7550
60098 24835
33605 38049
58069 63129
62119 52838
46133 20849
55836 63559
57587 7498
50932 63950
13071 19359
18194 60894
33433 1796
20643 23761
26435 25612
15321 22896
37261 14785
18019 2380
25194 47714
49874 48085
26114 38260
65425 36397
4363 34626
10990 44962
54205 39458
3654 20663
3774 32062
21119 67977
2928 46755
39918 18007
10350 48459
7955 2676
28235 58960
6652 7446
52796 40989
37455 9179
29273 40723
43805 68418
44005 3184
57741 27784
51832 43344
61429 28690
26963 11526
552 43363
18366 39476
30620 21675
43164 9184
801 50308
3062 26934
5578 39562
57276 26908
33082 25849
32516 31716
19952 697
10339 52114
19041 6898
32965 67780
12895 49585
68478 62967
52889 38674
55092 41497
4839 64163
21373 50240
62607 60098
28335 12758
63859 45093
29039 67164
57652 57184
22400 52488
26757 58523
38194 23541
35734 21338
37252 43584
40591 60999
60455 20038
55734 44846
8657 8976
60934 40513
63614 204
22403 59844
25784 66540
47529 51517
58904 63486
67183 17619
67178 33322
56168 28538
40197 67667
590 288
19782 18732
49623 19279
11730 7606
63889 50390
56016 56653
60318 11928
8009 61731
54637 16333
28977 44155
67165 772
42040 32387
6983 35435
60331 51477
46146 7074
26389 2917
42765 63414
11595 15741
63575 7242
50618 44442
1766 17093
40831 32437
13590 33652
3645 63364
66231 48516
54577 33857
64261 4195
40297 60395
32338 6380
56837 50806
40994 28545
68165 5693
40167 45188
55767 23622
31746 5734
68373 45186
10996 40816
58051 58469
39376 24829
66488 3827
63098 19411
40830 347
33265 8858
30524 10666
15317 54710
65397 51866
57193 42223
13781 4121
4381 67391
45342 53733
12151 10999
49981 57583
22351 1980
20369 20886
28512 26730
21302 34596
33642 16562
42215 51849
55569 29013
46610 13534
15237 21789
30168 48760
54965 25595
19372 63337
12548 15832
35411 42900
30524 3721
19973 27296
49654 63944
45300 36398
3123 53661
13654 34275
29112 30758
9238 27209
9453 26095
12531 14395
13636 12145
59769 21390
54743 10130
26205 7539
47725 42988
34762 57375
14707 6877
20546 41515
34015 4066
12866 50229
10014 13053
24994 59157
60614 30462
65952 19054
20459 25267
2443 61736
37219 24653
42595 29588
43812 46575
17903 57921
55640 60387
11466 17355
9702 25007
68183 28639
35050 33724
48853 29194
28594 32197
18847 61953
62430 3626
48042 26670
4436 64002
40890 6289
46031 43056
15875 25643
50326 48225
56460 67069
25124 21559
16396 43353
39080 13065
63491 60470
31216 10148
65691 9415
30306 68572
6884 8894
67 12886
48434 66897
15119 44317
22187 177
13330 44989
56239 40341
9320 40515
34596 4759
28590 49494
51567 29195
52871 5707
39974 779
38392 6316
60499 55415
57789 64470
23188 32654
60252 35421
47882 53837
39864 15877
42242 68025
56372 20027
47341 13933
9306 28435
68411 17204
43175 59727
58419 27736
18915 19817
45680 41617
30888 67186
49967 40530
22618 55339
28190 35346
26573 35689
48420 15503
42294 15887
31406 62743
24636 17198
25298 35568
32725 30515
24302 39881
29672 39845
51149 4088
5911 52295
17523 40925
16156 11749
25151 23784
57731 95
47632 44937
43121 4154
63041 54941
4507 61675
68679 68463
53056 66518
37508 64319
53790 51510
29897 52014
36603 41074
10687 64944
45001 40095
8754 49808
34314 38500
15875 20540
1234 27313
58322 34872
45737 49291
64882 26688
36254 42894
52608 66432
52856 24962
3346 13900
66952 64393
53127 18178
66379 15320
559 9288
44241 60512
41242 32142
24006 8741
47007 25092
19651 22502
15608 27543
27402 55087
8364 29509
38466 4647
7174 66627
17120 7956
53071 12362
58768 45294
43549 23391
24484 29947
48110 21982
15869 38213
58664 65113
47558 30560
49053 47199
36366 11449
32262 62423
61906 63497
59711 52617
56220 68775
44272 26836
52124 46506
1803 32948
27888 23863
61956 37972
3332 54736
30791 1541
54164 35536
18540 68780
52170 65601
67819 67705
67692 48940
52715 43069
1342 65958
36021 31583
63167 64171
19877 51684
51131 43324
22671 21415
27183 45021
47910 38777
19847 47250
34004 58248
24224 18016
59234 2559
68511 65794
63573 24490
13857 14817
2087 14347
60929 68073
64800 19082
35498 30635
32747 47974
46715 29220
53025 39167
10537 17521
61548 44527
47294 58212
17527 57535
27774 53854
65503 65032
6770 14115
34194 12515
18190 57343
57232 40112
63369 32865
51654 29045
10492 22023
45372 1831
32302 53802
44565 42476
18626 53791
49450 42415
1995 50823
31825 12956
17134 29126
3250 41022
32378 67293
39095 51739
49184 59492
32312 52406
58342 13328
44354 8677
36085 14912
50208 48484
12881 28446
67578 43455
39908 54767
102 11890
54358 9212
49038 18719
41644 31618
6314 63567
63834 30900
67036 37337
34763 15795
16059 49162
63863 16103
44490 1755
33586 45106
30246 57161
49387 26061
31046 45906
47829 13079
38845 54504
68741 41592
28856 28039
29857 24775
6636 39245
22891 57634
52824 2449
3107 33012
26695 35089
27212 32309
39956 49482
41944 4329
59165 27497
34199 39666
31178 64181
60369 43601
29319 8464
28656 23239
51618 46358
30294 16929
59208 16086
15227 66671
40700 67800
34818 16313
22797 8538
6310 14242
43330 18610
4862 19366
66799 23700
9901 24043
50332 7860
7921 9395
27496 10690
7935 35429
61195 53720
32668 59657
4348 30248
11478 42185
45631 3146
42311 43621
17861 11947
40631 33899
50968 24428
2290 36423
3558 57407
53012 2183
46890 64843
24235 11988
56205 8645
21102 62354
19239 36253
26569 42441
7171 11171
31489 50314
10833 35570
38614 33801
56874 22025
33052 55821
54437 66625
11383 13666
19951 8331
18341 25325
50795 3738
15958 35953
33530 62115
60420 59070
41272 21808
37083 47753
23354 65950
61476 42155
51272 14920
20409 40536
31235 7214
47388 12083
56839 10818
39797 67962
49335 47162
68825 1614
67886 6838
27050 16384
30164 36749
35248 45653
7693 51327
23660 42607
21621 66884
14195 56818
30148 45226
52118 49934
61561 6598
62434 54596
4593 11089
35125 32863
62861 28365
8577 4294
50567 47267
28825 9574
64567 38751
54788 29430
29269 28214
43744 11090
57878 36299
57524 67615
25564 22837
27414 62033
10359 60710
59356 21840
40398 32227
52087 4745
34046 53905
68529 61037
26026 6066
6670 43428
59937 36691
26835 16906
51862 34380
24801 61343
40407 64424
51301 43434
47030 42737
44027 34143
1272 34488
6360 25055
42352 2045
47391 13157
5789 61028
49856 42158
52951 15026
337 41018
16191 52793
15313 26800
67011 44063
62214 33539
5719 2077
25113 32206
20872 21744
45195 49905
38927 55483
27541 51923
35221 37915
53621 20355
29552 62525
42755 57182
21848 16063
31764 48456
19686 63450
2768 61765
22395 60708
38470 60097
30832 49622
13805 27597
35181 67773
4840 40835
28272 3426
37668 45165
5800 47835
12722 9625
23008 63811
608 26996
18870 10535
64179 44725
58620 7993
21416 28689
47540 64364
7033 43552
44896 11695
26104 24704
53370 57024
67691 31054
68282 18354
33742 22723
54504 56061
17769 16895
67949 41451
62639 21250
42216 18531
22641 44669
2316 59124
42438 37801
55411 55670
8642 25077
34005 30147
33804 2047
10752 2591
66077 30238
68059 51680
22243 42510
36717 53868
33213 29003
13044 50154
31403 16862
59166 68605
8926 6758
23912 38377
55471 25268
44908 68798
42206 68019
3520 21147
26046 5266
49099 43605
60507 8744
35483 15930
7956 2952
40013 13052
68566 16099
23162 40221
53103 48780
6439 37095
13189 5940
26899 5373
43268 15287
47169 37467
57788 52367
67361 9215
20373 37138
15379 11456
38911 17031
11480 1462
22022 22481
12766 42946
893 43949
21493 6241
56324 31195
26535 20155
4488 4160
18087 11121
46807 28570
40726 28886
21579 17825
52529 1641
58600 2183
14296 50361
50975 8531
55672 34415
41753 17408
17813 22664
53777 64500
38116 18866
68202 23516
59562 25133
34896 10345
62789 43004
47174 68810
61896 42688
56523 26857
63713 57474
14243 31491
50375 17439
61752 36521
32636 34134
39618 50410
32382 60784
27038 36819
37605 47307
36060 33514
29174 27393
10977 53902
68692 59957
31316 47155
55901 16395
47731 34517
43716 13217
67930 47582
24492 51751
22212 62258
52459 10680
9093 47902
28574 56539
6334 10347
8269 15166
21501 53660
42299 35948
4952 9278
34610 32990
20014 58258
11337 55777
24894 20599
48675 13392
51112 43249
68575 11922
36933 48346
44345 21672
41333 15606
62559 30163
58522 65836
7846 7014
34774 8925
62046 28169
52868 61627
14478 19756
37225 48062
162 17770
57765 51866
8714 31134
67948 45035
55095 50475
43700 37566
8816 33725
19195 49050
27074 52906
40855 35077
53598 51017
52152 50979
40875 16490
28726 36002
1153 44105
61359 7905
26423 22063
26724 68415
45804 48835
2365 62865
24751 42400
8036 4688
43981 8266
46686 27830
28484 16852
41157 20161
58861 146
63044 65497
68380 59757
4240 31329
12914 45989
45297 65138
42794 47226
66169 58453
16317 28772
63785 29633
39307 54108
57472 19969
42157 55911
24171 14546
62010 323
68227 43702
16900 22261
65223 22580
62794 5350
8382 21966
31341 40030
601 57815
40542 12091
29329 16632
15062 24794
62403 35248
65658 12818
41310 36469
50538 19030
23371 29081
28138 53528
33008 30467
10660 23221
14967 34394
55694 53942
64207 2424
34449 54746
60870 57272
67776 30388
4072 20098
29685 13624
43301 20153
46043 30387
62846 28721
7120 57305
53032 41469
55058 14274
25051 15730
66869 47840
63820 18236
19786 8239
67518 6630
4437 11799
28368 50257
20975 52991
56092 48191
14889 63304
24881 3691
33488 67231
44661 1327
21259 24913
13015 49968
62995 29287
31767 19590
4699 42223
40446 45916
38702 51584
7355 63604
19563 25184
15035 35740
3466 11203
68099 31603
55000 50144
53390 25290
42082 64591
22824 46267
46441 3703
44965 9413
9702 39396
26718 61801
11952 13823
62000 32014
53712 51961
46939 58483
3355 66766
14286 46450
60534 3618
47824 41433
19602 32672
57906 21195
51409 55332
49567 66521
11576 55185
63063 48341
67442 27165
42517 25067
45358 62587
66304 8692
9634 15406
30796 4448
3808 17068
68018 51594
6687 17328
15216 43209
64061 68146
49614 34789
10520 38640
46944 25747
3992 33454
27682 58242
16643 48103
62038 16778
29830 10071
65753 3998
15203 7186
53052 9773
62836 18446
40740 56711
57203 35813
41943 67779
41700 33636
59984 2981
29055 50339
15396 40797
9447 45754
37038 48835
49136 22216
8538 13190
8808 7195
7896 29431
23562 62751
5842 36570
50984 26551
52205 1968
47744 54975
4957 49127
68459 56789
8278 30212
19734 31511
19951 10015
63294 65143
1999 10236
15554 39740
37587 16055
66330 61162
3694 7966
45058 66840
45134 15768
3094 56078
41385 48130
6158 57452
12238 32102
54749 23517
59251 44724
26457 35707
14215 54484
19165 38919
36764 68026
59266 6396
45768 51013
11115 13133
41417 13397
47692 60001
37307 43785
50104 17908
5528 30293
45445 4544
19999 17489
22561 11438
61592 15052
45998 11841
2292 25934
37460 53932
40454 55033
22345 33347
63622 51782
3952 8588
8030 31501
36700 20386
36677 1406
35959 3592
1968 2078
1544 45288
26393 60476
62162 33934
61138 31109
66456 54960
28490 31654
35383 54478
59549 9491
63729 48367
23846 47049
30889 32514
1638 46327
29874 13799
53341 49275
50265 36429
56597 3192
26852 16348
9329 1463
60306 19299
27467 36572
51190 30073
51241 40740
48566 41111
3527 14214
51133 24762
33059 38473
39059 55908
12866 1908
55613 60962
66536 13751
54326 32229
28790 22597
61254 32506
15625 15041
19595 15855
47023 56403
23079 26213
64008 13965
38731 10028
60124 47453
36155 7376
61016 20859
14958 43613
39495 4137
15706 66152
3304 3143
36099 9961
25944 35536
16357 58283
54465 25485
28509 43734
18984 30899
8913 49330
18002 23576
22342 49340
64767 53220
56402 31010
16360 21542
39378 13796
38864 55527
61615 21919
3770 46968
32504 53561
50176 34365
15261 43425
15132 4586
35251 29609
27779 59175
52949 57479
39190 64827
26752 17161
36825 8979
52755 51630
45625 24341
12055 28296
46534 35114
31395 9231
24080 5578
32498 64544
35333 16060
407 66275
58470 3222
49311 61417
46315 62092
33831 46915
51323 39735
10530 66872
36015 27979
1654 57512
40676 45745
68628 19654
36166 10703
41862 67828
8184 52214
22465 27421
58831 58952
57837 14942
14467 36979
123 63796
57419 6563
51539 59566
66842 26821
64634 33718
68152 2858
14098 8881
15824 46081
20040 30241
58798 57990
5168 21483
66246 31490
32802 49041
31960 4265
56663 54356
18608 20302
3585 15850
34875 37476
5657 39768
67290 49640
56322 10218
33471 25234
12022 62375
7838 26615
527 65158
16457 60758
5626 44534
38785 56528
13324 4137
37326 22538
10429 14078
7609 22917
2272 63309
52155 55204
37935 3475
20647 66610
17601 23618
66316 14788
9687 52563
14312 22559
53059 50335
42447 18903
53726 51797
14656 53520
16321 3549
29288 25713
30073 18346
1360 31458
16336 11377
26990 58096
25442 42417
17048 35629
20051 57872
27426 61266
57188 33217
4816 14618
45847 43109
21071 26906
33432 39009
5533 52776
63043 50116
48949 30869
33303 20959
8450 38364
1898 65827
26714 36294
13020 643
1404 47913
30654 17113
35653 19296
18164 13684
25828 68129
60655 44684
56715 30320
62173 34874
57979 43936
66563 35156
6941 3879
51279 23479
12879 64282
24424 18650
11387 36374
6707 27805
13640 44282
11958 55148
36702 13632
65021 3240
29371 55592
46102 37166
66828 67248
59542 17845
11866 30192
25913 40881
36489 63959
20028 31616
51775 37934
17006 21476
44615 31957
58406 14684
33104 33173
42835 9220
67538 54576
34146 27811
23905 43533
43576 37091
31823 19396
45452 53759
49990 22852
33931 48531
23436 24917
63151 41869
61444 42164
51218 38053
37081 39974
36517 45198
52362 66907
44105 40241
47309 12387
55155 11415
16847 6075
52386 61338
53466 36961
38195 32934
37587 568
64760 3512
3473 11711
4048 62462
3262 45173
67759 64590
17037 14583
47126 64273
14923 66012
12021 43575
50559 37170
20941 36006
38566 32532
49252 8395
14711 46061
61559 10082
25743 59584
24400 32117
58172 55481
12414 51159
23947 18901
30913 47634
12741 2108
36704 68632
30759 9035
57931 43650
5822 46630
31269 54057
44629 34755
42605 39448
4036 26142
12637 55778
1906 15123
51285 30155
50400 4876
47938 19111
21583 49198
63869 57407
16359 64236
60550 43115
40730 68427
11255 7837
11521 12061
39861 11765
17293 25583
37747 24946
10748 53492
17948 53989
43179 53072
44891 40368
53276 26407
58223 44622
56500 26485
47542 27819
1501 21114
24123 20548
11454 51099
32079 1683
62774 624
13216 35588
66743 52862
35348 2918
7039 61290
1187 66614
60926 66403
60690 7711
32137 15480
40477 59081
11976 32891
20795 12685
34837 11649
28691 53280
27549 67538
10032 33219
26581 33723
32783 847
3072 16371
22307 57790
35287 3609
6823 14980
29012 38655
54103 28347
24691 41593
50178 10903
52711 12960
68738 18808
5444 23571
21098 54017
56201 21084
7593 49669
37829 43298
52400 53323
10515 34098
39203 34854
41509 21815
48746 17388
66349 59299
7666 31128
32718 27167
56145 50068
23359 10057
5389 52177
34123 21610
9109 19369
67604 16030
22828 46990
25393 30185
46207 26491
34772 48399
570 9956
67996 26142
40547 33676
17320 63717
17669 10283
30873 52539
68430 30755
33355 4316
3252 27839
31084 6036
5503 62867
921 19632
15232 17327
60687 57392
25125 32559
56940 17327
22848 64017
50920 53869
61265 7512
58008 26176
50493 49799
44771 57729
60616 7165
25978 26131
32381 38133
45130 32201
44579 33551
62804 43721
4545 2001
62487 25579
55343 23153
32450 2584
66125 53975
1005 5087
42953 18128
62170 38453
32444 4499
22460 41689
57982 42529
26789 21791
10812 17913
23058 40591
41657 67309
24487 41641
36337 28018
6348 8968
20536 63914
59171 62881
33426 46554
41763 68531
28836 57341
36944 45296
43767 41183
11413 53288
12489 45163
45778 23495
59328 4135
52012 9323
44532 10568
38806 41597
68824 53115
3744 62077
56602 49061
51384 27055
67119 21495
65639 4261
34072 56055
41961 37290
11571 11094
6421 68691
23668 2947
62640 18561
48462 67832
23257 44388
43440 59725
11827 45833
1064 53855
9179 30408
22331 50816
28330 38274
7638 58236
2600 38198
12113 67450
31857 10769
57063 42669
60933 52111
34321 23298
40338 26627
24376 8715
1471 15922
45996 5952
1640 38370
18227 23684
41316 1443
7365 19318
16313 20006
61075 55749
16723 3177
38303 10123
66431 2447
46449 18852
28532 26607
35854 3722
37402 2097
17890 4855
37708 2712
61913 3219
58305 29777
21132 32530
3798 37039
9152 25570
61268 2317
38941 157
22135 44066
33436 29178
51474 51525
30093 42083
20304 49439
43010 24702
7789 50931
14983 40002
33013 37788
7294 64706
57158 19210
63556 59994
9444 2344
10915 20185
55662 37776
18706 34282
10979 876
13572 7412
22495 33822
12040 13096
23986 36013
46198 52888
55788 16736
11454 33227
68214 68686
15094 46576
51254 21810
67536 53862
62774 33919
7276 16597
34424 63674
14146 25241
62970 17215
10755 60117
19635 15868
30992 16811
66307 65732
36674 11789
67288 14255
16463 49713
52137 54430
12743 46543
10418 25218
58085 58595
39431 1503
63868 37625
42567 62413
8389 40666
18663 46044
2626 3395
60613 8134
19042 61121
62747 2236
33765 33625
16657 52355
42649 30068
31930 3170
29545 37444
29523 14582
3952 26790
5370 452
15789 17816
53006 1509
28805 13567
12409 67200
7472 60541
2622 31560
15277 21809
58699 33067
60730 17142
17958 38394
22879 50714
24423 58404
33375 56901
55778 52005
32683 32178
4892 35807
63196 41786
31965 41714
55743 14180
22638 34228
65087 4810
64783 5529
24033 35132
37425 23443
21727 46501
9610 859
32896 8978
9217 5968
56996 50504
2870 21176
442 47160
67198 51421
37852 41171
40298 4660
23973 67257
31268 65978
49946 13211
754 49118
68741 36240
13871 54666
16662 54787
39463 28386
58448 41127
44894 47977
43778 45678
48626 21659
34001 39787
20814 4824
35922 31408
54194 58373
50399 2201
27895 15781
6927 20241
34709 14499
36752 59276
12644 54875
31748 47128
66788 56170
37135 18286
59890 19176
53669 58489
64219 15767
15935 15041
45872 60069
52360 60662
3769 25952
51161 30771
45985 21655
35705 57708
16227 23702
30871 64213
40194 59395
66695 49769
16455 35607
33798 39118
28846 26150
129 27124
45156 28017
30306 47877
35374 14169
38084 43484
32292 64027
39800 18105
3495 23103
63905 40877
4398 37963
18875 25787
40052 5189
32298 49770
22637 52001
18994 61658
24562 11157
18574 57429
22923 44953
6621 11088
50778 27839
30805 37018
53945 40607
54494 55112
27153 14785
7052 34788
18404 21972
40555 48110
36328 23487
67033 5777
39793 25466
48831 15030
30903 34147
28654 24915
51865 59747
66276 64167
17223 20988
21027 46865
58966 28161
10599 19454
58462 25962
23185 24425
18025 7359
34351 64678
9390 15986
29144 40904
1229 40634
50425 54924
59773 39143
59248 64048
11712 37763
60828 14916
55349 30038
25119 65630
40173 37204
65974 30975
59816 39999
17399 33243
36237 50173
4186 13333
8729 28953
60881 29389
65209 29080
59294 35368
68205 3916
51865 1994
60394 41737
18260 65525
21503 37992
23160 26562
66596 20893
5934 40551
23132 24268
56642 30943
23258 12581
68362 10625
14573 58596
25609 11219
62962 30741
28085 53697
24165 33123
5268 43143
42219 583
18674 26829
29267 35266
64426 7872
14587 68021
36098 39478
56760 47400
19659 64515
27619 63565
40806 12939
15573 25581
4625 46386
61341 41909
4056 53047
16136 39340
25612 59337
53898 35814
882 8361
27671 31544
8535 57665
8390 33534
44152 25397
11417 55427
2660 37671
33293 19761
63920 14331
14585 40490
17154 26398
26478 35933
28783 56957
44569 50559
2091 14540
43458 24979
65935 11404
20485 2173
14389 34352
29428 43609
29175 43307
62304 8804
3660 33675
30191 35888
1655 55804
5702 29357
28685 26415
61168 47959
47147 28741
5512 48305
60272 38705
57538 67283
40450 44976
47037 24563
63181 4584
68180 16406
63930 1809
28209 793
5118 6660
58879 29902
38221 22650
19564 65811
29304 63814
44140 17371
13520 54802
11228 39310
51594 68271
42750 49774
22584 31238
34224 46766
5458 6770
27748 9747
57337 9294
67681 12879
62959 13025
46618 40552
16096 26419
21255 3949
36316 55614
46381 378
12422 31510
21081 672
36515 60520
40538 27956
15614 53563
9699 40508
5144 23355
64570 27482
21501 5572
5811 65295
33489 26366
58169 55145
24905 47330
66362 1485
9421 3388
33738 39817
24722 61299
43206 64381
15847 5139
38615 60710
4017 53979
19989 65342
22225 24051
38262 43884
23083 47315
54423 14756
40763 14806
34259 47299
32631 10371
23621 48431
21185 54028
17303 1795
15235 11848
67312 6926
41795 52123
28288 65779
49963 16600
56375 59764
16501 10784
37245 32850
33041 40341
12125 1207
63348 50415
6255 39172
2594 9352
7126 57972
40688 55967
63330 24924
9099 57684
43157 39113
23501 59071
35791 40707
26866 40733
66845 50038
5851 7029
27205 16724
67100 48445
1070 14074
11803 61127
62965 51153
14699 52385
55135 60256
20877 24911
16497 25964
6059 28718
52327 48527
60112 68701
65542 33039
15761 45506
13976 35954
24312 21527
13898 1148
14307 62791
8417 26495
38117 35602
13098 9732
18379 63474
58355 43659
19226 30476
27780 65163
21588 42995
12494 40642
52305 47172
34563 46271
9403 16290
4720 13093
987 10662
61205 26305
47563 14984
29296 51031
48788 62975
28893 61044
13514 59238
55934 36665
20243 16870
33178 67189
23128 14874
12247 12014
52055 17184
29747 66740
44140 36427
59094 39300
47044 24981
62368 8001
19320 45745
67363 14751
43506 41283
37123 53495
1520 37874
2902 15705
52032 2643
52224 11176
34655 28648
17919 31420
17650 8941
3824 27704
61447 7928
17633 52992
52376 13787
48185 60497
39506 37488
33565 62315
66648 17740
19148 23157
19732 18760
60443 14263
27272 25195
14413 1515
8826 37554
53663 6379
21376 49278
52125 54064
65279 20187
65428 26597
32094 5138
57387 945
29158 37431
28159 66837
44076 36584
16763 67132
10156 67229
7117 29931
30519 55348
31060 15185
51456 62036
25900 4967
19653 58119
45820 14723
50771 12351
46332 35358
40405 3452
37946 21047
9633 24425
22454 16954
68564 46114
48556 15443
20718 52463
23819 15002
23141 7299
54111 11424
43856 40395
18 49135
8116 19979
9741 41575
29245 54732
5294 56883
7089 64079
64692 29329
21677 20203
36960 44162
59792 39532
26580 10459
55402 31291
49331 23059
9765 11813
21825 20222
48644 50947
40625 19269
8811 15941
24057 21595
28983 2960
49399 50728
64932 16555
3501 66745
34641 62342
66457 1063
35879 57558
24740 49365
66056 54511
5663 53315
41420 52262
16684 9571
4316 6038
12627 64002
9613 10368
12545 9480
44796 7590
27655 59046
60025 67258
64355 60682
39821 8129
21167 21093
28414 16599
43074 46424
60003 44856
16610 34045
64503 39637
30383 32377
5417 55555
38344 1859
38876 24627
60212 15994
18222 53851
52212 49176
59828 33845
6358 39045
30924 5240
56582 1732
57836 18697
10012 1764
63092 52393
10374 51792
54001 21945
51867 30325
23228 31755
59168 44618
50271 61914
51909 11324
19022 23512
62484 43786
60575 6415
30732 66507
55737 31887
8777 21257
5287 46847
49469 64762
39370 43782
56590 1309
66535 57043
65933 61227
10774 6280
65109 63461
65353 64698
19170 67062
28920 37955
9429 41561
26151 62390
13162 48017
65178 32924
57202 17275
29627 49369
5872 21671
50977 15825
24476 44778
26123 13584
12671 5834
44847 58337
25200 10864
17145 9135
57367 50056
32706 2288
49645 40221
12721 24516
25068 33808
62723 61273
38885 49270
39504 32701
67669 44081
56866 30962
45401 65695
44500 28357
51257 53638
23914 60139
3025 51369
29752 65231
35016 48979
31997 12081
25748 45358
509 20964
33957 5093
6317 26542
65281 13348
46024 15456
26518 61422
30695 57308
36830 25921
49117 42561
49881 34445
3951 10209
43507 47686
50614 51499
51649 11911
55203 29275
8477 56274
21452 68733
5043 21306
36989 4412
35528 36631
32073 30508
60177 46178
32256 23971
46253 8579
54681 1649
37000 20187
6588 26508
58048 34782
55193 20219
13406 51887
66960 14586
68559 61727
32744 64733
36348 47592
34003 8190
56065 20055
60000 36483
63645 64768
12778 31196
23690 22517
8103 294
20446 30009
38861 58094
22726 10010
38342 3958
20543 35039
52293 39698
22033 33857
54033 30523
19396 65744
42604 6982
45033 36123
35460 31111
25738 53273
55921 60230
1657 68239
6962 11760
66994 68592
33845 19939
51861 6313
55049 32552
40060 9366
49459 5785
273 35851
68587 22140
23339 49361
41334 32261
41245 16765
16073 26625
10706 8335
11643 15119
34054 50638
22439 30115
23215 19911
35769 30115
51483 55211
5678 63945
63896 32213
24316 55229
46048 6418
8699 55425
27228 41787
61213 22269
53719 47620
35225 14842
29400 2236
61042 3794
35856 46671
13083 35356
22064 65810
3097 65730
9029 35608
31350 8614
26358 46803
34770 646
30574 46798
65179 31788
67805 23034
49562 11591
40392 66730
11467 55635
48721 2281
7717 22761
689 19596
24420 38429
15243 24867
7975 58561
58625 55516
26077 50751
37984 30482
64249 14751
26876 25099
60468 60036
25538 35411
39694 23241
61939 1702
31075 27767
3456 37589
39569 54928
41077 45677
40607 13032
42324 28431
45052 7411
53148 6562
23114 38225
25405 51437
30171 60468
56834 48832
27766 41080
37883 59643
8369 53167
48353 23833
64401 59385
21367 4502
66877 26312
41697 45650
35159 17161
67163 57600
720 46405
540 9618
53825 3885
41485 29214
53013 47020
50775 53344
35286 8216
33215 67032
33965 48104
36901 68186
39146 41102
36900 55992
25635 190
54596 11092
28059 64467
53395 38694
58270 28318
66209 49097
989 64417
16451 67766
19456 59086
30885 68328
10842 64938
13025 12500
20363 2027
14729 64088
30496 50516
13084 50935
17541 8872
14816 15624
58456 39371
54785 24201
23462 51251
28740 31719
38593 5864
27990 61027
32598 35104
28187 11267
49917 34510
55034 49530
36748 9643
11908 6251
32961 60071
28517 63714
59782 65149
61194 55033
52254 36616
66962 43452
17277 46651
38531 39442
56828 8709
46260 14846
47719 18392
7123 386
17963 16388
46227 49544
17147 43342
16811 58849
64180 981
35890 14255
19245 40612
38333 26422
16368 22729
39574 7954
21345 58081
47670 31144
62932 32608
41222 25307
53935 13168
57696 56742
13444 63028
40845 46216
29091 42122
36390 12078
1100 3593
48657 13561
17127 75
21911 376
36731 22235
38141 67342
42687 52946
59560 48637
51181 38233
33 29611
11094 44097
62894 6590
45039 30598
6019 20700
15854 51688
35918 21561
30384 28322
16434 7592
65449 33280
54225 44310
37508 48548
42404 9206
52979 63199
13485 42785
40328 60642
61281 64978
44502 14403
15057 9936
33617 58295
56567 30503
30571 22171
8307 59266
7203 5271
46624 59293
20771 8223
17471 14721
47522 7655
67854 25309
64901 58923
37526 47132
43249 26702
54129 49292
30651 4134
40617 26118
35316 52668
55147 26751
2841 12518
1804 12031
20031 40269
60027 29803
53311 2175
42436 62233
47916 25738
61222 61781
10132 13459
65897 8751
5015 1902
13168 54044
58502 21411
16582 36313
47237 63653
1917 49785
54836 17957
61285 34916
28178 36875
68002 27334
58241 42410
52109 58100
60996 63915
10752 50725
60717 32282
58323 42999
24804 64774
44216 35378
53209 10694
29021 36824
24587 44980
25535 48716
523 7339
6732 52886
26939 43386
32074 61581
990 24800
15534 10931
48161 66824
25053 25528
62790 8004
26873 10684
38730 45862
36622 55337
44554 52085
31940 6542
26088 43681
49678 36832
67155 23228
61625 15778
59837 5656
50978 42938
48280 38100
66997 21146
10843 65175
2495 44756
2115 17721
30509 58629
25620 59606
33997 31536
37370 59420
38109 30960
65088 21962
15853 4910
66383 17140
29774 6269
4586 14066
17469 35858
64409 68514
15104 29958
27909 45253
43719 19162
27506 6576
59793 6012
46526 20759
51017 40219
57618 12750
44383 51186
862 11808
45876 2373
41259 38127
24973 45303
2983 9466
8819 14102
35517 58315
13658 49424
38027 22929
57905 47869
34722 3489
14181 58041
8416 14971
62609 42588
29620 9765
11526 30102
53043 49492
6345 62606
23722 5367
58954 17510
13085 33291
68799 41821
27923 7003
4053 32300
25484 55488
16480 66072
28929 22275
60428 57697
63983 42469
61178 44281
31666 36544
13595 20436
23631 4225
7251 8267
51034 30764
24336 55399
8064 14654
3310 34504
64492 66384
8060 50353
8417 35819
24934 50993
45003 55372
37905 53094
33729 55202
54307 60724
31804 18182
34273 68342
21278 691
41666 24571
66476 63874
18126 58754
47563 12016
8637 36238
3818 22796
35253 56162
41039 65061
47965 49344
46240 37674
25784 60017
4559 55801
39171 41363
51342 14209
38299 41238
23380 25366
65366 42772
1613 52166
43171 7310
14342 13695
4821 48426
50027 4646
67147 62895
39975 32882
50171 40168
738 58346
38834 37090
11895 38882
36502 32835
59056 66545
33074 32388
25578 3916
50915 11958
9400 52020
43838 36255
2801 31940
53614 47134
54544 2071
38058 60984
24634 52825
6161 56928
16731 46251
12816 5241
62899 46240
46161 63743
7157 31740
44294 21829
55212 22434
20397 37021
63990 52581
2427 56853
48340 47373
46059 13335
49712 43012
48083 21704
62924 21525
15125 9928
14476 52447
66099 32056
63954 66555
11034 42434
23094 12310
23397 22835
23776 12543
61583 5345
27547 7040
20453 18029
20716 7588
45025 60418
55256 57160
1833 40304
32814 42722
50031 56302
26506 4193
66222 64572
51273 26519
53033 60197
21733 62026
45199 67261
44286 8900
53410 60464
64897 45553
56704 65745
35372 53403
1187 44371
23395 2321
17001 40108
46859 15382
19778 40071
33317 60717
68637 59504
32584 33517
5845 11271
51188 31187
55206 38275
27281 16382
5543 49165
49211 54795
7065 18354
19507 50782
23020 4187
49281 15582
57749 3410
44631 27422
47629 51999
30982 3305
3055 63518
25692 28175
33003 32897
36101 7826
31558 67030
12756 24211
28915 67670
67699 13812
3201 46261
49955 7212
578 40776
17547 21703
66551 29082
56866 41336
46997 20296
49153 9037
21071 16836
12646 3453
14975 32629
33696 67191
9467 35690
61661 3202
37834 1454
64877 1591
5255 9374
35169 14151
56667 4012
18524 54953
60874 3363
59152 61303
2067 62001
20982 23532
68544 28242
63077 20806
42195 53169
47790 23592
6218 47426
44636 41146
19575 35862
3415 59862
56234 52363
51885 45083
66298 40698
42193 68819
51961 49861
18270 31160
7718 25186
58002 31897
42981 10564
57206 54471
38677 14471
8285 48424
3474 22420
39401 42896
3041 67175
67652 11186
26186 20775
38099 44184
38111 45354
35105 31239
41248 40396
11912 5103
13886 63024
41965 53894
8320 17150
8865 37683
63219 9423
52470 54811
50505 19035
66251 58237
56953 67720
49094 68415
65520 17818
50707 3581
45840 52086
68787 10851
28358 19867
40914 45925
31923 22679
6426 18760
47864 3691
21985 36156
66442 27616
68050 51905
55502 12403
29743 68467
284 59456
56365 42016
21390 50138
9846 31669
24560 35792
53137 19634
64087 67245
64920 55153
19733 26691
14601 7186
6155 31497
6159 11986
4110 54909
38653 38726
27329 41725
42481 6396
60086 44938
67793 5638
39956 4110
17126 13862
4608 3764
54379 45296
11909 63702
3492 51631
56359 68043
39744 35230
3822 66992
8264 42084
1877 45060
44527 28974
42540 33650
51931 17141
3192 2230
13802 35721
51217 47802
62893 33953
59040 53834
50 61834
31650 15249
65022 2354
44747 57795
65663 21864
13516 28301
12506 11424
66365 53539
30059 13036
44905 25490
25065 38303
47425 49201
22142 12337
19023 17980
25659 51550
43009 62241
37088 57775
5379 8691
54577 60332
18897 46769
64111 30268
48711 10407
68332 9344
29507 61983
48698 28988
10630 1834
27907 63029
58008 43487
55491 4437
48409 54391
39375 17678
52951 34281
30725 39310
2346 50171
53874 63095
68248 14068
56876 44387
27685 34376
17400 43947
23788 57813
48135 67832
15649 19431
63609 44418
5919 52455
68524 395
62565 45775
28812 59749
30331 28671
62056 65554
31624 68788
63871 4411
67446 68329
13017 17600
18953 17610
22018 19102
61976 33690
23156 16376
25898 12181
66559 59896
8289 63964
52632 60700
17152 65985
19817 24233
42836 25592
20373 15856
49047 43724
47806 30765
63536 36532
48457 31489
55657 43685
54608 44641
32269 36555
30247 1763
65269 15469
15097 15884
6177 1018
28350 721
18596 63766
33377 18795
31177 10772
6903 22207
53262 19477
33969 2083
34867 5187
14733 57174
51117 13446
57695 14197
56054 20377
36263 63397
62058 55724
67209 8461
485 16725
2441 41970
63806 963
33658 48117
41337 22555
41539 30872
52976 27176
56143 15522
67132 13000
8604 57369
54737 25336
42616 29537
25141 63176
50180 54475
48164 55463
3212 30541
7352 1463
49288 44478
24012 32677
25790 58442
29052 55278
49397 23679
55642 6818
40834 44273
29713 12863
23351 68041
35528 2954
1203 51416
16059 67251
40497 8767
31526 54682
10097 23503
4504 56190
17268 36158
37073 5915
32583 13812
9503 52967
39690 40383
51197 46308
29769 40437
23939 52584
17601 19274
12401 15047
5751 54282
3364 2314
54664 52527
40720 61099
35992 54757
51671 53489
49801 24980
42733 56015
67769 52000
65 26043
43006 35845
42917 7326
1488 8465
18913 19762
45013 67232
5106 64478
23969 50443
68195 49104
41866 62127
46431 52505
22430 49052
21183 54037
55236 53326
24163 14062
586 38906
53808 42712
29170 34739
40206 12600
43050 19530
37771 65716
40678 24832
46718 22052
28007 19583
61424 50338
61956 38882
3180 56682
37709 53329
40526 20967
28960 56138
68487 6013
65891 13454
6511 34700
21350 53184
9091 16882
52483 60512
39669 13689
23477 10815
8832 45575
41647 11484
36543 56853
32331 40767
22788 31086
18267 8397
7315 61231
50282 23787
32921 44527
5429 7772
52233 41594
19834 43654
28412 53279
44094 16590
22988 43836
30279 68329
67387 42826
2151 62595
5899 26823
66002 20655
63740 43566
63154 54130
16329 11034
13652 48328
4158 15692
52928 47554
11091 5422
27569 54749
2704 13266
65986 62705
62070 3847
61752 6290
39225 63994
16069 57163
31191 19849
63247 10255
11880 29816
56951 64420
22081 16660
12594 33516
33649 14495
39356 29419
59820 66101
58602 57816
23081 23981
50904 20452
47339 35599
9492 37243
106 43380
22949 68823
28227 6447
59582 21169
67633 16070
6624 52003
42074 12307
46281 55873
38167 10115
53781 32626
7004 66224
14304 7225
32172 944
62808 9663
12469 1665
24551 52641
62407 33410
36659 55946
23047 32034
32175 13642
36973 5749
64469 48794
29083 23714
45674 51133
29882 25786
59592 54745
421 18949
52229 44624
8368 68134
15150 68227
1786 49799
2950 45785
23513 812
48603 31309
27619 65025
52140 7555
60985 22950
9693 48131
2860 62420
21259 13018
4144 46454
56594 62557
30603 65956
12690 54434
28762 40672
58772 40970
11031 5899
35612 66585
14819 32453
65910 64316
43859 50586
19534 53201
44681 43182
61021 65367
44196 68110
12309 3148
27036 1238
48222 22392
9794 17870
63560 65492
45713 55950
51006 1267
51574 60000
7413 18197
15958 61706
65099 33446
68457 68143
17874 17576
41463 17203
44684 46213
62172 67491
28237 878
3346 40152
37530 42272
67673 39807
11687 12383
10878 37600
63725 6847
50904 42440
24593 31035
40748 43993
33776 9080
59498 34646
16084 51531
27838 55639
48596 66198
47171 56737
29501 63858
54297 32430
26688 53793
32752 24618
1092 20498
37736 49089
21826 487
8906 36402
3288 45830
33386 44992
10483 22529
42034 55822
65764 40798
24823 62385
33656 63227
10108 43725
51969 38904
47972 45602
5824 49068
52138 64304
53355 53069
54750 29268
18603 6667
50911 55733
12684 15579
10667 9683
7401 6589
68313 65520
66944 37705
29661 4166
63156 12606
45629 54255
15802 28756
56437 56754
43611 68551
33948 26540
8256 14007
57549 48909
11222 62913
51804 39225
43123 65692
21368 30150
46290 52558
30471 11558
67951 7964
25569 48130
67923 53931
58543 68084
51883 55370
21532 41612
22299 5691
37584 67316
52075 22060
3727 24218
29371 27270
24450 41932
7038 46524
9015 54433
45846 37532
49908 18242
41445 45542
8282 14180
47135 40645
63941 66790
27873 48677
62733 6318
1696 8207
66810 52743
6985 22368
65646 51121
56153 44035
53950 41177
8788 46269
21773 46529
30511 10327
19521 68692
33269 37722
57784 39414
6077 30052
3973 65001
21551 42380
67059 52207
18310 4408
2710 21580
29785 30986
57517 5672
23913 32033
23720 9529
34040 33584
25811 19466
18373 61050
62019 43727
8290 23285
7022 9641
15862 17211
36611 33583
34345 33841
12702 33446
48774 24213
40104 27373
14006 8359
64536 50095
19448 55003
44520 20223
47079 30616
28991 53431
21352 23475
35485 40155
41022 39772
45165 49701
46280 15268
5602 15055
58748 20526
28905 24098
24840 50148
60981 28451
17693 27935
5238 27075
55544 55996
1928 28011
32861 65195
31573 29757
6307 22579
18761 12998
40496 13311
61544 15197
62197 46360
6295 25941
60143 28582
26410 31165
35459 44556
42139 33140
68082 67853
27511 56135
51252 3435
45059 45819
24248 42577
3697 21815
13923 22348
37691 27604
13507 8723
42218 6987
46517 21307
37197 51105
26814 49431
54479 27114
26976 3920
21341 37506
68333 47110
46217 50661
45163 23748
40459 51815
47702 26586
41457 35963
29567 31772
52880 45013
39575 33657
44426 12620
12673 43306
27859 57050
206 27452
60501 17163
36998 33369
34243 13796
13575 3303
61793 51756
58988 20269
47666 38083
59795 48769
39749 20730
48172 18929
25376 25264
62896 1992
57123 387
42426 18880
46756 31570
31134 50426
61255 38140
8700 31993
37458 52761
42562 32634
61247 10841
53119 66673
48872 33796
67267 58735
63917 27532
58782 65101
49629 23004
19656 22056
33002 63172
55561 35981
3234 998
39303 16232
61504 24511
61296 43045
15264 49327
30383 1102
64939 46044
30480 7955
65113 53699
37128 30426
61543 55220
38311 53965
29861 4803
68208 28653
66239 38531
8043 25826
41132 56853
1523 68672
54033 1588
46084 32359
37212 11256
26870 38783
1684 46597
27941 61803
4994 46225
40392 43202
30903 1559
55732 35713
11856 49324
35404 20167
17491 17256
14880 24880
34371 59011
52888 37376
51300 30532
37952 48868
44017 2622
14935 67082
62937 19779
4483 50913
56074 11478
49741 15544
43641 48102
65470 32347
37843 38489
9876 63815
56461 58599
27211 23131
8035 133
60806 68768
5566 2333
61894 45067
12203 46900
38155 43219
36292 5889
7198 12527
54033 29641
18127 54555
48303 52876
18275 52921
64733 8299
53782 19546
20248 20150
45230 27328
55107 67899
46545 49616
43410 46817
26964 43279
13987 18066
36975 2897
27009 719
68022 14162
54249 9825
67115 60905
66255 31966
36119 50467
38208 31707
68822 53411
59063 44039
65531 68153
11379 35709
34522 33282
53018 23193
27329 15674
51689 20686
4293 10521
44289 55622
22910 2005
16879 13507
4299 248
39017 39543
9515 19218
30560 48190
24451 59398
63033 40521
10308 26256
64520 5212
6200 16347
18007 44592
20928 58635
5477 42599
60788 50200
36995 46686
1252 63202
37633 52879
49254 26
62734 36379
8188 37618
65201 30550
64904 8225
36415 49267
55192 14236
12592 46947
45878 46339
21348 55500
62550 35863
50680 68657
45935 63631
49175 59309
22841 42260
26855 14325
63430 21176
45371 48076
4902 53169
47105 5792
60335 49176
38455 63047
16711 10207
8364 11064
67412 29524
63284 5575
59699 57161
63918 9347
28220 13577
4991 45862
15357 30005
61364 55150
29812 55491
33430 43121
63444 4576
38614 3786
2779 52348
65661 66806
26839 18485
12076 50866
49386 54691
57569 57864
54752 11002
60028 22714
39583 41268
16031 32347
25009 17615
59349 26160
47980 32355
63584 56352
51438 19333
55676 56916
49738 405
27624 59052
34598 5966
16306 5609
51056 13328
53416 16377
8242 56244
22345 8234
55095 107
13898 13510
63460 36001
5679 63316
21545 37338
5075 18253
22019 47063
48562 52503
49558 36732
22084 7064
58717 34487
307 5969
40177 61360
21941 31765
33273 6578
37180 21647
27595 63587
52342 44664
24386 34249
39817 4076
47511 13852
32090 14157
34141 13952
17381 25856
36002 66665
57327 49043
28039 41702
44006 2665
13847 67352
38056 27879
56237 35949
5927 65655
20946 34782
48456 44601
22989 56553
28206 58054
48103 43948
67091 33214
52825 24644
24645 26457
3190 52816
47618 17264
58595 66378
53301 60116
42006 6937
35561 11833
29213 4687
62031 40030
9546 33205
29342 21710
37905 39777
67657 28564
17149 20647
27475 24394
55442 16628
47870 66426
26302 54536
35197 47328
65412 33376
35210 3084
64779 34516
47336 34083
67258 44384
68792 65314
24535 58542
41266 52314
15041 1865
64496 25586
59282 47745
52213 19817
12982 25286
5625 31451
60274 55423
21515 52237
49939 39337
21425 44112
6964 47517
29965 60901
31448 66979
1031 14013
53683 38972
29728 1966
24639 59904
26989 67216
50936 363
31786 29328
62408 18174
9436 45905
54739 50567
25252 8644
42506 57365
2580 19304
12651 44082
12373 48757
58710 17419
20934 10595
42458 53827
62079 19572
55055 26964
36276 24638
63114 38401
33296 63393
2595 26752
17836 19883
32499 66691
47316 32339
49148 19351
20092 49181
59953 30219
42733 15044
8431 40407
19852 58852
56941 21558
23283 19926
16803 25358
1567 52223
19043 23629
23389 56372
59431 22305
26598 34806
17559 55104
32252 10668
574 37536
62445 19202
25660 8557
9374 11615
24891 49663
36510 45665
11461 45893
60551 6364
37897 13281
67768 7943
30506 67540
66654 44736
51723 25311
65667 55980
55978 22111
50238 3869
8015 415
99 23996
48366 3854
67217 55441
66252 5968
10876 65723
27672 44444
17713 28605
18728 49159
21263 50963
12107 47911
25853 61955
9927 45325
25862 28531
8526 68347
62573 55487
49199 61692
33928 27075
20465 30126
51089 15027
27275 7092
68030 58864
68200 18062
18822 39670
35404 10188
28564 11610
51399 66682
68736 14256
8535 17469
49298 57111
7618 66543
19233 22534
43202 45750
11131 44826
22283 63027
45218 19887
6048 29696
28539 12802
13538 1933
61866 7278
67528 31410
14176 54720
15655 18926
52988 56016
24389 59395
45753 40749
14823 59683
36140 39904
31160 41793
11514 28708
64166 37204
12211 54854
10563 54084
61774 36791
6802 35932
9236 61934
67321 17375
62729 56340
62584 62034
54772 22876
65072 60937
5412 50510
54577 54015
45130 55572
46497 16463
48090 49253
50863 6849
25649 36195
20476 44855
27200 12606
37219 66348
49397 39160
60513 45526
52989 38486
57430 5311
27901 28657
56779 49659
61315 35734
53307 49806
2717 51703
51002 30062
63985 28478
56231 55843
29032 45341
20408 23961
38831 65935
34780 10395
49564 61813
47437 40423
67572 35575
35293 10674
45044 57232
25816 20632
55301 33314
34298 66958
52913 66479
28685 67967
49927 48008
47186 49787
13364 30169
23277 61406
66884 23056
40939 53809
3550 22435
24229 7795
64021 22285
42549 46720
61466 8188
23868 5618
45246 18381
17822 46541
53678 7816
23776 22800
4267 55837
813 65390
26444 7202
32426 65203
40919 15575
41186 52019
53498 51765
50354 10001
43222 30736
28072 58547
66874 44319
8707 61634
55396 43305
46768 23667
53151 53878
5517 36045
11252 8783
38803 38408
51654 51842
16672 15485
8751 50812
63949 37209
34664 66228
26270 3157
49831 4676
716 51934
49480 1371
26794 18603
60592 51179
54727 37843
22984 23641
25273 954
66249 36268
58286 1718
54767 44893
18536 32739
48028 43075
13989 40698
59738 37399
27115 6623
16288 27856
9532 6074
19208 28627
53157 48127
43917 31362
40011 61324
50066 32048
64037 17689
63218 59633
57592 32425
55560 68269
1445 36971
48642 2127
60608 62466
11185 731
50729 782
22672 30717
18654 61904
9727 55404
16197 47885
5693 43106
38037 21236
51449 26490
41611 7899
52673 46879
62568 57279
56670 51257
59484 16666
35861 24171
32222 33855
61714 27298
37898 36769
58430 30828
6057 64175
37837 52856
49110 20637
60195 12679
30920 61935
28112 36495
21238 20493
10973 60559
31554 51692
21251 11083
14531 37564
36615 8206
11182 46895
14747 3298
8767 4492
33764 60949
34984 25245
27537 50019
47602 32604
68516 4358
68062 15806
49119 54779
37450 65483
48496 52121
39917 22624
41325 28040
26732 1594
6923 32246
48281 27444
34045 15618
9808 40998
42186 14314
66473 34869
16568 36769
41616 11401
12612 6281
56332 27922
17235 55507
53647 37560
22570 943
58597 26178
3631 922
38340 22554
33821 5123
59204 44627
51817 9187
45071 11458
37052 3295
16492 49284
55776 49770
59953 5965
28 34620
46231 29408
57917 54250
48298 23375
27927 60095
21388 53095
37108 54278
51092 32435
14447 4459
45852 41484
40135 39229
27380 51035
52815 9623
61418 10899
23257 50217
239 2659
54704 1704
31906 39409
24181 60886
15489 62318
22840 37902
40348 37864
43832 67304
27960 23713
31728 29048
63024 17976
2677 62459
35026 8728
34016 43748
14916 33952
62658 17719
60248 52616
27011 31945
31866 67453
4127 60942
54900 55263
28268 59384
50589 41705
31992 52604
20323 15179
67216 37288
18317 68097
37915 67598
56150 46427
15080 52592
9215 22649
30018 67731
6307 51665
46557 33026
19669 59556
27223 11384
36250 22369
39883 28270
38881 965
50500 56757
57415 42635
31317 14502
48905 16239
67494 62327
14153 3384
53105 18651
37568 39691
29136 30493
49125 37623
56955 25950
38823 6662
38617 40944
52034 29897
7021 27217
54862 61068
68105 35329
13063 28295
16062 49217
11929 48824
46931 10727
35334 55028
4072 65136
46528 15020
42186 63696
24741 14441
57875 60192
55528 55119
33409 53100
1626 22426
17794 65115
8645 51529
65650 49791
30862 33797
51504 40184
8967 22017
3527 58963
24083 63216
27139 13311
66448 55393
4777 6623
64840 8086
15971 17721
15179 11035
58443 22935
60674 21446
5142 59378
22099 55018
12766 39417
3570 10845
1171 42379
41635 23209
38759 37729
4350 31617
54513 16128
67619 8204
24059 14434
38373 59649
42901 15548
25386 47332
66599 43888
9781 56945
31197 218
15204 43590
40592 13954
20707 5136
55257 12632
4024 61731
37440 49821
16772 57483
23389 47930
37577 33241
24520 45297
16982 2935
4376 41510
68684 16750
60399 34508
56555 51401
21497 51627
21527 35326
62903 57844
67649 4394
9452 17566
52789 40511
43799 42657
27598 8921
67727 17531
14690 50051
8591 44805
14306 30142
65125 54409
8357 38562
35611 45270
24778 49030
25661 22166
47729 27194
11435 30483
7917 14509
47051 17708
65536 47552
56445 6856
35398 54820
10694 54623
62216 23229
56944 20967
25593 19683
30939 20940
2473 7726
67526 49865
30313 51565
62448 13571
52820 15243
46085 13675
62398 38271
57229 3850
34369 4397
27637 37305
60124 14412
45614 24603
38780 50450
65044 30692
56025 67413
61804 4869
50979 43181
52520 29135
62274 8195
60582 46270
50130 31451
18080 57774
67944 51866
50247 52438
16744 668
38775 13991
10267 27491
16749 1248
4632 8312
66672 52795
17801 11202
58759 38888
9952 66607
28868 25737
23921 36325
33110 30493
34073 31268
45167 61734
59954 7512
39719 42711
7132 13900
40338 31049
33735 11944
36409 30697
17934 65954
32835 64195
33655 65012
20794 23343
1228 18448
18153 50572
41070 54891
822 27319
50117 15165
40418 52471
64102 19030
31802 64674
5730 46828
16866 54803
118 65641
63996 22718
28736 18012
25094 65973
44813 7696
11767 16276
11221 6722
28681 61391
2944 60173
9610 61628
7115 815
6540 27570
41837 17925
10400 26201
10767 64216
45094 22005
17850 5582
49833 54175
60554 23997
36374 43461
46661 7865
51705 15293
21556 14259
34661 49001
24272 30980
59381 55855
52511 59889
15125 42143
62618 47366
59229 56184
1691 58082
65862 63037
58228 28840
63636 3567
18919 52201
31557 46528
22271 49260
8456 16367
3811 56772
48538 3710
6694 9573
59761 893
27142 57919
43249 50627
19883 6731
19980 23405
64275 45947
55809 54783
17492 17077
55982 57129
17389 3463
37051 37818
45493 59952
28202 29440
38226 67116
131 18374
28615 24537
31565 44072
5865 46023
28392 28538
10021 45203
61653 64010
45462 803
36079 11038
46277 43083
46833 60841
43442 29241
38796 63064
62197 21918
57421 60622
67702 25722
50375 66297
29161 6329
49638 47767
53832 58738
9171 17236
54591 13847
41149 24117
57834 11575
3563 36330
28951 53296
53841 17725
16545 64995
63002 53944
3311 55740
53614 61590
48011 37228
52670 38196
35210 10211
34629 24732
51376 11122
4393 12291
3439 24380
46268 57786
65918 49583
12485 60813
28394 51734
20023 1449
12048 40083
61839 65553
50635 1899
38209 29317
47997 18269
37468 38288
42049 41414
65057 19680
47335 59510
11348 64582
23975 49515
23348 53150
12428 23456
48810 8677
57772 15752
55873 29773
20817 24814
32334 63589
42421 52365
29445 11174
26353 18340
62222 19126
56185 2162
35632 37259
42941 2637
62795 7141
43980 26663
15805 10605
55350 68488
28275 20332
12863 4100
18159 12121
47988 8054
11282 6420
1264 49974
49882 22088
51357 9173
52957 30005
46472 45818
44154 45733
44233 44897
28766 3680
54056 58534
68198 50701
12843 10764
29577 30085
49290 10571
59914 37267
7792 55730
1722 31951
36816 54454
22869 21638
8338 43925
47395 20386
9803 21549
16564 19181
58274 29093
37571 26988
32152 31141
67592 63001
25481 21471
60490 33165
63534 42035
45577 48144
1975 55163
3920 41733
3996 58859
10119 41360
34161 59043
61756 34422
3249 29706
42664 66190
12490 25014
60775 66716
50098 11585
43529 40101
36861 51358
68296 59388
65382 35487
11275 6006
22417 49568
64780 57302
63296 24975
48293 25184
11881 66025
5995 17077
39121 14402
4273 18618
9206 61855
16074 60089
44286 23610
10548 20618
47188 13780
7015 2269
14328 51088
7781 46643
68817 37834
51210 26268
23743 56465
42015 15979
35394 55277
66966 5774
27357 18964
51659 8228
15529 9110
6032 23289
55746 16198
62087 18966
39101 42202
5849 23730
27349 64266
6842 15982
50111 43091
51223 17304
11022 66995
26548 14817
23115 52518
32502 16410
337 62982
38876 61844
41603 28289
30540 25803
42864 61832
32616 23590
1418 23893
57475 3316
24241 36515
12965 44715
58099 58419
55042 31902
13276 1474
53895 44311
22379 55874
19880 15535
60320 52494
42459 65410
36419 60418
56305 55501
3475 9141
17184 61986
49931 37590
6122 29317
16853 46470
58631 2946
35174 47599
37019 62408
7487 61617
61133 26461
8584 59946
21793 13818
64841 27636
62025 64106
48878 67838
52239 59851
29410 8908
57662 34055
29466 66642
55582 51869
50017 60134
33833 33670
34582 10453
64020 57712
67791 35556
36073 35872
36953 18773
34012 16526
55130 9907
14212 66454
43348 5803
34474 23891
21715 15904
30305 36474
20541 14330
59431 43407
11292 55491
48401 10335
33140 17866
47653 9779
30302 54693
51634 22568
56554 42036
43561 67643
11224 12265
16444 12514
57600 56253
19609 13898
8971 65845
61312 62523
60840 59019
4692 18677
8078 45849
33314 34529
67467 51852
16095 40517
20322 64637
23117 5606
4871 19337
33346 37379
45196 11621
52187 9997
50065 67508
42889 16365
27886 43819
38975 61562
12194 64972
60476 32973
32029 27295
59162 67146
48372 32549
25289 17957
47365 7475
11693 68203
57203 25093
20279 62738
47040 34724
8375 2721
8566 7311
66499 6655
55812 51599
22404 5123
11045 36519
61584 1160
58161 12082
32620 58409
54807 40024
6617 16743
31026 61275
4928 67940
28055 55357
41749 56171
12073 41314
22450 34931
53827 57095
58611 59372
9941 68164
13758 1701
6366 54200
15732 3478
55177 55182
54369 15093
64796 22202
11853 61050
11016 49052
28018 30102
5583 52442
62030 32807
35164 53081
61811 1001
61267 64720
27111 25254
47006 43941
15275 58851
2149 36881
24659 60595
56970 57461
2070 29918
36057 38945
68263 47477
37203 57523
41393 17024
39566 40804
3118 63365
46804 32319
46412 42520
60146 53369
67423 47901
62111 8096
27271 4471
15126 67502
12332 15894
58089 44898
50182 6739
37846 1609
36405 28326
52983 54097
20429 28171
6691 53768
23014 67696
50384 18326
37606 32226
8549 31363
7483 9430
54324 31433
52113 57506
8177 44515
39685 49393
39600 53317
37862 21604
18595 67643
26977 51848
38850 20928
11080 67796
57167 20456
65998 49330
67347 28554
23442 17560
39864 64110
35356 35910
18850 67999
12325 14901
47389 64915
67789 47215
32917 26921
59045 56441
28283 65375
46101 24281
16807 24819
33117 26224
42636 55188
49004 45930
4201 65700
38420 49975
30500 13518
28016 46010
57264 42327
12155 63700
10638 56213
54366 44356
45666 49010
28738 1637
16908 64123
6001 43673
49399 54196
16542 29506
19727 17954
23234 14492
40718 16594
18377 16267
68219 21869
56671 2074
10237 20947
11609 26644
20688 26473
22085 8626
43002 22938
17682 17128
14484 6665
14434 13434
15774 57349
49054 23589
63271 20292
66106 4254
18188 43018
36831 5228
37890 40859
61407 38069
52592 43367
35176 29028
46885 45211
49424 10656
35588 2468
58890 36207
62234 2476
49373 34265
20131 8990
37873 32140
29471 18727
20478 53735
51203 5797
41961 57924
14251 55283
43131 23555
66414 45171
31609 37331
59042 13690
40735 40115
31865 26728
22134 63509
48521 27202
27397 5503
6394 63944
34898 43137
52013 55857
19684 58296
4124 3909
45470 27741
4231 36694
62174 60633
30638 35132
62548 34591
5454 41585
53555 53585
49453 32005
9898 10554
2068 21964
564 7082
62529 5911
45937 22044
24295 57606
13130 43658
22051 1216
20787 29498
67483 23264
53340 41791
28547 15123
17666 1497
27806 13293
41504 50906
34315 61025
30463 45652
51598 45642
48286 51435
23315 61704
51079 27332
11982 34940
51114 6900
6103 27756
58280 29809
56206 56894
100 2097
13736 43775
44744 22702
28275 40957
24966 60213
66112 24697
39125 54218
65543 30858
26068 33479
67846 46785
6512 29596
55040 55469
48939 22048
22209 15056
26198 60995
24582 63644
40211 5804
44929 56900
13050 1349
10181 54972
65204 52134
42529 32570
15645 6653
9936 53379
38656 41923
29299 61454
6714 37822
47321 13064
64059 2305
52775 7620
4703 7336
10634 15987
37676 24707
33870 68697
61523 61991
35249 6915
5407 66166
58984 65808
54332 59082
43323 36716
17399 15362
21696 19203
3592 27840
50356 25475
31973 40908
44 13597
68371 10885
49080 37241
10259 1567
50241 22324
37723 57520
44529 12035
35520 68210
62623 34981
56652 5680
21004 25788
17895 39392
1205 46411
55133 54855
45429 13419
11294 27221
4362 45032
36281 14862
58251 22708
7819 56336
24089 29426
17554 39329
32750 30319
50546 65301
12815 64345
33121 66575
10899 6177
24577 41770
48824 50357
14053 25310
26441 16933
59276 49252
17092 65092
62190 64337
64785 55634
16941 37405
1563 57124
2877 52917
16871 40802
66113 65901
58243 17643
20577 28181
25530 39357
17672 56309
10160 12109
23275 25934
66727 27549
54092 47638
34561 53820
34060 12569
17162 55486
13592 158
43654 22027
50013 5326
32290 17175
570 20493
20422 27725
13863 57473
50686 11707
20715 23108
43680 3965
34046 60206
15387 12709
68112 1673
61177 43542
19252 588
2959 52620
33038 9738
18060 34716
14612 51018
37566 24392
27944 43959
21943 44183
3666 36042
65968 49244
25580 58416
19542 63700
42699 7265
3783 50333
61330 9276
57591 60324
49558 43375
64450 27274
33465 2647
39191 44679
39134 3438
34075 42527
5212 53810
36261 44601
2416 13631
41377 45461
35314 43519
7684 55765
10216 62242
46809 30051
61555 66728
39736 67275
4166 18853
52288 48641
4338 6516
66367 65287
33289 10146
66801 13969
36649 60622
27743 52434
8280 10069
57306 12367
53587 1335
58956 59607
56707 33472
10859 27483
51682 33269
42119 16810
64175 50442
57828 11317
56900 54518
31918 30873
67060 57082
23296 4637
49132 11522
32989 45047
31877 57902
38864 20808
51035 7558
16783 52758
41299 10948
61818 64132
47274 58313
56842 15696
24793 21656
43234 401
68431 58784
60086 10971
50890 11517
59071 62646
1780 45786
35646 54663
3026 7117
32271 56935
52897 28188
3803 30953
39069 44240
39326 61303
4898 26814
15184 58451
20329 40310
27565 63134
52480 680
52727 435
68560 11325
49279 18812
23192 35906
31979 1522
41433 2836
1925 31273
26504 44912
63632 68768
58731 55369
66718 803
49129 64022
53959 9445
4522 6227
63823 933
17606 6224
47302 6497
25680 16487
46840 15061
34334 60253
5988 52120
17317 45941
55357 5055
10195 8543
35026 34891
66084 10230
50385 18914
49757 11472
66331 66043
55150 21395
36018 10272
8409 47074
45224 60172
38205 51868
13418 8273
50754 10509
59292 39485
62286 17058
63643 68771
36777 61816
63947 58993
25714 40146
34509 35470
37068 20689
11322 22840
49521 37079
43804 31829
61544 60752
40127 12011
53952 5925
57628 1402
57926 23708
6425 63668
55751 24864
61979 2785
53944 43141
49515 265
25068 31685
44692 29292
33038 4544
33319 68109
21128 58786
62311 66266
37765 3083
29786 65949
34468 10936
43551 32979
8979 39024
59178 67194
45853 15365
65373 495
65891 44471
516 61468
20415 33062
32572 55649
54081 3992
65853 15480
43641 20340
49737 59353
21813 18417
42503 51914
63602 57586
18456 529
63513 39592
13458 42743
42562 16064
2054 26749
64750 978
26917 60418
46609 29850
46781 41219
51667 54723
47821 11075
40285 65928
63144 16568
51640 27716
31846 50031
28922 3641
22678 17302
10774 56562
47716 59684
1702 35777
1493 56842
13716 31068
53082 55853
45957 56878
30913 17929
40399 67469
2691 13789
35437 61917
48273 15791
548 65757
23593 32669
33308 2873
9806 20933
27861 67807
53637 33808
23787 59677
60236 22034
44427 55397
59295 54068
36125 39732
44245 17000
33614 39109
42042 27322
7165 16580
11452 49338
50114 14171
46909 8654
66860 12398
1507 19403
51240 17382
42713 7793
25761 32067
15691 61754
20533 40655
52412 14970
31633 33406
59298 43530
50086 59889
25986 53761
23237 63641
11102 1534
49227 23192
11532 49755
8453 41185
49278 60665
54829 44941
66504 34776
65514 45588
6917 14646
63561 283
15551 32513
35571 4635
26929 65684
9687 2563
28756 62446
32454 58806
19149 41199
17942 54192
39650 18343
18412 32788
24758 39609
59855 38425
43325 50691
26502 48389
40840 20609
11967 49986
56391 56628
49383 50239
4512 20749
17516 62728
68733 6114
52898 22995
7036 52900
60811 31611
63502 40452
1609 63509
62066 12044
42293 3255
14591 8756
51972 37646
31556 41703
49266 7006
60819 45732
35066 38047
27426 39792
18970 17270
3259 35450
41863 65840
59893 19473
10238 10349
5391 25745
30097 44620
24401 48332
39192 60978
14349 63511
10902 23662
45078 66588
38958 54174
10058 52832
67675 33421
31012 19660
14233 36647
40470 48905
30612 35451
902 5279
61709 58398
987 12097
219 3311
24144 22282
31486 21363
11403 65799
2985 467
4768 262
61533 18869
56775 26777
44925 21210
14929 55326
43907 27456
4943 61337
7651 50735
66498 30464
14436 5060
5423 48133
11585 4813
51580 12794
5972 33837
55901 51452
21713 60103
15354 55119
52187 65195
50285 63837
26460 23655
30816 64685
22104 62194
5515 60778
14150 49915
29247 48313
5042 14414
11129 53270
47265 44088
5643 32846
25227 44553
36828 40839
11211 16341
24552 57369
10253 485
15222 38938
25686 16087
53672 35581
58508 30952
60448 11845
33041 25670
14184 66086
1268 18928
8810 26218
11214 56023
8641 38694
10551 54121
18672 36613
34391 19901
40427 65106
48636 45007
24015 11182
57666 1717
11621 3992
50296 14108
64668 66867
25449 35124
61706 4429
58476 42144
62195 53527
45396 52615
49328 61056
33374 2695
46948 29791
48396 68384
64381 46585
22287 40628
59390 54485
63581 15652
65745 20074
51261 40549
42266 56859
2470 44395
29381 5017
45711 52477
40266 5339
42489 3805
45831 55160
56066 31300
8411 44507
11463 53311
13885 48871
31894 22562
2317 31794
40306 3904
46502 9624
16459 30582
45212 55978
39108 10797
3154 4516
29836 29815
59906 41050
31299 20358
17962 54418
17868 19314
3653 9627
36302 26212
43363 15887
51137 5302
43095 41225
7008 11302
30318 8515
45363 61481
14182 57540
27945 8040
34506 68506
37391 41506
32865 67676
32810 56266
9002 43543
3338 5152
60356 15370
51983 52283
29879 54018
46607 40245
60895 61719
60394 36686
14523 65660
56446 41512
47830 66234
23522 44589
7527 30750
23119 49240
32813 21182
21531 32914
34508 64984
35381 48609
34472 11215
5084 19755
63928 38562
23552 46479
31202 62900
52024 48550
68401 44165
38036 6519
64628 55929
2693 37032
60723 62505
31664 61473
20499 48987
30954 67215
7029 33212
64713 52058
35795 10746
56293 41514
37965 22307
18828 57538
37263 51765
20445 62282
5564 17554
36301 20532
64020 62242
40785 44182
41347 56387
51328 47547
63422 1777
50253 7076
34791 43838
2547 1311
20410 30589
49863 53898
66789 57877
10036 18403
3729 46658
9100 54257
56311 41021
34295 7022
66713 49017
32234 32776
11615 38218
41318 27943
29136 54857
41554 60549
56661 12550
64408 21034
31162 31823
48712 26411
30801 58299
48806 586
3799 49552
68782 42076
37127 20343
59504 22473
53876 22712
23753 266
62300 29441
30888 58355
31938 52900
1135 38656
49518 41180
13752 11111
21916 4200
28059 60118
62023 33192
9683 50490
29280 21716
13623 37179
27432 3711
41874 6433
49370 18247
38581 51120
47691 4829
55899 14374
57151 9708
17419 48641
50728 47774
1929 20426
36770 30981
11847 26801
59331 59827
60144 48354
38074 54275
59803 4421
40054 34816
48669 62369
25389 1038
5864 11780
62592 21023
35730 19528
53752 37050
67838 64772
61735 30741
2303 11052
1859 41675
60489 25476
38067 62285
20995 25662
37023 32752
40571 12944
56145 66111
36446 17118
4555 48128
34063 44863
40142 36271
18365 32319
29696 55828
4632 32394
27723 48507
885 38933
37754 40907
9038 25143
8976 66895
29773 16418
40713 39133
66926 27701
68419 26572
49286 47296
59752 64607
57410 54041
35252 40732
5304 30058
37101 54565
64418 54364
40893 61359
14226 44615
18669 57400
51206 50014
59701 57854
53408 24505
34152 23041
59100 43521
64790 9033
63370 6861
68233 13016
58331 16866
38056 57137
28525 9994
19364 35791
22388 38019
37442 60334
31757 42093
10265 15996
39124 20789
28583 28194
4062 51841
52385 40911
63303 14104
68716 39798
25918 67247
31246 50734
40611 24896
43663 62077
63422 17115
50220 4984
34 27890
52251 6210
36328 5435
40690 6620
15635 65292
67707 15956
15536 20028
22217 45609
38631 54761
41314 51634
44137 46892
12738 66449
21784 6235
65096 58011
2776 2811
47606 48797
28196 52021
44927 49665
23887 58661
43275 43027
5375 25723
21672 2677
67625 1498
30815 7564
57345 42350
16314 20032
16223 32069
42776 16712
27392 49553
12697 55361
68402 63247
18178 54404
3425 26891
135 39316
36051 42176
21362 39387
46320 52795
9367 35772
62106 2993
35335 64618
58723 24002
68709 18908
10617 3139
35987 32898
23087 32559
27193 2871
54916 33843
15984 56963
53553 12954
3129 16753
28626 61838
19381 17649
57099 38884
31387 35269
67204 2646
37736 28263
44298 46717
29146 20697
39812 45305
51036 12732
31395 14955
30013 26787
10067 27899
56209 13926
55207 41548
43434 41596
30921 1590
48468 40264
62351 13306
66823 39572
19652 39410
62532 5547
68401 49936
20833 7794
21538 13084
2590 36996
22507 23915
43938 29215
20678 45542
22509 10183
14192 19511
46249 35814
37096 28880
59673 32652
58192 7693
64837 44334
47435 20463
46286 9778
62033 21644
29057 35335
29644 21652
16616 62189
37885 68314
31466 3665
58166 42349
33610 15244
22994 37418
2006 29417
67035 54127
20583 31149
59769 610
23765 39562
58981 19070
67718 45747
11696 10844
15700 16845
37239 44563
823 45118
3237 53571
66914 60641
21409 9468
39351 5266
23904 5952
529 871
38460 13319
67020 14018
40552 46426
42994 3504
68515 18289
54557 53836
57962 61654
32282 5901
68022 15385
60063 18632
24103 35073
56297 65642
42987 63082
51021 54115
16648 28669
35044 45858
48032 11792
1815 28466
721 36037
19746 19110
45292 33254
31954 8731
12216 25318
62283 32628
14260 45416
33 33861
43485 61785
15434 47653
29846 30118
4988 43508
34853 11677
25306 48633
4700 34156
6165 48763
37800 24681
42920 68515
67614 29133
19310 42328
29919 48109
32210 66211
3699 22812
20583 37732
3906 741
28605 32447
52190 5528
2074 55961
17441 25150
155 6651
43042 42467
67683 61331
4318 39732
28446 66594
228 40796
19799 21117
13540 63728
60717 40014
44127 44753
63664 47713
38810 5780
30123 25417
47264 37191
60584 18876
34132 39880
44110 68192
28533 15193
20224 26871
45315 35311
45009 2430
48701 28292
43243 1853
48329 43786
36273 58321
47768 29915
53953 64154
3488 45873
53756 13988
60764 28519
3716 67131
40313 26915
52037 30632
36305 19658
22695 55994
13630 36852
2953 16142
61331 39701
48999 39701
61215 46589
50706 49102
35246 48579
51300 57585
31972 35920
23677 25290
15099 4690
11330 40006
13359 38384
56191 38830
59455 3215
58220 32288
11224 50817
33073 21573
27123 20276
4755 46072
32021 32325
19306 66872
47519 60877
37670 45018
41348 27357
60851 68506
44370 48959
50002 51597
31125 37410
17523 5148
41193 52980
43263 15764
44743 31423
62731 32314
38422 15256
27835 12250
30537 65065
40261 24919
27807 32149
17823 17539
7709 19897
59225 37432
31403 8846
53659 14317
49901 53853
29583 39165
1777 6461
51330 28925
40738 54931
54525 31116
30912 58775
3201 2128
63454 32232
46582 18130
26670 12805
48729 794
22051 21219
21815 57347
45190 13496
67398 22252
35656 29985
5758 30497
12496 16764
7918 21802
59236 13530
32379 17277
30336 52280
64245 12586
17275 39611
39457 50126
15199 1013
43118 65703
55778 39043
56166 34113
24649 6568
36066 44583
4583 55595
54432 2845
49675 27376
18425 56161
25467 51012
51292 34768
6955 21229
7088 59333
52090 6724
40465 6707
60632 21932
44138 32610
58614 9731
38293 57202
54171 6223
60529 7863
24305 24694
27468 10363
67757 20530
30835 5647
67761 42471
63897 34841
57284 38605
61649 9242
21610 18484
55470 68424
61547 67927
66236 66981
26733 62101
55539 2133
48011 4524
37402 6163
18842 8546
40744 53893
54378 50164
13569 35270
46990 14218
24668 53952
61375 29502
32615 37919
17717 58477
58252 16600
40701 66206
39520 10803
51278 11797
9493 15564
11877 9482
33707 38167
53967 32529
54980 4290
1891 10263
58550 51793
35533 57133
28410 16352
63821 4958
29415 48340
1831 41450
10586 22563
58256 66216
59603 13099
15262 40815
7735 16431
56532 54412
41584 37954
45909 44510
45334 66041
47789 17377
7540 18963
39050 8572
52004 14834
25446 33419
12368 34938
17878 50954
64208 10387
46122 62076
51793 59354
58470 58299
24318 67088
53091 41136
45201 35693
30008 57539
32870 66026
66742 44990
22423 27723
55993 16858
7375 12955
58598 64321
10397 62991
51995 10655
25530 53334
20626 29416
10406 46512
61550 35119
37977 67418
2982 39953
29057 29158
17616 24997
46772 38682
53042 24239
66697 43341
68637 40396
15420 25095
1735 11462
24602 39242
20300 28010
20277 14832
28939 57460
48411 61659
36063 68058
43093 53396
19637 16767
7925 27284
51379 21594
39550 31044
46970 33637
8267 29444
44990 40906
20558 18616
14315 67758
68123 54131
10240 20229
9003 26502
582 37275
65919 52985
68549 23396
9115 50698
67540 34062
27848 54907
36883 58068
60458 60023
8592 48428
18976 14708
46527 63422
51406 44568
67563 109
57446 45807
45317 55995
26702 64466
61366 46379
52490 46939
55232 37428
3050 14889
13479 31896
10795 37342
52673 48564
18149 25755
14092 9830
67151 1672
60864 12172
48951 617
21164 54869
31535 50886
24618 31713
7832 61531
46806 1892
29604 36990
45377 25336
2279 41449
22830 42502
42449 16105
24554 64444
24929 16645
51216 5560
49326 67903
68805 3163
12310 15296
32687 25560
59115 46942
38132 67734
13282 5611
20064 25197
7460 1272
61316 46422
41370 50074
17204 52506
45219 5991
21533 45371
8166 43023
10502 64358
58178 62103
63423 47927
47790 58308
58446 14982
51510 54981
65043 48854
40770 48351
27455 25545
59183 56586
17704 36393
29137 10640
52000 38652
53717 32235
52614 50814
584 63007
29986 38512
47498 55411
34221 48754
40409 13465
42853 4303
48572 28694
25478 65021
56406 62531
184 14242
29403 59338
52636 65103
47724 67143
51956 19098
20489 66455
23756 41484
43473 67588
45294 20916
25762 65390
27351 25141
57312 43189
28907 29661
55099 2528
34405 12968
23452 54402
44933 36119
50953 67444
53373 41745
62217 68228
50824 54215
15505 16537
36736 39499
2139 61927
60187 3319
57487 67770
36117 42040
894 4505
36623 1726
12602 67719
27636 42513
38685 48510
33090 57551
55564 46178
55202 45312
35496 62614
5883 52788
27727 62792
20208 52811
4339 16144
67380 6
60940 47300
16343 30146
8049 68045
10724 58777
45586 34967
38168 41393
66948 54674
24680 21537
3175 44810
30496 58633
17320 36640
27828 44449
24562 42379
67983 28480
31366 36104
3337 39929
56201 50290
1395 25753
45629 47911
25949 43084
4582 44074
47744 974
40143 49706
48165 32284
66685 60987
12418 62967
35515 3698
39968 52351
2225 67937
55798 28762
62268 466
45992 15656
4092 67274
26127 19571
64676 41845
28950 47375
1498 44062
54656 68822
5104 66726
40193 48759
56566 52644
31042 60181
4559 29051
51202 42548
67050 49427
47041 28205
51323 68417
22114 2934
20176 21626
22891 15514
56025 19999
7206 47849
68151 29027
61603 33263
45126 64842
25457 25678
570 49352
17573 49092
48612 30643
46262 18211
68569 65707
36424 10617
52626 17300
67277 60372
15650 66816
46704 47394
18819 3069
55426 48373
11454 10523
29835 13525
4338 25474
30842 43865
59878 3202
21844 36394
8274 25390
7037 66450
32160 51061
27521 57074
18411 7076
11463 31035
24688 27245
67619 56918
43379 28423
50843 30940
8049 42908
64906 30472
60791 23668
15145 41174
11297 1868
42603 5575
58688 61156
5288 23629
49834 37495
17940 2637
4780 57114
48190 56110
56058 19571
41810 47096
61416 37103
30678 68297
1997 43968
22213 61809
48532 48733
61968 34159
57496 29253
33644 10474
56988 34966
21871 36457
12846 27730
17628 54288
14869 10448
35760 41257
46722 21712
47852 16918
46859 68601
41410 29599
58468 5405
1502 52625
61431 29544
2437 4081
38481 55863
58586 49746
31425 60102
30042 32733
14479 39992
67483 46448
20132 53858
5176 40834
22301 23710
40322 40565
24193 50810
42528 11142
42876 50859
35098 56039
28189 49283
13234 5236
54691 22657
2072 57363
63234 48055
39314 54591
66647 4392
31065 4215
61657 12563
37718 44587
53914 56022
25565 42715
58610 55315
24884 29292
26810 51015
58806 67544
51743 49657
29813 44168
21444 4879
11278 28927
20492 53419
25291 31853
60049 18482
18383 27378
6761 51833
16641 11075
40278 290
65313 18637
27049 57173
59284 65386
1150 57329
48058 29885
31681 39865
54707 48362
41295 60344
43188 66174
43335 10063
33678 56740
28971 18909
4446 50579
36095 5424
51773 44359
59527 58131
12244 32031
38108 7255
26811 1983
38198 19513
28067 776
63635 58945
16911 33149
48031 42511
45151 20411
17614 44209
50006 32320
13691 21587
5515 15391
55970 22454
10903 63318
4588 31160
55207 47892
22185 31592
16902 58629
52950 7880
42873 57835
9761 8273
39441 22858
37933 47220
10606 44135
63597 33514
37868 10276
24723 5521
37135 29852
40967 31438
8152 38775
15889 20040
7612 2195
66081 59614
37613 6671
639 29120
59201 21812
23173 57796
12447 21506
59083 30687
29101 23584
55074 16461
36218 13755
47563 50512
6947 6096
2746 37724
23898 47467
62715 27679
37426 67930
45160 19148
51224 22561
34134 30776
56280 5482
20540 67979
7316 8976
9637 64610
24545 8108
41417 68479
7234 44616
12253 31599
4637 8637
64907 45075
26812 53594
6067 34125
66150 56845
11342 61333
25187 2114
36872 58855
8885 39530
7170 52639
19244 54512
41802 34509
42156 20500
21942 3525
39261 33454
60157 25453
40657 67678
38058 25051
16112 53969
49100 32720
31271 46670
22944 6664
21633 50209
57663 25283
57590 20441
43050 10992
21039 6880
37286 7194
23083 62814
17562 32222
35163 47826
4131 37466
32763 34119
4094 28422
6219 54429
55565 34303
50090 39950
14144 39015
45768 61874
10636 65618
50181 55214
7329 67009
42231 35533
41728 67299
14356 9649
937 3464
57022 21027
42833 3763
43823 25261
63703 50350
23780 46542
23837 23725
62524 11194
44116 16619
56260 50227
56956 3605
61663 62052
46829 58708
46312 60159
27092 39796
39714 42542
23455 63623
35567 4887
64761 23231
13966 47924
48343 37555
43794 5712
6787 26377
55488 48336
26174 50682
18368 33627
10630 37578
18959 65333
24301 20704
53977 2683
65711 39321
51918 28609
16542 57061
23357 9261
64485 66483
49504 59920
65806 24129
40852 53445
20372 30048
7323 58544
33765 1066
64554 54819
62035 60768
59392 11918
43881 63451
19952 2167
11187 12252
15776 41908
40646 35364
27874 37109
52309 17292
56910 25263
18904 12803
9279 49709
63163 11104
13038 42394
27039 42821
22303 34688
56278 39185
28799 66410
38539 26706
61422 46894
19243 2271
45629 34137
779 56816
16013 19860
49839 6761
57035 22747
61616 66729
40366 55143
15587 3843
5678 16065
17883 47507
54867 45655
8952 35670
45717 9596
29193 13071
35256 3722
36335 47894
2210 51546
13674 42036
16108 23819
42824 55082
8948 50843
9254 45766
42248 20402
26814 21430
22707 40436
15943 52915
13443 53882
18716 36293
61702 6549
40195 64603
41359 25948
6316 28186
54673 65934
2979 28267
15450 47923
17279 26315
59494 63404
19012 65364
16250 48043
17181 52546
56601 61510
32571 40521
48158 46003
3124 45525
8859 61343
14222 16067
24965 58292
26286 28837
28304 27066
65823 55987
4903 9614
23040 61526
45386 19651
50852 26437
26554 16289
24055 19941
60806 24386
56765 3023
9977 25286
16743 49012
66565 21751
75 26191
33939 66182
13424 55550
25619 35867
61085 49318
35187 4504
33215 37828
26795 36970
48660 26757
13415 52793
57803 54455
46939 43358
26397 56037
25881 26204
8884 43382
26660 57228
45269 43844
63369 43031
50055 57308
21180 46692
4870 500
16000 12025
68295 67919
27928 8745
60431 40379
40088 17661
26295 64298
62671 3975
65473 65560
62060 33344
28740 43531
9759 2962
58806 60640
50779 61891
7052 45511
45000 58035
53981 49968
6422 7237
52801 53815
2182 35000
58933 54606
38094 43848
12864 27466
44228 30913
35470 55842
59310 48097
55604 8393
10986 12138
473 67264
65732 39021
15466 53300
40505 67047
63791 44869
44568 17600
2304 9458
50649 31904
65296 44963
19518 44348
51150 9222
19750 32054
39176 28913
13861 65758
5521 45737
50287 6468
66774 12185
60851 43652
45114 34031
5591 31038
768 51096
41119 32849
49266 13780
35203 40420
26864 22982
17294 45746
63292 48520
49848 21063
38421 53016
12304 65031
14710 51886
50543 45934
34244 66494
13456 47384
49716 35113
67349 15891
17306 62875
28049 26922
60937 66614
42477 30029
7208 5002
56124 7540
46572 63332
4526 28942
26327 47025
17581 16977
59267 26959
23923 35160
64074 10598
43104 2227
28063 63077
38579 809
40147 23542
62092 48416
51043 498
48038 12215
45638 60106
52842 12794
19191 10833
61451 59782
44625 64204
61125 21823
48023 55869
36759 40272
45648 35826
6462 64372
65350 65937
31483 36571
49279 35336
57467 28923
37904 17040
64129 27049
35486 358
1380 29133
17803 36662
13277 22915
58424 25001
50727 13613
29962 58286
20491 41313
2758 53322
37298 6802
34686 4454
4071 38972
68602 51776
11790 63416
27582 31235
17007 57862
52872 14201
60155 53751
45859 42681
29175 490
21461 67927
67735 4090
39254 57478
46130 51364
10442 36549
502 53606
28414 4375
30332 12504
19596 5918
22588 45621
68634 9951
46735 30894
12597 25409
68158 27792
68548 14118
61135 49519
35296 29543
17702 53206
41451 18889
55304 64217
12584 30473
17366 59388
65456 18927
25833 25046
64511 56798
9236 32093
67126 61524
55305 269
14411 14356
33265 38968
16089 14205
45966 43622
10500 149
31835 7543
16187 25790
66148 64612
15374 58444
52142 315
20273 62812
29790 67551
21485 6185
60556 44560
29645 1774
31838 67689
57802 23510
51304 34274
12270 67576
6306 2923
45108 9798
53309 34241
40292 57001
40218 18376
56831 28722
50543 43885
24942 68157
62755 1035
39573 56547
33260 62041
45988 23178
68231 38690
48735 36671
98 20137
35441 1954
45545 5709
11999 3315
2816 20079
22429 2157
59992 50155
13244 28934
29751 48627
22841 51203
34510 8186
61118 39703
18895 37878
52842 41496
5745 64049
36682 21166
43519 51344
925 57999
45148 51007
34622 4543
63064 66923
51623 63675
8237 68031
51112 30636
17931 19578
9035 61216
52814 63562
16706 39537
11273 34224
68342 12736
56603 2728
34707 47291
24661 59211
59730 1209
30824 66480
19305 3671
38231 60647
19451 52806
19482 29171
50487 66988
16235 54619
16839 13478
32260 44984
24612 26642
47083 28338
3537 37584
42488 61961
56861 16975
65453 7020
5027 28006
37666 57285
30255 13403
34792 8962
11617 62288
68807 47390
5669 34939
21921 25399
40478 5205
57202 17144
63736 65047
61658 64260
13163 37478
52261 21334
18920 18664
48511 35213
42400 57536
57725 60514
12081 43200
66940 26285
10533 54273
26041 18644
5192 59169
18224 36604
12969 27183
17808 38841
3984 27800
66652 22667
29583 1376
27165 28590
43357 16908
36589 30798
60887 40210
3180 40884
23825 15254
20813 9889
4065 9178
30624 31052
42831 6221
2123 6151
43445 68615
24736 11255
18421 11582
28626 21207
50347 44864
58498 17711
47475 66107
39675 3663
6020 50789
60765 24689
10408 65459
34405 30070
464 39586
29885 953
68118 66058
44339 45460
11385 34703
52335 40056
4547 2979
11972 55873
53295 67519
25042 21318
61570 38570
391 10976
35793 18335
22250 27821
61223 14850
64184 46934
3826 57252
14211 61052
12779 21029
63344 45496
10048 55724
55022 57679
27449 8274
58576 22914
43137 62394
27523 16325
52573 51292
13591 66027
54497 14547
54572 40104
30128 28047
25922 11512
59450 21129
42696 27826
3121 24317
49542 53681
55906 46707
1602 60898
52016 27740
19182 58601
55868 2753
24628 24751
1065 59702
9384 13536
51676 2749
35241 65338
5082 38129
58953 32025
54938 21021
17036 19464
24597 42331
1917 26616
10610 5777
18833 15320
32662 14650
62997 4748
33860 53680
39038 40321
9554 44275
30599 54219
33427 10955
976 4805
4709 18448
24880 55134
45019 13069
13303 3568
44215 64764
6044 64782
27504 58376
23242 20869
3597 5213
21322 65466
31155 10622
36350 41865
56962 9231
36706 46496
8269 63422
38389 13548
7885 39432
11296 46832
20552 66437
33624 11004
10867 35689
27429 51171
41380 3275
30792 3590
63539 54380
16952 61831
41037 12745
38998 33542
24277 64541
47852 59344
17519 8017
21983 27319
15267 51419
14416 48186
30338 48618
41125 67781
40084 54345
36824 4747
9080 54206
63286 16308
34042 49138
34102 16746
313 52163
32727 15771
36472 39282
12440 68742
18833 20476
53955 15259
59779 18331
10855 51297
48258 36590
43243 32658
61235 10222
36432 1553
31127 45046
13389 64239
32998 43479
47193 30854
43281 11259
40843 23611
32482 31111
57675 9631
64820 24034
27103 27594
56801 27502
23394 30538
3000 19990
33648 65029
15723 26026
27164 28678
63444 31730
41479 8143
54940 26734
46153 60579
55890 31950
48234 21007
37595 31000
47665 61721
6409 2459
11868 8965
20757 61289
47355 15665
34157 58927
61132 38371
62172 8843
28283 18873
48279 36776
49918 54890
17576 26440
54892 15849
40905 12574
56572 42130
45399 51527
62716 21731
68533 24929
53595 4665
48338 56711
35174 39662
55699 25108
60515 17806
3075 43996
36015 43410
45179 46918
37174 4372
58733 27885
62156 13970
68025 62063
42627 38088
5396 61723
1862 9334
68071 21705
54975 2714
51045 38723
13604 22007
60343 6954
34452 51676
32952 15347
36649 65860
6958 19324
40579 42078
20517 54316
34151 4702
45151 9055
22917 55471
27783 469
48906 6330
13328 62202
57068 14931
3829 4423
31179 25585
53979 8507
42876 43144
28173 28672
32510 21520
42271 40919
13203 52781
8705 35369
14691 2895
52300 54361
20733 16260
57423 24111
20613 19855
67400 54827
57914 36166
49488 41986
53230 2141
52818 38545
23486 41020
59808 3948
22871 49404
44113 39673
41620 50605
58701 19942
63418 68110
46090 2320
52172 35941
31967 4341
56837 67488
36048 39469
6055 20137
67302 28061
29912 54187
32286 27279
18793 16103
41589 48595
28770 10303
29120 4952
62565 11921
26849 61060
56902 26626
29607 23057
11875 43220
65042 11058
61957 37224
9387 35717
15437 45152
22379 19682
8782 16412
3245 19512
40662 33146
64525 49957
17782 30356
6579 55492
10262 61710
16507 67358
30122 7868
35674 455
38697 59443
55615 51874
23525 53458
52091 49249
67259 34857
48841 57498
28079 32282
17238 53798
12404 40584
19997 8828
35528 56812
56202 51034
23696 9197
24916 19383
9864 5509
7441 42625
61850 16068
58490 58334
43077 16390
4407 19160
20603 39835
46273 52383
59590 19306
33092 49826
12823 9000
56722 28431
15927 12392
44812 64341
18251 15507
16708 58221
56561 65727
37328 51640
42480 22730
52854 1977
68443 28002
1387 56377
21167 27930
10371 41526
56907 54712
30007 40334
64365 57117
57569 48788
53177 11530
35184 41980
1821 21168
39635 11806
54648 10443
65428 38424
65716 9796
67679 43285
29470 10716
42000 40966
55238 52504
29935 7282
55905 63767
54134 16967
6065 15756
13052 5728
23556 22028
27649 41753
16245 38293
21736 48378
25610 18145
41837 36212
29568 27931
42049 19420
21072 1679
63459 24267
25893 22026
38756 42880
1247 59411
37841 37711
15330 34157
45149 49443
5030 61506
21087 17040
34497 28493
48894 1965
40515 39464
63027 17925
45372 31617
32190 61837
63165 14872
68650 58511
444 28462
8213 63287
14168 16233
49888 55255
14145 47935
47633 36625
59352 44117
29472 24768
11147 839
1101 48527
1399 4277
68148 63339
40857 45209
61758 56338
23072 52853
38600 4886
505 12685
25002 40034
13125 37719
33887 44893
41266 54749
12848 16501
67668 44259
6132 36421
1201 31298
40750 1392
4398 39774
47384 26348
45195 56248
41175 35338
45249 12404
1959 31581
60033 799
18699 39379
62026 16224
16516 18427
45385 51268
12999 13061
30539 63771
21763 51703
38105 57924
1061 8302
48770 16514
60033 38196
5118 12137
1729 21193
53400 2449
55557 25439
9558 20929
57469 64250
44854 54158
62770 2002
30699 15673
15522 5762
28831 6661
50413 61598
35392 5289
66941 4251
23126 55556
37429 40682
68276 26069
46292 3265
64169 32429
7956 1024
1433 25406
14281 46982
21377 60317
21687 22843
30917 57530
38892 22491
11406 58883
54422 26584
18791 51189
60843 4631
51646 63470
43666 47433
19985 50045
23176 37983
5798 37583
15962 14373
20332 43258
38226 21569
13501 39001
1259 53533
16541 42045
27966 42941
53832 47345
4162 14872
8990 32411
24991 41709
19462 20993
57946 3336
20561 25559
32995 60060
63580 60691
44767 12061
26849 49782
40891 62210
1807 62337
1783 46126
2342 55455
48988 60239
35948 21246
57575 61942
21415 42402
57275 51520
25440 10579
60543 3771
423 20398
54069 27519
51083 67522
21326 45759
13646 22915
28242 55389
63190 24262
26378 1866
48075 19372
64828 59111
31886 18457
44763 61085
51360 61558
34356 6301
1300 31151
19369 401
1170 47797
52626 58552
65343 7665
64111 33918
11810 5272
35227 6519
25158 49469
6854 59243
53623 28798
25835 56326
18780 37357
32017 10874
38285 54245
52617 34042
51692 30578
6555 30429
63302 21200
25498 68640
30040 60903
60494 51400
2450 15069
9654 33074
39768 17331
49059 9174
40337 57746
50646 37989
49760 53577
60821 39698
21421 20831
18675 64330
9020 14107
2345 63144
28839 25779
60421 65895
34944 50323
31143 68565
46958 40825
68157 58884
2430 23508
9634 29223
42821 9844
54037 17704
36044 38242
50675 6080
16821 9667
61632 26003
35398 1984
59258 58105
3623 5788
30736 30334
51471 27936
34053 11864
43350 24186
5742 36441
12435 41861
65469 34998
16227 23843
16443 13358
18675 26833
23669 29278
54675 43745
59577 20619
1288 21884
6816 36723
65858 11464
37239 21187
17935 63856
12312 14184
6624 39538
43456 36730
49896 2987
37684 44746
35146 50429
16754 17316
31372 53598
11769 46441
16064 65579
38828 44168
10661 37112
44639 53035
12215 41267
19744 66390
47074 67880
66516 14000
17867 63539
1775 16876
48160 46041
32236 46733
12584 2265
46319 31821
45028 35510
52225 12587
25809 46570
68418 19515
46285 16116
17244 23206
53613 3104
133 39935
29836 55838
48508 15855
33198 29592
21039 12416
2820 32074
51106 37547
25875 64259
9713 51186
42655 14792
67618 42605
42338 41711
63536 47470
40927 37148
42631 7110
13400 7517
29636 38694
7113 60777
62905 34360
39440 9919
4337 13323
61618 30879
3942 1860
50711 24592
19917 30080
3582 40050
24013 45009
19444 60871
3566 66344
61913 21515
22097 44129
65571 66602
56383 56590
37595 2508
43580 68430
56342 25724
39766 62549
6258 63687
29370 56473
15624 54393
712 32494
29341 17260
6864 17985
57566 35509
41943 30552
67648 18327
43678 19409
52041 52436
48674 7066
15918 58164
61989 24519
60285 32483
7963 14977
36916 63679
67498 62914
38852 34223
18315 6793
60433 50112
18870 22689
32801 25627
37706 66770
28269 60758
5698 41858
40417 13896
37183 26366
25981 11296
59430 9512
44972 39542
5171 18970
24902 30870
22648 18352
62790 55266
11645 63132
23521 34638
30881 28656
15001 28996
9295 25839
28449 42799
56204 4559
3865 304
8040 1847
20497 24049
66489 50520
32422 615
64178 13710
56476 62101
40102 20437
17376 37507
3227 63710
11348 28280
56576 26112
54535 27569
9155 32399
26136 61392
20156 52145
64286 24264
33574 35221
13565 49080
28284 49633
27267 16638
3867 68297
12673 3818
18916 36558
35223 18116
52945 30725
60469 32709
49815 58604
57241 58730
45577 43979
62047 18776
44770 19777
37276 24598
34970 31066
61826 39576
35101 60238
38447 25146
20778 11176
51472 53771
47213 10522
58242 65801
28218 24642
14907 6530
32028 53050
50986 10396
26022 21735
57727 17555
14814 6934
21374 25944
14952 17665
618 36475
31399 68016
43835 47602
17771 27456
64694 43
35198 45475
60068 10968
47907 6812
52584 7397
54684 65070
27680 55661
43809 960
1889 39741
9299 12906
43453 22906
3181 25636
33874 42198
59616 11084
30898 42508
37162 2446
5843 10078
8182 55970
51680 47713
603 35795
7532 61999
24437 9491
29704 40401
65268 52702
60302 55144
60533 4658
24401 64864
62133 42721
62001 66097
35998 4931
8650 41812
588 41761
58525 36262
37535 66927
7147 16130
47436 45894
40307 50067
25757 4831
56230 15564
60219 63499
62602 20650
28891 65185
16019 51563
50220 63
63257 13405
43577 48939
33761 56681
5485 49240
40433 22053
23689 39034
23534 437
10293 33930
36120 22737
61878 26999
34118 5877
43430 48220
57448 59256
9187 25465
44680 300
15556 61831
33150 11270
62665 18802
60155 12745
24853 30708
8761 65359
66376 30151
56565 51559
64702 32144
36118 1180
64226 65951
58773 16558
37349 67242
34065 39063
51706 12773
51354 56625
63128 66623
43193 36620
64995 14251
10047 13888
49921 4275
23717 1242
5465 53603
57908 44745
50096 44699
31011 36888
52703 7554
42515 26940
12939 47376
32186 35676
23303 67403
19823 42861
38993 54519
7886 46811
28170 18157
34905 46837
59165 43387
34218 14549
31135 27132
53419 13491
57231 23805
54205 45898
60474 39878
49939 62621
11185 67682
58279 62310
33649 67941
6731 68675
18360 32512
59402 37286
9023 22092
65976 9878
26334 62800
65914 23021
50717 45955
6493 3517
5228 28033
4645 33950
27726 34018
31645 66925
64866 35118
33316 30693
39291 61114
21408 35711
6167 29987
43049 48124
60734 48091
21911 57570
29188 40612
17754 27338
17402 7740
61884 18128
38767 61783
10322 24847
55148 20762
23402 61788
41768 54335
61105 42668
7362 27259
9065 51093
1821 63603
59806 40822
60492 46701
61038 42019
19825 52556
33080 40917
40662 43986
34445 47176
422 12278
56616 38007
4097 62361
24038 28028
3856 26558
12611 46920
7611 68610
47329 29501
2633 11231
28106 10609
8360 33667
3219 8538
41957 39970
31142 23717
12817 48924
23889 283
13830 67514
55183 45236
14059 18367
51755 4861
40815 28893
15616 21566
36978 15172
29553 2935
38847 29712
68032 8514
60715 24993
50942 60562
3832 32732
5905 68155
41844 56451
63366 39088
11378 50981
62142 9809
21575 12579
6885 3534
43080 67500
32429 6849
25905 37445
67995 8031
33690 36707
46627 11751
18653 3390
47565 66272
67248 44827
28480 14531
2789 59307
9485 312
36988 11417
37757 7620
55976 14034
7286 15318
63364 49644
51558 56259
38020 46576
13809 43184
12224 27353
26226 35395
42153 40017
61072 50333
9172 56377
55174 33189
30246 52734
66364 20625
64919 45182
16153 46479
28348 56473
45419 45664
59122 35288
7291 44147
62544 23626
60676 5286
68119 10822
67754 24758
16679 12466
24591 32650
55675 54968
54096 9919
65673 14179
42550 45709
59349 29870
37237 5476
22967 7075
10568 4269
52294 43753
32703 20417
13211 33165
7689 35126
33232 57587
57385 49150
11511 50926
48585 67273
58014 17346
56461 50660
22029 2699
21602 58792
9052 68010
62442 61517
14592 9925
13423 13507
21130 24895
29515 2938
35023 23931
38772 68218
68799 43667
31468 51513
17422 27669
55215 48309
52387 20572
17146 52114
17525 62677
23876 19795
39067 64712
6413 50968
34882 9149
39184 42640
54729 53806
55382 20992
8122 38013
22291 50296
41674 61630
64453 55579
48200 5897
65515 36962
12169 66943
44458 27417
51458 34473
15288 37987
1904 48732
52605 67725
12214 12295
21419 20550
14586 30029
42297 62656
29970 40337
1900 46836
67349 48229
26713 28792
7428 23123
13583 16998
11951 9245
53874 51773
11577 56060
49461 49048
28057 56830
31188 24357
45331 14464
8401 44672
26634 20164
64982 58779
30346 35042
17509 67001
5202 10704
56879 24231
16098 50845
40913 19523
54699 37207
33424 26903
7903 38874
19728 63383
2436 53309
41550 11209
14734 20723
29943 47335
56247 61187
25688 6978
68458 2653
57080 37504
57961 50667
62819 6086
66299 47326
29609 5569
64204 28601
37678 15197
57874 10059
14108 24951
33777 13738
66026 57581
8545 32153
20211 66825
49154 39248
17132 45592
16761 56896
36977 9981
10419 22731
8191 4307
55026 3576
37831 25383
40840 15600
24030 40649
46425 7653
36077 51293
44135 26541
66879 40562
65712 3486
59351 43524
21609 2069
19698 29869
26603 44843
54274 67393
68708 56647
29896 16776
19077 65922
63532 36371
31158 37198
46648 32810
61879 34732
8500 29074
59249 26440
68385 50369
20998 16843
58789 43690
17733 59015
15459 6347
61273 31303
36302 59985
44614 68776
34317 19156
39177 39358
45292 4258
49649 16189
61498 66152
17885 24607
15714 51904
38334 23428
39501 59471
22112 47084
49689 3488
52223 59326
13827 15579
67711 43356
15276 18456
21151 31877
68386 29175
44684 37724
22170 42880
21624 67834
6869 44981
35660 67753
45972 49528
22142 43908
53579 55329
45517 66031
49674 15814
11234 7015
5394 50477
58278 43444
34769 67599
2124 10586
49497 39377
795 32779
46778 67562
11836 67320
17775 36854
6191 68435
25086 904
48606 47303
28270 9070
27592 68729
35469 28370
58128 21830
11502 28840
5640 29894
5446 67182
4297 38300
43317 20964
18561 4694
34171 49834
5935 15284
49882 12945
64916 23549
58672 16348
50228 12035
39780 68303
61128 62257
27947 60656
26288 13914
46002 35691
53689 56356
58684 25229
10580 34474
22027 39244
45656 7820
15773 56226
23984 68005
49923 7970
3335 40077
62624 67764
17481 35167
31845 14188
26285 19212
20108 29277
27319 51913
49307 16132
20309 29854
26256 60807
10151 41707
21978 60789
29744 57053
58163 38772
42804 66467
14009 29159
51456 54051
13723 58761
9494 68683
12588 42221
40869 47068
51525 23039
11705 53928
53646 18629
42492 26979
32252 43282
34407 48796
16689 65890
46104 47076
36731 64606
37603 48602
21940 39098
38324 7920
51622 39781
25049 63563
11222 63458
39474 5588
58802 51635
24993 46059
52832 22195
42049 53518
59113 16404
44028 58696
16545 14713
20991 15490
44935 18013
33986 14214
51989 31968
20951 53859
51701 57046
4298 46083
52418 58880
62014 31441
22932 54517
33898 2038
30210 34079
28340 60535
42198 28402
68497 8949
23293 34076
25536 34428
23167 8877
17871 23105
22439 42373
32271 52974
61979 29110
60860 50626
3597 41843
52206 39174
46425 19385
7374 44692
3240 53179
35190 20003
38680 8341
4985 21328
34884 49620
42640 9701
5853 30307
57871 49689
27040 40588
20393 51013
58117 3012
8229 51423
56398 17940
40668 11654
27689 20566
9384 65797
7856 47784
56181 61598
67138 59972
31412 2105
30209 65552
23594 1727
22184 12601
44876 22241
3251 56706
28678 24544
38561 1578
24665 9379
48893 46252
13313 32740
13247 27666
43272 6384
35576 173
6401 797
37303 46766
44410 58712
41686 57427
55882 30717
68615 63363
63719 2849
34801 40061
43233 34576
17206 66186
25513 23249
1421 51839
38414 13464
1807 58146
1697 38930
46831 50681
21457 26202
56425 60309
63806 18782
18557 60607
49392 37938
17756 51182
34021 13121
57418 51167
11368 13331
61061 23672
16090 3193
47446 10638
5903 1057
68512 15286
12092 26720
56916 1000
67516 14875
6915 43032
26402 42889
34558 56312
60277 35128
10835 19358
65791 68705
31380 45309
52267 39806
52111 1232
68494 22093
46889 62798
51367 41313
29910 5143
37765 29833
58397 17394
40100 46663
26840 36993
22263 8069
16345 16753
68238 57250
7221 50547
26696 36742
44041 58173
43250 46927
33694 63749
39040 12255
56396 1111
33801 39116
17553 48240
40519 43314
34833 47425
37070 36031
9255 22224
45539 41687
16021 58382
65934 24236
63608 30354
52346 46613
61707 60869
14744 13269
39092 50166
21381 6584
22977 7502
24550 31630
46540 59649
45025 64892
15553 26938
46215 60549
22450 34903
55828 1695
14394 25730
11113 26928
57382 60406
27637 23969
54136 37538
6321 42980
21034 12554
50445 2812
44304 18539
1348 26372
37100 46943
64094 43402
20062 19384
40285 8910
3575 63024
2898 41459
60969 49295
21442 4919
60036 38578
43770 27604
16402 38264
46036 67017
34448 35673
17872 52275
7849 57294
34950 40044
15720 45598
5284 62915
56561 18085
48962 66175
61460 30112
41432 47600
58349 56057
44803 41998
48067 19749
11239 29378
12919 39009
29038 37611
22413 13826
24887 32411
68740 8352
50294 64356
30024 27782
15911 15181
39759 44689
54579 33504
1190 67538
43226 24462
30931 33529
4577 65892
23111 57664
41982 56318
11020 57969
42028 17792
8216 59462
66435 1856
39446 65895
63849 33258
46683 34143
45722 15419
28959 36884
25175 16149
31143 40943
40141 49007
5978 34100
64051 1800
3155 63576
20649 34954
46343 10932
32469 57189
40720 63557
18201 4642
15812 34544
65491 28608
64235 45964
28061 7340
36607 5225
63991 19135
67534 6058
376 54856
7565 308
36054 19527
49612 60064
18458 4884
32657 22602
13289 45380
7274 63982
8091 7337
22931 34023
9154 52841
52459 23598
59861 1681
54989 11299
37441 38036
3197 229
31574 37970
52162 62976
27159 64374
13173 24712
30063 5328
27158 40998
65725 56884
63345 17615
62780 25641
55145 66986
14572 29500
2587 32679
25092 23769
58670 20712
67248 16021
63529 3752
63092 58743
24035 20766
11535 26017
22525 44747
6317 66075
44159 49653
9219 928
22492 38404
21345 59911
15490 29613
18961 53820
23744 4792
52904 13445
30460 20021
45101 31361
13010 26990
34206 23347
8197 67059
2192 30887
10328 23464
28453 68589
9644 10938
54373 50504
53332 38764
23490 51375
56766 13073
17319 52444
43991 18616
32977 66875
1526 27639
39190 11753
33490 48271
29252 55294
62513 28593
26321 38002
48291 54073
977 55637
12230 54163
10946 29051
7853 57707
6128 66625
31909 27320
44035 23763
39394 57994
26228 51078
5768 43041
60387 42334
52508 45863
55920 10939
17462 40750
21871 63219
15457 14639
28118 17976
8510 27891
340 46739
51741 10681
20013 41442
64609 43962
49067 32428
51544 27510
45654 39933
37086 43508
55553 44973
67874 11308
19789 6273
16450 47876
30955 2742
58016 6430
18904 15165
23058 12564
5640 20849
26906 64197
52786 63173
16622 31934
12943 759
40217 22338
49635 33017
25360 64245
63244 60601
15033 38202
33470 4854
33582 66203
9352 65331
5153 61571
2319 45397
64632 17133
13525 23451
33153 11675
68012 24832
31344 59136
31500 16953
55871 29686
63543 53316
25898 16433
44139 44581
12319 65408
62863 22841
59386 65673
62784 2610
63306 48951
23497 34713
60845 59454
54578 8254
2893 33245
15774 33722
48893 38709
51646 3999
30255 27849
5116 21488
14290 23835
62162 40989
58183 35313
21813 27208
56210 66086
27317 55035
48281 53135
20892 14129
54551 31511
51029 29189
62256 48587
17338 2166
68666 47538
787 67224
54825 11997
45770 62740
49378 17102
13394 20433
17901 38324
51230 50234
65320 51484
52534 41343
48621 11112
63503 51199
46449 59436
566 248
17564 49722
32928 27091
51057 63486
22940 4293
60883 17960
57729 34935
54947 13709
39208 23102
58610 29332
24695 48195
14116 54875
27945 49387
52493 41281
40683 59081
36356 31758
39656 56153
42453 36027
13487 8869
41688 36739
62769 54142
15737 53640
13600 56753
11569 25725
58174 3122
33843 38624
62802 20016
34464 25488
53496 57923
50397 4750
29096 1617
25847 30578
541 40716
60659 40980
26746 66629
12324 33131
33680 38649
9929 48104
2899 13419
7284 24426
11661 66837
45378 38716
45394 6542
8883 3170
33623 13060
37039 32463
27697 28365
58884 10572
58470 42517
2451 41779
26319 50468
35577 45513
61349 38258
49754 7194
1378 52727
2870 20658
19143 29866
56033 45420
16127 1560
63829 33104
2960 45318
7536 64344
2469 43601
61971 54698
53060 39364
36432 27263
8026 67740
26214 27822
2355 67907
557 28070
15456 25279
17727 52568
45707 9404
27062 40426
58275 51016
9489 52873
12763 47527
55073 20378
26381 17788
3313 58240
26731 19514
22841 26872
40479 64274
9427 9071
256 48306
12208 63938
20852 35094
50524 52891
33578 53877
17498 28142
23369 12969
45179 12714
32015 12325
17601 4808
28369 42460
45023 33922
54293 64066
47847 32757
35948 12352
53026 55357
7700 4162
30221 60879
42380 7207
4912 53636
17188 275
26818 63660
643 17179
3808 68474
1361 64829
24461 49886
10534 28649
6433 20194
6551 62874
53114 56249
18592 57638
57155 30589
41212 19018
3437 64073
20799 8722
43882 39918
32629 66710
67052 57978
17646 13813
6261 59408
46903 24084
33782 58335
14468 37770
20714 52136
62257 40230
57980 64235
47855 42028
40933 32028
7508 18450
38918 62909
36503 60292
33132 10118
39727 14934
13069 54042
42632 33031
39992 40385
61155 50870
14896 46418
24760 45297
58682 42545
62516 53516
50130 2715
17536 55379
64194 21498
30106 64155
25111 46265
5827 64807
7513 50265
36773 14091
61086 10057
6487 49448
60907 9621
6926 43559
12921 10853
694 35001
12003 34915
35763 3184
40897 65302
4845 9189
35240 25554
15662 52577
24700 10451
22505 8915
60615 17964
20518 36222
42495 26618
41667 19412
19522 50678
54524 12438
37408 22851
26253 3193
14260 37894
46205 68727
8470 33287
9645 33353
62029 17874
30065 24388
12288 18184
6979 54355
34145 42699
24757 61898
31371 4414
5434 25377
45345 3244
67221 63492
8438 41722
5599 14754
30061 56258
35564 37895
26558 14065
5550 18972
58171 52499
59815 68533
54506 55444
63125 23110
12762 1500
67777 19577
37226 39137
10900 17166
51488 61096
44121 9463
21910 39142
65908 23767
7623 353
39878 41409
63012 31629
66589 34028
45745 9713
67079 126
19742 45101
64577 65266
1360 57455
65342 15782
28672 17182
58167 24150
44245 39607
12816 34501
27243 46322
42983 24251
11726 19325
1851 17389
55844 29188
68036 5724
65470 4866
67913 42670
11030 54937
62983 14976
10067 61804
66004 56060
36896 45555
34130 29223
8105 67627
18392 55873
6024 42008
64405 11019
14905 54529
59396 18018
68129 53582
31856 62731
25140 16434
63658 48600
46263 44268
15317 65762
3383 31670
19072 32739
8847 25190
59826 3170
53992 39352
20815 41221
15802 19108
20994 4625
52683 19508
35431 2580
63666 63233
49511 33015
18352 7175
19638 27889
1034 15695
24201 33869
28493 67596
17882 64157
12703 57831
35087 45068
60217 14346
19983 37995
28318 10857
41605 4785
21653 29679
39388 7893
13671 38518
19394 17132
28994 17217
26044 29051
56347 11569
47452 18524
35692 56090
10584 16308
22720 45590
12503 57289
41791 67487
55753 59833
16021 31183
31816 12453
53910 46018
43156 33309
17581 34863
49976 20508
46319 53375
6245 32219
49027 15782
35960 27130
10652 44750
8172 31078
57753 35357
16510 34753
21458 20898
33331 41260
25550 25244
46114 18158
53111 17694
34923 4389
45228 8959
13382 45401
5596 57481
8393 5304
53595 23697
30192 1987
22513 59627
63773 32080
17645 46632
33366 61242
13916 47077
18153 12695
14300 36533
55482 20872
51308 5405
55167 28378
6190 41302
46787 26285
65865 7122
50405 30988
3712 15704
19971 40632
58740 10871
23188 67752
24207 4289
24108 8743
58072 30096
65781 10584
24049 49820
31909 40902
50460 11843
19237 66604
63832 49594
56877 48185
27503 30138
59324 27545
55719 12446
19559 20579
186 9996
62268 56233
4660 21080
45642 16023
27220 18770
55579 12092
55617 54752
57791 28075
23507 6674
57673 8119
13139 4507
64609 3824
58060 55756
33506 51243
28654 42585
38122 19622
28780 64986
18785 55873
23302 33213
55847 44746
3485 24026
22498 32138
41963 39927
51194 50198
4077 10272
24018 62630
58518 34299
43588 41509
14720 62335
48862 11604
61134 54357
52041 39342
55253 2248
42627 13539
26472 11127
13904 53600
38928 45028
56002 29901
3182 54835
33838 12037
42967 57312
59492 52606
42176 60740
20611 61208
54679 67572
56895 52173
30228 31221
3939 7921
19731 27499
15771 21315
56621 45535
44358 39269
45340 31215
14539 40503
40026 49215
45313 40056
53317 24098
20899 9303
45551 4149
68116 47150
57607 63199
50098 63014
26236 66529
67434 63613
2405 11983
57313 39488
51289 53453
58137 49896
5330 21761
54301 13709
18670 68575
60637 54092
51888 68795
34752 7647
1244 5239
20266 4349
49864 8065
30002 37707
57388 13799
22987 25591
18623 3082
28500 23681
49822 67025
32321 59584
66752 58631
22854 16771
36231 55571
21295 5844
1520 5635
47020 7446
48372 66406
20442 57437
50407 45362
7893 25975
41425 19883
4761 11278
22464 47268
6567 68397
48537 64285
24752 7339
10781 59215
68668 66872
57197 4180
56484 59039
35395 42646
58023 9427
7732 19222
12596 12415
24011 42992
11165 33364
65382 56294
39736 28535
18870 67134
21631 58195
7068 53378
40326 25518
60902 29500
800 59135
61239 43421
14025 65665
17245 22720
61867 20068
5863 29348
33124 37291
59492 3464
6283 42386
13627 19058
55767 54150
24410 20981
27198 47406
33130 55413
18534 28642
390 21653
22736 16322
63292 28494
1555 13498
59729 6237
23677 5532
65537 38475
21453 45099
32745 1374
61198 27192
33745 7431
67144 65408
38027 51140
42285 22357
24619 8165
62182 19203
44229 65215
64936 22422
45076 64493
23789 52092
56594 40451
62831 5230
64736 25192
5024 41300
17046 50341
17855 34354
23248 51637
57161 26860
67807 37434
29339 27401
6445 36258
56476 38888
64562 20464
59935 2013
19814 60453
8342 41971
55831 22580
46431 1132
33208 32549
32471 16692
2800 47443
10946 51155
41901 13410
4769 14080
16411 11564
32849 37201
59954 35309
10089 15415
21285 31462
10988 14322
48325 43322
60179 63625
53110 60681
14549 15911
13610 27388
57799 25132
43155 6244
13623 63266
18117 56592
62743 59071
42406 7688
60201 62736
9478 3796
50840 30333
39846 5862
5505 48689
22501 41026
26288 1090
5223 56973
47404 21868
14697 3247
23918 667
46600 18096
34600 44283
49538 62100
51478 18439
26294 18126
39954 26339
17321 23809
18609 39830
60267 46618
43604 14296
8426 51686
4244 20534
55642 31563
52115 43501
29879 8902
40058 20565
49405 27708
36552 58987
45260 68266
53452 44670
60712 47869
12475 1583
24158 51945
3033 30693
26385 59873
28008 52923
50883 35443
49253 22132
46441 30735
15334 6438
67004 2241
35693 55030
33473 35965
52815 25572
65778 9865
30927 13124
57011 35774
46457 20983
20554 52227
66383 45630
2444 7446
64550 3211
62718 67265
31285 24298
60077 41466
48464 778
45430 53619
54494 50769
24953 64859
9377 12770
27730 15058
63121 985
46299 27706
60066 63272
9421 45657
10004 65815
30292 9625
66447 5175
23266 5714
914 10416
9337 58512
53264 14995
53382 5771
53051 47791
13614 19790
6765 39842
21299 22975
18636 27159
58946 60365
68395 30801
68030 59329
816 21781
52042 14061
40651 58432
18585 40512
42234 46864
35118 42482
50842 15960
4896 25638
38077 6950
40425 38145
22349 48000
67341 2586
20958 20128
17673 45613
55080 50243
32518 66058
57390 14054
47722 55841
44884 38541
26139 18372
61354 54804
17219 33588
18646 6883
52430 25644
63231 36947
63112 12675
32556 36262
23863 49163
51762 44680
12989 54495
52429 60974
26091 13883
40296 52012
41789 22243
2783 56186
788 47322
49039 54009
6974 33364
3186 31360
11192 12293
49677 9911
34131 29922
18206 10471
30690 59268
16486 55712
20355 14188
38318 64563
42064 4220
13568 37367
30033 30492
22433 53913
44198 19572
26536 1164
43683 11828
68348 4233
12748 35103
66359 32947
47533 31927
34556 27321
58651 1528
16685 28277
33420 64624
21466 10631
37038 54630
443 18039
61170 10787
6469 17617
13226 46014
66475 64824
15899 5446
59529 18726
39548 61203
65819 32280
18826 59554
21220 22263
18171 56191
47166 50165
34309 40062
32360 21619
12774 25846
64095 45030
13231 64230
56311 4922
14162 65240
10617 24004
56990 56079
17077 46698
32440 38956
37098 38339
14402 25116
38147 6706
5489 66628
30365 7551
61572 56264
41663 24526
44297 38419
18349 283
42665 4184
8091 19948
55940 44280
59955 42183
25940 17912
8237 64831
5933 46092
19230 67516
48774 29505
41680 6654
25874 26441
38793 49467
17745 32485
50447 35982
35144 36679
51397 13119
37541 1737
2928 18052
5896 28533
2146 57553
47442 64131
8571 6418
48755 52039
905 19961
14879 29827
66430 20392
59149 54072
44610 47242
37610 5530
39468 5143
7946 57852
63480 60451
67762 12126
39136 53525
50148 15636
19582 52517
44263 37228
26952 16603
41877 58093
39231 18648
11324 21012
1893 34518
40981 6359
41399 36203
32761 22958
8427 2566
44006 1700
9595 64594
47642 14301
51179 44972
11721 49831
16062 56570
63683 55441
17406 35053
12297 22870
3476 35352
52694 13483
40804 3812
30684 28116
67583 2137
32442 24000
267 3160
28917 59697
62076 46795
11969 23411
12837 31155
8771 47903
36874 49960
52331 49005
59205 35589
64413 62238
37322 20098
50408 65313
19832 47319
36385 41109
7725 17188
11243 49725
30257 9797
37271 5091
68388 6278
36877 23021
57422 25605
32428 56418
34706 13656
55084 35442
60402 1869
36335 39073
25870 40798
65909 399
64188 9747
53409 20552
18904 18563
47915 5374
17307 37090
29123 15243
1605 30
42366 16331
32645 36665
51775 16806
47677 26084
3872 21171
68734 56075
46480 35315
15414 20308
31756 36382
46155 2758
7800 61589
22562 43224
12009 33958
50433 54697
66996 42675
52645 50464
22340 5653
59262 41662
50230 32155
62550 38549
24744 25412
8874 12307
62901 62974
28057 53112
21518 21516
13771 9069
50970 62842
48479 56608
22452 58473
30968 25394
63206 68484
7144 63452
2133 34085
4478 16783
10647 57975
26304 3913
29362 64302
6468 15277
45850 59165
42326 44096
36900 9124
5436 27101
59210 25078
59921 56031
57250 3091
43454 58676
356 6175
55335 22670
8270 12849
49182 18808
50320 41444
36592 40864
25386 15799
54410 28980
53565 37866
38087 50013
50421 22663
24569 64977
2967 40074
29341 21960
31376 68737
37549 62072
23514 17514
31941 9244
54905 56744
16816 51169
5847 32283
47795 14006
21642 60483
11099 67746
67705 49748
19572 64928
25270 50823
2766 20177
10250 68339
17271 23996
19192 48688
36239 8972
1643 20042
26946 38624
38668 37577
51802 29578
10765 55112
27391 58507
1598 37668
44849 31482
11911 46784
24937 45993
49353 26152
50232 66292
31415 22472
14944 37094
68443 35045
64899 12839
5805 528
2263 4565
56926 13073
19133 44565
1747 1346
35158 14577
55947 6901
41433 34882
66194 30593
5989 1962
48934 52418
67361 32207
63932 56242
65230 40262
28919 24432
16143 19050
45675 50856
33909 18880
1496 23337
64338 38322
51467 35188
31918 28498
43151 50426
21341 42270
21948 42640
32000 17139
56468 17819
21443 56389
25831 61712
60149 44623
46670 8977
26249 13733
43711 15502
12778 1257
24732 5194
57711 26468
26440 65025
19653 64445
37108 5064
416 49872
24222 12175
11010 31304
15475 62962
44452 31139
9412 50777
19305 31285
36031 61245
26347 25501
6026 15840
50145 28356
63822 30120
23753 32184
35651 55941
44318 26531
22634 23060
53983 63138
66775 18695
6429 236
63886 4145
65561 52895
6442 25795
31880 49036
28871 7571
17299 37287
65076 48855
55696 9446
43027 10027
12234 45135
68229 27989
20650 11761
10305 66690
58813 21704
59067 50641
9450 33403
31394 66342
62032 43089
61841 16432
15636 47270
10232 2612
61543 62323
17590 66155
45989 48411
13484 37339
27774 26996
5674 59217
9806 39413
17272 48571
22816 24894
18745 9732
65960 24992
1855 45435
10970 4332
47862 43822
28006 15443
62505 59421
263 25470
34213 28682
13626 18144
2574 5165
47590 10192
14457 9806
54114 54469
15541 9948
54603 44238
41999 8185
33945 57977
58828 45178
65091 50402
59108 25758
2654 3273
3835 12630
65604 59248
36012 4238
49090 41603
37363 3141
2795 67091
30831 32122
55111 53566
40229 60566
65423 19173
50358 19919
10975 21362
7236 39502
10094 26005
36782 46273
26230 11502
44013 16329
25652 16507
21653 42939
41406 990
20675 8293
48384 48237
27589 32867
45155 66423
66662 9957
26646 34821
34782 6054
41349 42468
46395 25067
26851 9068
67117 46796
25969 35065
60440 16674
59121 32517
16795 34169
15224 16086
62171 11305
13994 30906
14418 21000
11959 64472
28993 10984
49491 63180
31666 28805
19212 46186
34361 3203
31241 38159
40335 10740
48141 12223
63690 424
44905 48960
51282 37993
42637 46696
34504 9106
1543 51182
39880 57820
32363 33057
23827 46950
19691 7557
9216 17493
15363 35581
8851 18302
28279 62637
19286 30315
62862 51217
10784 56199
64328 49440
55520 2509
50396 10661
18824 49803
1346 40165
47179 61912
40222 40488
25632 6449
15832 29810
52119 21041
12575 54090
55132 34211
32892 43388
35255 36350
65443 16343
36134 31260
32978 23207
60906 38239
5303 14922
47699 9340
16563 62388
13832 51847
60518 47194
35965 9008
23574 43506
67531 57396
13368 14573
14778 7428
22527 54036
56812 37443
66621 40566
42499 17608
19130 32655
9417 48519
24208 27294
63557 6959
51900 32871
25631 18305
18302 16113
9225 54308
58932 36809
9809 35976
34685 46960
27084 56080
33708 1528
19690 37502
13633 68382
17689 61408
26951 11780
18200 60233
18603 43990
5376 1812
25072 29641
40752 68169
520 65614
19232 30159
29085 41550
28976 65082
59186 49033
6775 32958
9860 19989
51949 61596
49871 30215
19973 10621
27272 60286
38215 35389
15531 48846
9320 1862
44964 40635
23055 5848
64661 38667
61639 6748
68313 18594
19973 20277
55145 22625
60215 30409
7724 59578
62485 30420
15627 162
62590 54716
1751 46677
59592 64029
2513 46824
50370 21247
11747 36854
6337 36274
21998 35300
1642 35231
38012 64632
45340 31693
15603 39688
10140 36845
136 31216
64671 23427
30087 9841
55057 46399
58397 23378
31414 29072
29065 48692
35413 10044
55511 18510
21800 34509
49234 59297
32953 62722
23664 67399
38949 33516
452 61124
11228 24382
15494 30967
5658 16049
21143 63042
67648 1851
115 45627
38651 45849
54879 38473
39584 64708
60792 47205
26454 39491
55131 17113
60334 31963
65645 5955
30092 39136
7010 11692
9950 28269
44231 68350
14460 28541
36025 46309
1212 5403
63914 35407
58966 18974
49174 25863
33610 17651
23309 59102
24966 29753
36034 38052
60597 12710
43411 28901
2164 5851
5270 56966
63619 16991
64958 15292
55538 17416
57065 41913
22242 625
15485 37192
6379 65535
38359 28528
33200 10666
43192 1596
58958 34823
67154 4718
51381 16159
57523 10455
18967 33043
16094 36592
62925 50180
22479 53039
33106 9689
28377 29044
51573 696
43132 5080
30943 20324
37975 23226
27583 59487
22824 20943
19240 33286
11137 52288
39890 49605
14574 28022
12278 26966
67029 43025
49067 6404
33872 41826
39725 29411
52046 28223
60319 19073
2216 42322
8468 25837
55575 51348
56584 65007
53743 35491
19706 52766
23254 35652
30932 59446
13209 5430
67376 26580
37729 22971
9381 45443
38372 24444
18342 3152
44229 27099
34547 2802
67326 44397
39485 58199
67171 36975
21995 61980
67275 29540
8580 43018
49596 66467
2862 40585
60630 39253
24829 16591
50523 2014
51599 30235
64007 5666
61602 8892
19270 60610
13974 11222
35848 9034
40320 40023
4897 37971
32902 14169
68629 22726
8726 59261
64368 38110
28143 64761
11686 29798
24770 8397
44079 34710
51916 32494
3267 4912
28528 17595
7391 52924
49128 31988
10624 56833
6203 31668
50591 44766
19269 10827
51944 48042
4897 585
43955 17416
59320 40940
21861 5963
51808 51719
42577 13563
19391 4991
33903 30495
6114 12980
9959 2139
49231 43575
20325 34674
1601 5848
47211 35418
11382 27013
59884 17461
13551 18539
34365 11935
29518 49082
37407 34623
53899 7087
59505 61708
52697 29880
8651 20147
13701 54517
25352 46368
68267 6109
67014 24850
32974 18950
33180 12986
37095 8008
20740 24206
20366 63090
56251 1883
16326 8685
51364 40882
12941 9811
27740 12759
32103 54170
3744 26706
65711 21508
27478 66875
40131 7388
46331 60340
25918 8573
933 23244
28193 10816
17966 27724
17021 10081
9223 32191
25160 21708
45004 61532
43562 47375
14265 65227
27154 793
59959 47637
28628 10373
67133 7157
38554 29724
3110 3551
32970 1369
26392 34109
68446 49449
40101 11754
22589 28694
54819 61210
62593 13452
39253 45887
49772 32044
32489 15298
63488 28724
48927 45063
65846 34121
8891 66457
39841 2448
11381 59819
13444 49761
54609 58410
67929 1446
19595 7594
66534 2952
26629 44466
24244 14962
47221 14049
60187 55283
62494 67603
53050 18327
27227 12128
15275 35240
48132 34112
21837 35516
39589 15038
28260 45377
35279 56961
50287 22389
66348 42717
29617 3399
6067 23555
63594 17879
39549 44009
46808 30547
46352 45592
36880 26414
22965 67992
62981 64878
56353 59785
28314 35843
13068 54143
57593 44593
41059 2618
7769 62054
1068 60004
53591 67613
51722 11576
39015 978
36868 27460
39509 63372
65749 17280
59976 54220
37679 30547
10985 195
8497 51891
7091 62534
68529 62833
22650 61915
43520 53848
31120 9986
23358 65883
29400 6017
26671 34095
7150 507
24881 25148
13877 32074
21824 50262
14740 3520
63085 20548
31407 41211
62608 47130
59734 28922
1277 56470
11121 22459
57169 56832
31692 45522
57104 59145
56731 30814
12793 27108
54198 24020
53450 9237
50976 59829
67241 25340
61112 29478
10685 49692
53848 47243
2163 49588
60170 40606
13339 8253
12776 39183
47177 60257
60670 42914
24681 64179
26 63636
46503 47856
59959 16319
14005 22069
42533 3
58707 2162
12222 47669
6113 40794
47616 22822
17479 50439
36704 44486
14026 9535
15321 1119
34447 44967
17508 68475
62353 46583
1634 45254
32971 7642
43654 52485
16343 27428
45614 16934
16639 24425
59287 24138
44747 40758
44458 65376
19415 50434
20818 34495
68731 43725
34190 1703
25295 5025
8419 48126
50559 67913
10264 65476
11614 33937
38790 29608
40924 64608
8822 15916
41518 29618
30109 13215
36473 6199
769 57659
67983 49987
11087 56419
48604 7306
27017 14277
67220 35904
51263 67288
43904 21383
40107 2400
2250 49177
27915 21937
11992 53692
57468 30599
20245 60516
56534 61564
32914 45115
33692 3085
11804 5225
60540 45224
58562 46658
24256 35372
20481 16587
25397 60457
539 52973
13446 53981
34397 55696
68783 52972
24131 15424
55853 41494
33725 27969
63532 32452
7153 64204
66211 61760
1105 27476
2347 41846
19558 50251
28253 65803
30125 6020
34414 10971
9496 53388
1224 47274
14994 17422
8363 22327
26987 16346
7332 33068
17392 65156
65846 45000
6704 5310
3189 17655
18959 36382
12615 48085
12474 32899
12473 48351
26503 11120
24772 55937
28204 30801
54687 42569
80 18308
35218 38306
10459 45079
37045 28322
63497 17917
23354 9864
9275 6128
37044 5110
55481 52750
7174 23752
56442 13155
38170 21163
17057 11278
39206 23348
55979 29204
56830 2336
30589 57064
2942 56330
13091 8942
3477 44433
23077 11819
23099 61999
33019 25987
58177 58537
2420 51427
43558 20232
23958 16007
9424 2774
21940 29938
46296 26510
57415 28872
63777 54289
40009 64360
63346 33601
62307 67035
9549 18578
19459 40188
28797 24286
38710 44323
42919 5392
18095 34895
28373 23278
13455 66359
23993 48056
37651 29695
1743 32790
4997 41901
29456 45521
41549 5326
35723 20741
65929 16099
65102 3866
12397 56681
13232 619
30630 25373
49470 11069
66265 67820
25890 66225
2330 29623
9089 2208
14510 63514
18442 18317
22217 31228
24421 2413
9675 35838
1562 26968
16585 67639
6391 18081
3294 18850
60763 38462
53178 64639
11564 17063
50973 38504
50108 17398
42140 52621
67875 65512
47977 20186
63670 42321
50992 38079
44648 8306
176 6452
52466 20521
40963 13313
20149 28979
43533 20691
49423 22129
62012 18573
7336 37449
42707 38265
36913 16754
49587 62095
6915 49892
55712 37654
53357 2528
19360 29172
12523 2013
58790 8999
6611 12373
51696 5892
45697 4622
11182 51618
61949 20240
60372 3693
25534 59893
33510 4610
46081 13777
22380 68310
4701 1089
63404 28830
52748 57762
12196 16864
20633 58889
17582 66321
28307 7109
67591 47181
25335 42142
43962 29440
56271 7300
32101 44382
60096 15610
28576 55223
23031 25788
19047 44838
33878 13009
35 33429
65357 37941
12067 40294
14685 46954
37130 40599
5342 54394
9880 67845
57126 36770
52984 16544
18106 40209
16335 46410
29781 15974
1816 33119
25414 42691
32096 61817
22604 48664
12863 23817
1254 16894
41925 10982
58781 21310
14238 28558
67369 29543
30461 54656
58371 28202
10706 3485
43633 45708
36074 4691
45162 67326
12306 52119
20011 58351
16635 42645
65259 18696
39916 61197
40244 3147
40064 40125
22003 34543
47950 59167
8333 7176
21023 43342
43610 15099
63829 19612
25514 41265
47108 68743
55194 64934
62006 10235
61146 17457
46734 38895
9388 9767
827 63680
955 3873
54359 1188
20320 20770
46752 56989
1097 13830
33748 41541
21172 53827
56699 47146
64789 11319
32070 23245
32294 32427
57276 3116
33892 24397
13330 41196
38349 3330
40262 38302
8344 37727
37585 59239
51191 31905
31828 17652
18476 37614
30253 33384
5122 60417
44095 67022
11467 29903
32746 3628
16096 54126
56126 48790
64603 31947
52896 23694
4565 61589
65338 38279
42914 48285
21905 33033
58584 41845
42288 38483
11240 55881
4285 48835
20664 38900
48162 54890
39284 63375
21706 63634
16122 23232
41714 15294
36685 46913
44445 26607
10309 44842
8205 11708
44013 61252
23602 3913
55862 17267
23024 32955
10002 52414
31000 55125
63499 1210
41114 15729
59662 23594
19475 46228
4548 4320
54299 19891
67438 10831
57286 25474
34316 52275
17174 41379
64070 22521
15295 45927
122 63323
44732 31726
7886 7835
51928 13513
20309 1273
11553 55069
7670 36814
46344 52649
6071 66978
34236 50723
17328 23940
49092 11821
36826 37274
34713 10269
62996 59920
27060 47484
45368 30575
63551 31090
27952 46106
33614 12412
26144 47760
7012 68793
41879 12425
11041 2626
66977 30264
52472 65341
10479 63528
66509 37054
28936 22074
36086 39720
13539 24476
58964 11080
12342 50158
33835 65695
47033 38100
15598 5143
17532 43493
28323 43781
14739 33694
15299 29091
29026 63965
378 48734
49930 64925
50077 21139
44402 6883
60224 63976
10219 51391
4102 58062
7418 13287
3764 14366
55907 17364
34921 1849
17734 17056
20760 63401
32517 21049
17565 2012
44879 67169
68714 47728
38567 13988
20090 64531
14009 40091
44701 4721
51921 67733
65340 13831
28563 21279
9704 19004
48002 16751
8799 61212
50765 65211
52981 23528
47643 27664
14890 12602
47054 60010
51385 2941
31263 18758
21585 37030
34139 64059
58487 59189
42020 4691
54440 15609
30084 21584
62709 29608
38447 29292
3541 64073
54033 2713
40191 4455
15947 63553
14591 46266
51567 18131
62321 10315
13070 8638
48862 40775
7812 30449
65408 7535
33375 897
34982 12357
2125 14521
57788 50028
51755 46017
47492 67124
27839 13398
19436 51629
16814 1581
36509 16475
4140 42545
335 44958
51554 26499
12648 64781
46012 27869
4889 54538
50638 52940
636 1303
10150 8986
26367 43773
50486 205
35469 49535
19421 42383
65685 32992
57322 33493
35769 26037
66382 33427
53608 55267
12133 4601
21834 16883
60726 52906
64981 55077
58810 6170
14438 6612
30899 17404
1194 4172
27316 8779
19743 68500
13303 1752
9133 50391
37480 57404
38887 52813
28495 59492
3632 22589
6092 42994
45065 68334
20673 16517
42294 58562
13748 41269
14721 60387
50620 53006
16607 33897
28697 48660
19290 59168
2024 10098
59295 21260
10341 43490
45008 4635
6430 38440
38839 40165
33526 54207
42113 28599
22951 32277
10986 19249
39104 41015
63105 1612
50757 52123
26897 7404
66328 65664
18098 35106
65572 66886
56673 30970
2641 64316
18930 62640
48934 29591
9146 10563
21411 55137
13847 25038
16925 63912
3213 41005
3229 14767
6171 7806
44451 24095
2569 24105
10433 8671
28217 43053
64117 64024
60616 4900
9194 18152
53701 7085
35946 29758
16796 1096
12822 59687
4232 45831
42022 42698
39822 35092
22008 15250
40768 1945
682 22362
34982 11594
55500 4337
50635 3595
42395 54949
19581 66666
1608 50060
17996 32278
16126 11813
13200 48557
35805 26144
6902 12924
64159 63236
61693 17904
43956 64757
23311 55281
41424 40515
22502 16257
35945 30488
6803 51855
23313 47953
48221 34148
17503 11848
27 53375
17966 64146
61730 44618
39921 65276
39081 49080
15474 17920
61107 20884
39385 68296
67889 42943
32463 25822
19706 46644
7482 39012
19692 12191
35806 47346
2618 25656
36954 14725
12309 9724
41776 65032
67996 10190
30198 54024
37216 2215
19703 2486
56004 36601
56557 44528
48832 60589
57505 40767
47242 38596
46180 62064
37165 43128
28869 896
58783 43977
63829 61872
22640 65303
60446 8999
3779 31534
62705 8655
11549 62397
51299 48042
52831 2220
10954 13763
54522 12236
9191 17062
10238 38332
16984 47413
3721 41463
62697 33772
50692 16560
20133 22969
68535 56435
68601 32531
25623 6409
54601 30855
7317 65435
38616 3930
33141 43750
2733 2680
18314 50846
16015 66425
51736 67195
37205 20461
8012 7677
8170 42571
31287 68655
8905 37444
29051 37360
25075 47703
11572 54032
33250 6375
32480 6257
64263 57317
67793 40781
14841 23333
1129 64460
60966 67817
25541 53914
1389 62586
1233 49936
36088 13869
8016 67425
12089 46966
52913 20664
60847 23468
12824 10529
26544 55295
20783 24873
42801 51939
46678 44326
10318 15425
13929 1516
44696 36281
55805 44462
62418 34581
30909 2794
50957 23793
49387 62377
9782 34486
12360 52732
55034 18528
56844 48214
5932 10276
48742 49337
36960 59607
16158 33503
38825 40469
47811 38762
15708 54209
58751 48283
3578 24851
15928 32591
348 57375
45320 6543
56677 61343
56797 11220
45346 62285
7464 62977
49883 66687
26222 8497
45325 52646
36 22450
47518 66554
3806 36706
28456 16080
5669 27941
41033 16524
9027 35687
21521 11712
22651 58961
25414 53909
66021 52707
55542 8638
28129 50173
18515 67689
21114 46403
5323 47952
7359 66517
14689 35359
18807 17318
7262 63372
68745 57418
8700 31474
26573 40731
65714 13738
35927 33209
34419 38272
30445 58691
39561 56668
8032 15904
26438 41153
10110 49356
66419 54782
19386 40312
20592 43702
65190 54090
13521 32
40046 20343
46831 24474
27489 11663
48361 53184
25082 4425
31655 5690
12478 61038
8203 38280
11165 42716
50855 22267
49939 30477
13211 27582
61745 42539
16690 37641
61875 48093
11607 1825
21623 3993
65118 25228
30406 34548
31794 27300
37308 36132
15492 66851
61801 39739
37646 51356
41607 60631
8572 17045
18850 62572
63848 30568
15135 18920
31634 14787
14696 7894
58591 28404
52369 12256
21946 52325
49471 51138
138 66975
54560 7329
40643 41801
52714 22973
25316 40362
33184 16011
2946 49247
54849 68648
2297 40366
17980 46685
59803 55773
48168 32832
4596 65849
11494 10476
52816 36377
4249 27662
17987 31351
59830 59706
57459 53919
30271 41325
33252 14885
58718 27391
64066 60490
2746 24667
64367 51265
41044 42458
39840 28446
34984 57655
53505 14738
38316 44101
12519 11476
43680 27450
30827 44336
57657 30458
31277 16934
8980 8051
37862 20800
35111 55422
68293 50266
2809 45267
27835 40578
53818 33648
36709 7545
24299 31524
52140 35731
66215 67142
57094 28011
41820 58182
27083 33390
63576 116
54480 28280
54137 26952
28851 46699
43979 16340
55550 20841
29530 28133
40048 18819
37396 57830
25212 8147
38237 1709
28984 23167
36593 9289
10904 11692
22773 67714
33709 65504
10466 40324
16572 50605
7331 62731
58435 6376
28035 28974
29898 47930
28099 13654
50958 40562
28392 48036
6094 30565
65334 30116
47950 66160
44794 20605
45347 68021
37822 14322
40715 59169
31518 12647
8254 20073
35487 33140
31707 54315
567 24380
40854 25989
34694 35711
26032 27958
1169 62161
33013 39041
24544 6658
63288 43924
27305 21277
33313 43008
33346 57028
24447 40973
55771 8578
44289 53951
28824 9294
55432 3578
19967 7548
35790 35731
20072 22961
51703 18758
34017 25865
65269 65920
29589 59936
25934 22106
26184 41281
60066 25135
63321 11827
67027 66035
48149 10832
36768 28810
18310 33895
11198 47526
32512 35626
29987 66393
7306 10192
57182 28399
16130 37753
59437 46110
16610 27777
66982 10465
10164 59830
12378 12944
66079 47868
19557 41431
1544 13381
66167 35365
6292 64277
20663 30649
13897 38191
66993 45931
16093 67310
2970 57533
51377 16613
28673 43531
15542 19941
21693 11179
64332 38294
24516 64482
22554 49024
22913 12299
8231 9877
57156 49014
62756 24272
29756 57425
1415 21402
62907 49336
46164 19704
59610 46564
43607 54879
3353 64795
32440 6311
57470 57960
53615 17632
26584 27080
6730 32402
222 27516
4730 60538
33618 18950
36978 26817
66484 61789
27086 36778
27914 51290
61937 61495
55328 2878
57465 20311
3771 29876
20529 25982
35226 3657
11842 48470
22762 6376
29260 22917
3233 64255
36236 4807
62234 45040
58669 1086
32464 1895
65719 41912
10504 33949
19458 52269
40243 68246
59424 53962
53643 5376
27284 27723
56942 56778
14657 13076
4476 59551
37013 20041
58310 55111
67956 64224
34958 5643
33383 62648
54207 25608
42007 39840
59989 62741
30116 52022
25317 42894
53433 21714
41670 59275
58462 3752
24237 29304
19619 43708
6343 20798
44649 2906
15637 61143
28552 11589
50241 42761
49524 29511
30327 14547
10335 12563
33027 36473
62660 47369
12909 31558
6351 7441
58994 31214
16441 54585
65956 56189
39122 59766
44665 60599
25724 49876
34645 52638
4156 17664
59876 57785
17434 5461
5264 13088
51280 20209
50212 18398
43990 43397
9254 46599
47527 54208
66253 68344
23671 67443
43497 51315
46988 35201
52304 35753
52663 60781
27181 21692
26766 17955
62681 26708
36496 41495
23933 31233
765 35679
24370 37019
57656 68444
26602 21576
63781 67665
65136 104
10592 18206
21917 10006
63837 19412
22330 32681
21105 196
13982 22506
5184 20648
10673 59215
19376 38733
4757 29269
15859 8278
25400 19167
10482 31032
56380 22762
8816 18894
6139 62725
67895 8133
41934 26151
41117 15999
17682 46866
21454 59037
33360 38587
2459 590
20280 57847
31523 16590
52715 4148
46026 37178
64645 64373
44142 12132
44175 34142
66488 11917
67413 11110
41603 10445
1723 8353
17494 42336
20272 36867
34845 56056
8772 24613
62338 33560
42997 51481
29344 20455
22484 8497
32724 26700
4119 32746
36009 68772
20596 1739
43873 47123
62132 49421
30647 49355
42327 8787
59405 7730
22701 52721
32710 267
12012 40483
37149 16168
67497 38309
36929 32850
8486 68275
43005 49343
20333 59480
21284 13875
35276 2211
64537 29422
57372 48223
16389 24499
64590 53703
39092 60809
16430 6521
4448 47417
35576 65004
60951 3030
44563 35676
66269 44327
52646 39479
52736 37829
57501 67767
28610 48949
51473 11166
35366 42347
29946 27556
13723 47198
28239 50107
30164 55947
5112 39608
36605 57834
62655 66129
6910 38171
2524 16278
6424 64873
43252 492
49949 15641
43021 37458
30052 36025
32855 48940
31270 16402
53997 17178
18583 29937
68208 8796
37208 64634
30900 49798
34636 59286
27242 36459
16182 55610
39327 25026
478 3976
40299 41273
54678 11398
63339 13711
25998 45972
48594 31738
49900 2745
14882 8352
33201 54243
56435 49427
4359 60361
20750 42874
39673 36537
40820 3069
17897 52442
24116 60969
5629 13083
42959 15625
55682 37369
59980 66046
2152 33381
67875 47020
33202 21798
22431 1271
60976 23849
56679 45440
29551 16826
12015 64723
13451 24141
18979 49677
52522 17460
43863 16280
326 56805
40043 2285
4996 20425
40994 10559
7973 24858
45877 20443
22597 21716
6046 5174
4789 6720
38934 14538
63260 42635
23871 41475
65121 52993
62399 59523
45441 18719
10534 51329
44557 66001
17207 68723
57460 14288
51801 30618
52316 66016
18717 29070
8868 17604
8131 18064
29547 60717
54276 30545
6203 51907
57183 30218
5312 35966
46752 40806
16216 22974
40808 50836
46125 30653
42797 36604
44629 59832
57319 37390
35591 60402
25480 63607
11086 9082
52554 34245
35011 35749
26777 51737
13648 48948
55110 20711
13722 28030
44283 25370
65501 36572
43179 44943
50119 22515
7431 48653
11320 49768
47059 46255
28798 8791
10433 40553
46112 3912
31209 11824
20141 11582
21877 24668
38618 42806
12689 47765
41201 56673
53387 49669
64191 635
20083 30786
66156 66946
53002 55741
49123 62510
14882 14267
61477 10513
56950 37300
66682 49833
924 1321
53749 29046
67332 8440
41143 56502
13614 25468
55912 9602
7363 8518
54586 52263
57957 27372
57159 727
42309 16899
57824 63332
35756 43436
65044 34841
31818 19584
18636 40344
50284 44878
61575 67720
597 33788
20770 12401
52002 11104
33492 31062
10902 1473
57255 46235
50206 20137
11065 68045
5497 64016
26577 37526
18835 55354
14742 14125
28102 30341
15698 63563
55985 37343
17171 68393
11392 24099
57741 23353
4394 13527
57368 39970
51131 42263
10989 22868
50847 65953
27855 66048
45428 4713
7727 15789
44695 7659
38788 55559
12694 8837
60548 260
41536 17658
64438 66468
22866 51286
11897 7358
29554 35056
7387 34774
35404 21621
45694 6062
29223 8913
826 6813
10231 19658
7797 37320
40799 59538
44783 27324
4509 40022
8354 18385
7978 45570
6219 47678
3067 49945
57291 15820
55898 43600
36422 37279
50212 66630
50611 20594
66404 5953
36538 22239
50395 12348
8357 65566
10969 67765
54382 57595
68708 52855
56842 37821
9607 41292
28496 5199
65593 29184
23480 49981
20546 31939
1017 3236
51123 52611
25598 9221
43965 37416
19555 1874
31940 31510
48662 58632
66294 31516
10047 8984
7966 8344
4959 11888
57134 9932
6406 48368
4853 3225
2975 29909
62718 47031
14891 22712
68468 29095
51290 61530
61116 30719
2806 58354
26761 61277
28881 37231
2990 25775
10907 44118
65868 209
5715 4181
49726 53207
48681 3976
64597 38301
30264 25096
19907 39
33705 15630
7926 3003
9234 31573
11685 36353
11896 3081
18105 27638
6848 21780
24097 21514
22827 46750
2891 48338
64437 42259
67617 15819
50006 48522
34276 25430
51022 11050
12435 17514
49878 36946
6652 18288
31005 40302
61200 51335
10084 18682
43580 56198
24590 50903
61812 55222
35033 47354
16713 58589
35990 33336
44002 39207
48987 723
41689 30106
17904 52855
3824 68804
8463 21496
31214 12790
58225 33718
38880 65337
64710 49197
13020 26366
14435 53062
9053 53839
26889 22470
51288 32322
37552 56949
5085 40776
38186 32224
16796 65683
53658 31092
15651 48060
57922 48928
59627 24240
47673 17093
27103 39125
15246 18393
26690 49937
26215 56343
44986 53890
68632 43310
35969 68231
59436 1245
36842 26101
29314 63203
53141 55502
37645 25477
54596 60246
64935 36498
49239 11722
12135 42223
20678 36783
11956 6484
4966 31219
37194 29977
55786 14655
19846 50801
26160 68139
48360 1785
2839 36950
49216 31348
58497 16236
44514 25435
58022 49182
29930 48684
30282 64740
50525 28697
55958 41580
45552 25432
52025 22762
68732 28732
46116 61373
57492 12990
27977 54925
17888 31342
51704 9784
40532 5593
19918 27137
36155 68464
30134 47897
19709 17288
30932 27598
43358 61956
22594 24858
7285 28154
18520 11268
34084 64452
5859 38446
51507 53987
43566 14045
57559 66478
14166 21951
38216 34325
48324 26104
26314 63359
13296 6771
33645 31017
24665 18394
33582 12712
59491 4984
34220 3774
58095 37480
40717 41699
50694 59629
37943 48514
9550 60280
27398 5267
29587 49716
24118 26887
54095 20439
4063 37344
38364 58926
45972 57825
41847 42121
41096 66375
18409 34774
65458 51291
2649 7808
18235 26511
41486 26143
24772 1974
45607 24362
26416 62812
275 6772
40447 3841
34511 6788
20639 12875
23558 4772
18336 40022
19976 5075
29951 41498
52747 32782
37540 63406
47738 52981
1325 52254
1580 1468
34589 28789
4836 16401
48751 42456
1940 61951
61433 34069
63678 10319
25758 30301
3851 30621
54702 29825
63275 45697
64697 42083
55692 36656
52567 26844
46992 54582
37278 30783
66298 6829
7019 18630
22162 7296
24407 51597
62613 1368
9243 31845
252 58844
54788 32403
26077 1836
47762 43676
38988 32114
36669 9580
7301 28622
48776 24253
55884 31617
32754 42675
18469 60121
992 62921
54133 38061
49874 34999
52998 5543
52419 44372
10877 13993
47238 38812
18228 44735
1281 13144
63142 58055
55257 44236
19314 61051
4793 59363
11447 13335
27487 67317
52358 41888
35889 64732
27172 60091
59210 33878
8706 44085
13054 37274
3530 63148
31776 14383
54054 3809
63426 53051
52053 38201
22909 42774
26527 19128
6848 57473
38229 39569
40183 67481
13170 21488
26305 40536
67902 16638
24504 6478
19736 45722
59177 61359
55250 6368
6381 20725
64826 33527
45771 47329
9381 31787
30686 51388
34052 25103
5847 64779
16897 26349
31548 31975
16851 45470
55195 20073
40165 48352
49359 19965
67524 32680
42509 22831
61576 67051
51481 3890
10182 29522
44837 47011
22223 61007
38294 34803
37201 2073
60111 65634
47408 29706
14678 21954
16971 4644
52861 24062
7626 20933
11829 32158
1030 12655
3035 63932
16613 1331
8456 90
61184 48908
15919 4612
9444 38086
13807 38602
34562 2862
6467 36407
46672 42637
26961 39917
17020 27178
6890 45586
47580 41359
27315 11360
50083 17376
57686 65133
36283 24876
64604 33182
11525 18369
38464 28084
35926 49040
1272 28972
23628 21612
9535 23847
38412 20324
32255 57863
42115 55087
16128 52302
14926 49426
11842 21185
40607 45321
6632 7249
9860 40303
55483 8555
50969 47696
66969 58749
68216 44252
45515 64481
26388 10826
27336 31430
20235 10111
46466 25145
17173 25320
45259 12801
57024 5210
34343 27620
54560 48551
49070 4194
35414 57344
13192 65490
35810 38651
11431 18166
39723 24418
49026 50179
34532 44892
57670 7084
16125 15632
37097 38935
27895 9250
38898 7053
54253 2227
50451 42912
13471 40556
46445 13043
4847 53534
7871 19016
29812 26299
58155 9469
38534 35785
31360 17781
43689 34698
1269 25971
36220 43216
25459 5135
55302 3897
26610 16243
49276 59723
48436 5596
25292 37832
12011 61808
40844 24155
7216 31805
3550 44524
14462 28447
33125 57506
9883 59401
3770 4617
36602 21327
40120 50193
14383 27437
32237 38250
1844 15681
34140 6234
63789 62207
60893 29371
28244 31115
11713 27999
44456 27945
11082 27407
20746 35534
15148 40404
36194 41248
57041 42642
14936 23643
21899 31946
5452 48643
7531 67695
46452 20117
49290 31777
41685 35536
44782 19159
38587 36462
20783 2241
50732 2131
40359 20165
24901 24102
25858 38750
38403 3208
35472 67055
54327 56940
38648 45507
26062 36335
55985 30456
53655 44498
21272 21107
28967 7906
41476 31872
52652 56700
9787 51803
33294 65316
46391 24315
10712 7494
53045 36566
57700 1990
60527 540
52432 2908
6003 34678
41147 17969
41101 53406
41963 53697
1599 62697
8185 4622
63345 17637
22226 62137
12992 47715
3348 63842
13257 54074
60293 34674
39229 19241
5411 62466
22528 22381
14913 66144
65719 23444
55670 48633
66693 9910
55633 61777
28033 64793
41898 15983
15835 20673
30963 33908
61456 12941
55264 24722
40879 6500
25491 44688
42736 24549
45050 15517
21392 53479
44981 17009
56534 4996
68483 15544
26924 63096
64675 16217
37996 45707
37971 47819
24225 48524
14914 11919
29242 21689
52688 27250
32748 66358
45802 32575
10408 31828
22496 27498
25836 4790
51250 15022
26661 61090
36427 21894
17075 40047
54959 68749
65505 64200
38755 37193
61240 12556
51036 61249
15324 30212
64707 7888
10131 55489
1632 34893
66722 59099
19103 51865
8982 20418
51459 3642
49028 33168
6455 35746
34765 58712
37617 201
25102 35106
64528 41063
52821 21265
23579 12084
24636 25626
16965 18896
55989 37438
60060 15317
45081 10069
24569 30550
3669 9775
55496 10398
10362 53236
33437 23660
42737 5917
8422 51575
65071 54206
34848 46181
8996 61175
9258 49899
20947 4894
44501 67277
52065 55592
64113 5149
56028 62270
63499 45776
65013 52481
57980 32985
44119 50393
67236 39775
30743 23556
5510 67954
51332 53280
62122 50155
52927 44820
52572 67661
61999 24020
34038 51436
1172 27548
13936 20424
44857 56711
30975 37011
9615 30233
22288 41159
3821 9925
46519 10769
44278 64598
58383 19140
36400 6767
29456 68607
25240 60846
43314 12733
33223 10459
55996 43741
61058 52146
50025 42127
57940 67896
13874 37899
18762 16968
21205 26489
36208 44136
9142 20670
48445 15145
30565 36634
36263 21959
51457 45170
22556 25712
45814 68464
34845 30698
67094 40284
18043 33063
41511 24517
35720 67712
4693 1658
213 33204
10560 39823
15099 61555
52054 39064
40564 54662
59123 38638
60139 10800
15970 51432
11133 23248
34427 48205
44397 27088
6934 8577
36727 67791
24338 66020
56357 1867
28637 39386
31140 5237
18274 18355
1643 28952
17936 45446
63738 16742
41042 55129
59455 52791
60339 67383
26796 36820
1648 13385
15682 13337
17413 18228
9475 39029
7899 10155
40978 66610
34341 12947
32966 58171
4550 64095
17709 1518
39973 8779
21680 58682
58547 55478
14930 51495
32317 36906
44253 54560
32957 30879
3536 24550
1991 63040
63186 67903
57706 64579
46386 44697
13329 12215
54100 68687
23367 23555
56935 5134
15122 2350
57307 55612
48 47067
68328 42121
4674 39248
45421 19633
60789 33945
31347 26992
43075 3292
23567 37120
39495 1667
47630 57465
21194 7986
19097 51700
8372 14010
61166 45344
49831 47565
15038 55271
67945 62683
54021 61223
32703 8519
50766 42332
11647 1966
39262 66324
52682 59484
12776 8813
19452 50985
20013 26051
18214 67979
47276 68820
56182 39894
13146 14573
46206 4295
48418 31509
40133 58038
68136 34545
66156 37732
18219 56206
64126 12941
68568 39238
48929 14891
13378 20122
53695 67706
36813 68223
50117 44979
21440 60856
9447 36808
18257 24708
55088 42288
58150 21988
12799 27929
15016 24267
17927 16568
38802 63671
463 42402
22279 35622
41171 45876
55046 21151
49049 14784
26491 8059
9586 56700
24600 54777
35714 48877
59065 35595
55419 18350
20682 25466
37490 1212
24386 27228
39773 53911
57518 892
1742 68072
34986 17004
29919 68466
7270 1028
28518 5111
48716 23719
46738 65271
61824 14056
59850 52036
27864 31466
31559 10473
55738 24460
15496 34500
19603 44620
59314 14446
20248 37610
6784 24809
18515 65718
1469 44758
39107 47064
17411 11548
27285 32167
39711 50870
44556 56898
12070 25464
21516 50188
61036 48230
68024 44655
35821 24754
40944 22012
11489 58461
39177 16692
23609 17171
60005 63848
55609 46165
66769 3536
34698 64229
1301 23785
45164 67691
50885 10536
54403 43873
309 48154
44654 45592
44338 53190
27579 31820
45837 17800
68717 39913
31493 35464
10007 63324
60534 34798
32391 56557
66158 33717
8949 56862
20880 44897
36341 13626
1057 15346
24450 7314
21968 16489
40686 44645
60269 45401
20260 59397
35617 19793
41105 6926
24779 17716
30242 6672
68315 16009
65755 14331
54347 20329
62540 30059
48671 24268
2262 60924
60569 59090
28528 35010
55348 30067
63131 34876
43243 40833
155 36703
26189 56978
63689 65648
26384 44355
16550 60576
58310 64429
55585 54839
10744 28073
5662 33207
42580 63442
1381 21556
34795 23450
7491 61199
58511 14718
19165 64982
24042 16009
20651 63771
22697 55834
33758 239
55135 15594
39692 18622
5562 51894
63110 15532
1384 50981
14606 66991
28378 418
27670 42469
59547 51404
50855 4632
58474 4120
963 33224
23747 34771
4719 11180
8032 3018
58850 21261
14527 2817
26960 47879
51882 43244
6637 6233
61166 29401
36612 50027
11598 19781
37111 12805
29729 5563
20003 38971
30071 23182
38238 44220
2990 12451
4555 64220
39187 21362
55724 18205
40818 34068
26092 39467
24351 37186
29581 63267
39170 3431
10735 35361
17837 5697
52358 27832
53334 24773
25721 65542
43824 58199
52347 13823
45122 38910
20354 29517
21731 4109
52627 48290
19478 40741
52479 40059
18381 8346
25192 54997
42190 52574
30882 5738
39848 28130
50424 37603
27643 45306
2462 32198
52492 61910
19229 65821
16422 34616
48474 35652
37689 68351
39734 9361
32791 35377
31427 57023
54848 44856
13550 24547
29272 60719
21230 40482
48955 11990
18528 34000
23701 44694
55086 21869
21159 44566
12118 65674
20780 28996
48912 28101
47194 40531
60887 33202
17316 36188
26557 67567
11313 60575
36368 16889
50406 49066
47565 3017
52313 20817
32230 2626
52389 28951
9463 48173
21391 27187
47685 35944
30883 44205
2744 17371
34390 14500
48003 47069
33266 66552
23870 65054
35053 58342
43958 5256
58492 68451
68616 55462
53295 42037
40667 12869
22352 5023
31336 46799
61405 61845
60323 22123
7536 27323
35154 52410
48463 26684
25402 6036
35505 47050
2155 63172
53354 28166
2574 36257
42101 48607
53476 37752
43378 50127
17401 8853
53059 18507
33063 49941
10023 31635
20097 59417
34086 58843
7838 60593
19754 35771
21363 56488
25209 57870
56219 40255
13889 39007
51857 64281
49971 49661
39773 66218
46965 56685
33963 7059
7621 20837
21600 33921
41901 47010
14583 54549
43770 41736
61904 26487
22740 22918
33958 12104
16275 23666
39725 56933
31276 28049
16159 4770
16247 11368
48614 31936
15115 33422
42727 2629
67714 68048
60892 32646
20453 31580
26995 3061
7349 38440
31917 15839
45493 64636
61552 19528
20658 53829
38467 30777
64601 4382
45913 8548
2586 45129
47292 32573
59616 51594
11796 22065
45305 16412
10280 44320
40004 7034
62245 22080
61172 11605
29288 62924
39268 21333
33225 50822
26018 55071
61093 24220
15336 28941
44367 61944
15513 3403
16501 37290
41706 48082
18988 42819
39742 39619
24677 46334
7349 47209
43589 63568
24308 4826
66050 65581
16985 14399
29867 61952
26763 4066
64153 18771
23043 47165
54828 47655
1501 51288
16992 44226
44047 27398
62938 40328
20669 5823
38636 56858
41493 55631
2840 38996
64174 66619
60693 56912
53311 22912
28410 65068
53857 3023
67267 62725
28844 10807
57063 30148
24297 36342
67422 60785
40771 225
66477 4195
64547 68165
63137 3894
53986 29231
27926 25821
11087 5445
31656 3341
66354 21447
50656 13345
36795 53489
36573 65683
58039 9863
58631 33459
4620 64046
42277 36887
27162 23349
63924 13802
7888 1725
3205 47024
54607 52426
60443 41130
7811 1432
16684 41590
60181 33759
4364 38043
8983 16875
5322 33296
51641 66330
27977 23290
54671 59025
18092 42988
42602 27613
19283 60314
20303 33571
20392 55299
60175 18139
34367 26536
44903 5826
513 24924
27225 9257
17832 3887
42868 55399
20936 38603
23933 31997
665 43729
60786 5947
26784 41278
6171 52007
65532 50263
42022 27746
68314 2011
55142 64162
23329 45842
6934 41782
35635 12374
49110 34386
41160 51104
1908 28086
20547 47164
10016 22643
24192 18337
16939 26813
20815 57318
3949 8534
64050 45085
15711 26740
45308 2823
57939 12167
14606 65436
8119 20495
38712 62212
54680 30497
65188 52913
16632 62491
48224 48386
38212 44191
31392 57212
11489 39344
8262 18216
10943 52263
7046 44322
15627 43319
41863 28139
45150 20748
5351 17890
29780 12988
41520 6449
2426 21331
19438 38717
56287 24825
30395 42603
21186 55879
39367 57097
47151 38938
63663 30001
53431 44132
23164 38214
22660 42282
31591 59645
36695 28520
51031 64397
42313 5248
64874 21976
23962 23824
14555 42460
31678 13754
67053 8011
41245 40868
189 21067
240 48930
41505 61308
28307 45659
33804 28274
19103 54801
12643 22156
54333 61189
22487 43304
57723 55355
15093 53456
59082 63776
44329 9877
64196 43942
22712 58653
8674 24850
3962 32467
40873 41008
3519 20430
1290 10583
49351 2197
47528 48622
49635 54723
58065 24707
17591 8418
10825 17124
44375 57413
63191 31129
47516 57792
63267 52303
114 58710
7992 40049
33370 57655
40019 51500
55378 21238
59339 2320
8492 59003
9719 6478
27212 49269
58407 41682
54638 18817
30219 59068
41973 63304
3099 764
30132 18540
50053 18724
14752 47457
39951 18423
21548 12443
7095 31732
19575 21886
10839 13789
3743 24235
41776 34750
29094 47837
24434 56715
41172 53399
65905 56422
7126 51271
40859 12804
5659 68235
9722 8647
46863 440
10880 42247
5726 42165
14816 13101
44534 8436
26135 68753
13583 58829
35066 42307
53245 19965
3631 52928
3950 62368
32117 52849
9774 65311
61462 26942
18553 35285
8872 51505
53689 31150
59724 32639
36418 6507
55311 57869
32363 14616
23588 67500
5415 68456
17562 26282
23871 32172
66778 22454
27734 57520
11261 8416
49481 28937
62250 38003
7782 2793
7765 15806
3249 39301
48871 432
23330 15904
4562 3324
14 33708
3514 31706
21315 18323
20635 60261
884 47238
9562 68120
56617 16503
57396 54980
30284 14910
66936 41127
63300 28665
47421 44414
57198 31660
32683 34994
42823 56198
10369 425
2190 24614
62688 46439
62757 8442
14321 43782
8303 1112
14545 1839
68196 32801
14225 57691
44293 51746
38109 54147
41297 56794
42173 33756
25830 43090
3925 45798
23915 1346
32397 27729
28283 53671
41467 2850
1719 28848
31677 4826
50306 18342
67830 54422
49728 37108
33037 42404
42120 38677
21663 43503
26807 37657
22032 31293
55687 36154
9784 22771
67963 36633
3137 11683
30790 31110
41448 61432
6171 17990
11442 16951
23561 25324
61480 18472
62316 14046
57710 29418
44121 51789
7372 40777
7168 64945
10108 10217
47124 51224
2854 40682
21134 23565
45574 42355
23927 40779
52487 39444
55398 16859
48573 68005
54631 15170
32675 22394
1827 21855
21908 49824
51402 55014
31562 64536
63949 25539
33274 25789
11028 67473
46443 5528
19430 44698
3587 301
15923 60480
13393 2102
41755 54296
68761 34391
26383 35345
36596 29450
242 16207
44605 48418
44022 2408
42199 58830
41485 24269
63923 13321
53761 64342
14183 21000
16877 61031
53982 16769
53004 18538
4300 34580
56767 54323
59271 2463
54640 47230
41438 6989
58357 40933
18757 27630
58427 63108
66213 39381
13422 17108
4852 55955
2119 46445
37316 40430
16040 13038
25656 6781
37113 65002
659 40216
26955 1858
18846 63818
35303 57416
16017 59009
43751 55079
27531 30629
32937 59518
28146 43920
13708 54945
50071 36363
57777 63241
58952 8075
34623 61243
67638 47210
40340 14328
63302 65399
42466 9242
14088 28818
52318 10655
53381 57127
23282 33299
66673 600
34110 62918
32893 26105
58744 23402
7807 64708
68304 51398
24313 22686
68570 9374
17873 57120
31873 20280
32661 8507
68233 48807
21297 42398
65467 21356
44087 2986
45666 53772
51822 65289
49147 64556
28868 1361
4040 3143
31420 67130
14731 61274
50497 62852
19979 32508
14229 45648
4545 25299
8480 60610
50571 33494
36096 51172
52541 2207
56757 40142
31805 30926
46260 34757
6701 32775
19956 4726
63461 57010
45507 7871
32085 4177
64347 14681
36448 39097
48863 8243
55713 25533
31659 18542
34904 21322
54801 12542
29454 58939
38538 67211
20291 5464
47412 26878
7883 34860
29398 13173
33090 18189
372 63611
51309 58789
9974 14758
44234 19162
7137 67502
12442 11164
34043 29573
29887 4270
61314 26822
61379 14315
6175 16629
19953 47656
49196 14868
58565 15513
52823 41896
9552 1840
12150 43154
28015 8240
57022 65827
55829 58078
3415 55689
42481 7390
13141 29009
55142 35670
45404 24755
9814 45084
622 3856
46301 3036
57873 37244
25482 17241
36981 44517
17988 10209
16035 28980
55380 22971
15206 36466
33274 13707
6507 15205
18353 24336
9431 31703
28294 17198
31287 19439
67969 7063
67713 18199
21617 62718
33115 47597
48946 1992
50125 52867
32659 33721
43082 1306
62503 2405
14063 61973
36643 25056
12187 67451
66644 56326
9251 30645
57173 57454
28455 59717
5653 1672
21142 55579
35003 32624
31329 57245
48035 46233
52017 31258
36268 65294
62486 61073
39252 21760
66565 21867
48017 53227
51534 25353
174 65638
34643 21568
31376 36171
68375 2796
4738 34108
2556 63755
5760 11149
57232 17923
43670 33645
4313 12555
13251 31903
25 29541
43028 56882
4919 17345
25782 35831
14834 57863
21506 17250
61904 9973
4809 35399
58771 63725
10619 49345
24262 23567
68781 14170
21866 36002
6085 45266
67801 34197
41465 51847
6965 8878
53078 45463
27911 44519
9894 21706
15670 43234
17437 26863
2658 56752
13538 48982
43622 49232
13949 41756
12703 27781
16286 43294
40660 64978
35238 25852
10776 38663
24802 31402
54232 36017
52209 1620
49259 12931
10753 58731
15039 7874
59299 44331
56393 64870
66014 64524
27901 48125
56452 60756
1000 67623
11279 16311
6484 50628
10508 20182
35633 62085
68710 42792
67581 8703
50018 42184
11898 49977
61165 58052
35529 2087
62575 42610
37393 44747
63061 19432
64705 23560
26390 47613
55061 35812
32344 63968
23509 38003
14492 40753
28719 17348
25244 35819
38447 55469
42987 23049
4872 5932
56279 21410
11778 66113
13102 10354
46620 49228
47537 50883
36919 1584
62514 40895
3451 24768
30437 18334
6404 33685
37545 31880
11209 16879
35952 29602
59155 1124
23314 11930
52257 66028
15601 61492
20305 32192
36904 3149
23213 61522
60202 47161
30491 65718
21726 45290
13057 22507
6977 2664
4655 19022
20847 55629
61017 57374
68749 59392
56129 45345
451 12480
43253 58144
49752 47421
20225 15548
51801 950
1939 58319
25076 44086
30469 54378
9077 62916
20223 12116
35963 68495
55771 61745
13158 27308
16403 17209
58473 1317
67176 46359
16843 66535
43303 36399
64455 55102
5612 42519
68478 23892
58594 8673
65431 627
38260 6275
36445 12700
49187 51532
43749 8933
31266 1919
8621 16302
29585 5692
29001 46137
58056 44830
237 56697
19957 48986
37706 42118
23964 65563
64073 31350
28414 7641
33474 55799
56208 14933
17891 33345
65437 54264
11328 42551
48475 66678
68507 64753
63807 14536
45296 43928
54240 59962
16626 12951
38146 37134
37726 30486
11353 42514
4708 55377
18264 50703
58136 20016
53739 16170
17720 47239
29023 56724
37901 55800
17362 50348
8019 40746
20546 37500
45212 30414
40253 49613
34050 37633
35990 46650
12148 491
40480 11933
28974 3823
54377 56469
19137 31343
59987 27173
5594 66224
52641 51000
10243 38156
8304 1403
59184 47259
7032 56971
24597 7678
51067 27280
8955 43333
57135 11734
61961 26509
62643 58295
2830 46429
51615 8434
16176 31414
61174 32101
37362 61551
64719 46890
35976 67620
192 40722
59801 5786
59888 37154
3501 4134
35260 14584
52676 30471
1226 31415
60099 28007
54309 2034
30416 4314
55383 46491
9100 49750
15574 59919
39306 42928
3394 10548
29514 55771
43689 29592
44886 41343
48653 34452
9372 60172
27542 2144
65157 7621
19751 52894
52303 24001
50763 55509
18580 29874
12522 61072
55561 16312
29162 19229
343 25361
42670 28647
26134 2877
1479 25559
56064 39319
10886 10065
2629 67386
40466 34417
25939 725
50450 15348
33419 17180
1462 25496
32097 48037
28699 9401
43422 8775
48228 7437
52956 41667
32515 11936
29346 21103
54067 49971
44391 32883
10947 51745
4103 28635
27176 24404
7863 27241
64316 64134
41058 64095
52998 22289
44584 39484
35096 3960
48652 62959
18393 4271
51332 23893
11541 14871
55933 29717
55611 2904
5889 36729
62080 64911
62315 8011
35621 30280
30260 23814
36113 46095
51494 38354
11831 53792
11652 23292
58574 63109
49396 34625
36095 14780
15219 49025
8074 32729
28797 1853
55230 55942
58671 41666
16235 61812
9326 31179
51981 42473
3102 55747
592 10339
44180 32335
44227 47835
20574 56092
15179 64356
67172 40769
2247 21262
58686 56333
4955 48149
14664 44816
27569 21726
18976 30304
47758 58145
3846 65951
44388 9877
3932 54487
30335 31687
44576 17685
6589 25869
44457 59520
20189 32632
40451 43541
68423 43499
31270 17875
62042 46189
46474 49001
45364 19618
48331 63445
31821 38012
3004 3820
62645 18890
2784 1059
12505 52118
13620 46623
16848 8919
53934 51003
12613 884
17005 31780
8855 46681
29663 38835
50400 24390
60417 24865
33676 62266
26405 12511
39060 65019
49248 64571
12633 17585
21860 28830
33727 13599
34104 8519
3092 51268
19013 14347
33676 23778
3913 39979
67126 64930
6031 18540
57893 14133
47923 12716
38228 10930
4933 67421
18210 4086
40953 61776
44000 31892
12079 21451
68303 28531
35081 42209
54789 28087
43876 68616
19194 29868
16453 52119
64395 47081
9744 3759
8849 48743
63206 9182
23038 5322
11603 25322
28482 38371
63334 49368
2651 35178
38258 51900
32410 5893
36330 3676
15797 67293
23072 24131
16029 38544
52457 60810
47496 9645
68332 38665
53424 48245
11345 56688
67270 60185
38563 31561
44615 68360
7736 38498
41924 49071
56666 2800
58555 22137
1492 42270
61772 36718
28387 330
49453 8236
55602 40287
5139 28559
32108 27868
17356 42804
59438 1682
63408 14930
30781 1859
61282 62824
18775 43972
47570 36357
31003 8094
51248 67119
67798 54478
40918 4107
32985 64437
52361 45286
51767 39273
36752 41071
65455 10664
39824 64313
4231 26614
30433 4712
20203 3717
48710 53938
15011 42282
38257 64680
37518 38047
35005 37273
26130 23573
66064 55851
19696 67860
36229 66795
34264 30319
27606 30083
40354 68633
56106 29586
55782 38666
35237 62751
47017 57332
10154 35269
27201 29023
39508 1996
56607 31733
2380 53382
48054 28982
30680 25025
8235 60931
51506 23101
20618 41542
64362 9691
56761 8087
65299 63210
37474 32419
24350 45387
1921 51241
60531 34998
62980 21866
2932 23493
18588 59729
29543 21123
21249 6419
45173 24304
3199 6600
67788 3384
68048 8602
28553 49491
67881 17764
43255 52467
1743 15903
65016 28534
19941 44260
4038 17934
7748 1778
9141 50473
38041 57607
41564 67608
15020 53553
1012 57103
16103 24610
58725 42858
47251 17852
17975 31618
12228 14916
45561 4877
49221 49291
59033 32385
4698 39976
2055 38523
2735 33312
18054 58001
63238 26054
54225 41795
12178 67015
33377 30961
4151 18519
18737 63330
7976 33524
1928 43371
39707 22599
56078 16530
29924 39147
17319 39137
30738 51322
55217 31131
47117 50826
28508 66873
57329 25682
66747 61537
66045 19796
27295 20106
52807 688
49076 62465
674 61058
46745 67810
4814 13165
64566 5415
64787 52236
2297 42281
65077 62563
36386 23190
22517 62519
7195 52134
1750 17049
12654 66324
35084 18913
24713 57956
58721 29167
63926 64297
9758 22695
7953 49578
9820 18406
4022 12510
36800 55591
5509 10464
56515 51975
38890 36185
25573 7218
16015 30989
50623 13555
10595 42645
14970 63541
20897 52337
1957 66811
59580 18480
31830 1025
16153 68206
12225 44012
31121 27759
67349 1238
15635 50358
49276 31698
55435 35707
25908 48053
15391 23408
50311 43487
46473 29005
7849 67834
12121 65357
50112 67849
33738 65909
46241 26269
45901 41066
7219 4926
67035 31194
11002 63970
25330 67334
7672 2046
38391 52339
1434 35537
68167 58024
63850 33232
1600 29728
60680 62950
57929 41722
32566 10455
6758 7991
54521 21590
10635 45043
35435 35121
41259 54687
35268 6040
2495 15282
56848 38263
20549 42108
6995 384
53230 31860
33113 42224
27501 7085
4440 19342
35801 39597
52219 22538
63449 54252
39212 22138
47905 56474
55242 8220
42174 42555
50735 61870
25841 48583
68139 45728
11026 36764
44700 13616
33956 58578
58674 60680
24806 39147
17837 48132
15540 40047
42945 42204
13657 3733
30113 8466
48108 68556
22948 29293
54226 30741
23049 42402
32945 11498
7256 51573
37165 47949
64026 42353
13602 21916
14099 4683
49843 23260
67457 46225
25681 25206
56904 40352
47744 18532
20936 33391
41777 35642
62838 45692
61305 67284
37652 24555
21872 51194
33408 59580
8583 36155
45703 14007
37422 718
53107 1444
35535 56723
43713 26551
48636 39505
31777 41365
34322 43402
26359 67815
37016 65405
6809 9473
56992 33759
20219 61255
29758 32537
66224 26150
8555 67278
12227 19611
59870 43563
106 68621
9441 36253
46520 62473
61899 21461
61862 8141
36564 46910
39628 57703
65402 5198
61611 5469
59251 53575
12101 17774
54448 38786
60197 4387
1133 6718
59524 61579
20995 12267
22549 68384
61282 7077
12254 39084
54544 65890
46425 54132
65379 49373
15654 43242
15581 15307
11446 65040
54766 38093
45856 67626
61881 44848
60511 53565
59285 28627
10390 53548
48667 18034
41773 16730
12645 68197
17366 6661
39681 35378
46384 44236
50826 15948
26191 9624
25769 31800
65679 12629
1389 66333
53832 38185
55783 16241
4929 58819
26040 43535
1575 21815
22170 2712
54518 67957
40269 52623
65725 53001
5124 66434
32637 41990
46625 22030
2795 45517
10213 35542
38219 35876
3287 24639
47873 65903
55617 24376
6532 48502
20194 56264
36144 61276
57948 8448
56613 47798
40465 19811
57246 12761
31917 31569
67634 56857
65717 40093
21196 62101
47850 1089
21588 15252
60317 11
66205 53120
52951 28677
50337 25784
10271 63891
27995 2782
21721 7364
30425 64449
63341 45278
61484 42619
33999 51725
40136 63347
28649 32223
30121 38888
1186 67302
22043 22702
14315 25169
12728 21980
27404 5938
57616 55813
38042 25970
23037 859
40557 382
23429 38826
57724 18842
22769 17288
56501 26425
18150 19270
49161 16785
30791 8078
37409 59592
7992 8095
50568 67427
21245 43398
62130 11329
39428 22449
36696 28140
32483 43189
64586 15746
25537 66568
57782 6533
9523 11448
23065 46348
28250 53256
32375 58695
28836 47374
9284 66744
28125 37948
65171 34679
49108 35081
27658 465
24461 60415
57682 43895
15944 57954
38194 11727
65039 16451
2886 64806
38018 15874
25277 34657
44280 30588
53371 46339
54146 66562
35606 739
19761 19561
38229 10614
16926 34963
28298 41048
61745 55291
61168 34024
67578 21121
41704 23384
17192 6902
48460 55338
43541 294
56478 13065
47634 2411
54105 11358
62185 38672
13127 44908
41540 47584
23035 26030
5404 31124
25441 42581
24267 20058
30068 62905
63886 67691
633 59750
41834 6641
60060 11024
45473 5153
19931 17597
62471 9647
7480 31308
42160 62651
39619 40727
43649 42734
46212 13227
39250 38014
42773 7213
61445 32992
10610 40074
23240 7734
27575 41439
59500 61232
31238 45675
27242 31638
2939 53787
3602 29178
14861 757
34187 13598
65009 67859
38526 21088
61711 30553
63433 68591
17591 32030
19821 51406
22526 8301
20394 45506
52231 16584
30199 36280
12400 9361
18404 98
6905 37112
33510 5422
7539 15306
47234 18855
62351 21709
14684 40481
23251 15849
38682 12283
13647 65854
41151 34203
13058 754
38934 32626
62063 67883
21998 23615
4571 12780
14792 3553
66216 61419
19799 26735
24882 44641
59290 26562
7758 66626
68400 19903
58613 6979
68281 63089
33611 4832
28329 9690
22455 4318
34523 68560
67016 3772
43487 1437
1529 25062
51413 40076
62249 9659
34441 18076
10192 25513
65037 3106
46426 17937
31591 25841
41808 47532
42461 12684
68363 42639
22468 34728
16757 19504
20708 35035
17164 8116
35136 37750
12716 62272
1298 12273
55959 33904
45489 67858
2299 24367
844 3825
42012 44209
61025 2762
59725 55538
49591 36327
51333 48584
25626 52155
55109 68686
33213 26647
2908 55687
10205 12854
3210 25430
20146 10725
63918 811
4994 21365
48479 35354
40768 64999
58560 45216
46973 12129
43369 27478
4667 4135
52570 65885
62872 36947
8125 44294
21838 45112
6471 8735
62760 21659
60509 37252
31341 48024
56602 64495
30479 67857
15611 8616
17730 11587
48639 58189
46864 41604
65174 23991
48509 62594
25315 1938
20720 61145
52905 18878
63140 37325
41418 64348
52907 16598
4744 8234
15893 64732
48879 39661
59722 2036
14103 9808
23987 46769
21003 41249
55158 18001
44846 41471
22335 56269
5734 1530
34480 52341
43839 61862
5818 19832
33880 35807
39444 59376
42283 31718
39142 65452
43143 19699
9605 64512
50266 10195
50044 26733
68736 12068
62358 9069
11782 49265
12787 31276
42168 9602
13731 13653
23025 66743
38118 52796
53061 21809
4579 66582
45621 65790
66263 28225
60372 41426
38015 30223
34373 36759
67154 45644
25876 26361
13839 38265
3042 27016
41424 26608
51791 66879
22589 17799
45755 45931
55081 51352
30202 47466
45092 39069
27581 30430
18958 4929
39025 13790
53792 23674
63778 18245
58365 46096
29052 17511
41247 3797
14892 59482
49693 20726
54077 53134
51804 9807
17802 39207
63927 32648
58347 39054
17277 13988
31733 887
63638 1427
10660 37094
31968 50315
65114 17792
11025 58599
25118 48806
27981 21425
34769 18994
20995 48887
5284 4086
4155 53425
51249 1529
42768 968
7933 6735
34323 58386
52630 38471
1411 49596
42777 18789
52731 51155
26044 1243
55027 10918
23122 9079
53724 67156
58529 34597
37522 23156
53399 47055
65181 64370
28511 53938
53190 30682
1178 35141
39135 40334
42397 32429
44943 59036
5859 7338
19429 19792
25369 37152
53007 4495
17984 35527
68152 58916
65332 25059
46989 43274
2644 43463
40128 1964
30994 47201
28965 1904
15385 39463
43861 64757
27865 64188
16330 53207
67540 3473
8313 12499
21209 29534
56722 36008
50811 16559
65261 40491
35451 49225
64299 33880
28257 2130
32362 3845
16504 27151
27187 11642
55221 19053
10151 58518
38783 19198
41305 37246
25387 38625
66823 36556
10109 57567
12313 4664
45429 56709
20230 8198
49748 49056
60084 34021
26894 42634
62542 18061
19379 24318
52342 12066
34642 14775
54299 45009
46861 52959
14966 42640
61879 68751
16533 24715
67162 10736
36141 47130
28408 55620
55162 37794
25650 16877
30538 26745
51194 65676
48129 22819
20811 67674
26456 30368
8355 21329
59717 19177
28790 6536
28757 35994
29256 30305
41917 44735
29083 1318
23742 49509
37949 2474
14893 19570
45316 67879
3008 51915
29996 53992
53993 27359
18028 26874
5947 45141
63212 27576
59245 4278
34430 25237
7263 53994
37836 60610
17748 19224
5366 35803
34423 52674
63679 27264
54225 24718
6902 51466
48113 38091
30243 30454
31590 60387
17039 38060
35172 47843
67887 10079
61239 57013
55598 48339
8034 64465
3102 30053
42879 3537
47888 3646
12190 14294
17693 35405
19853 35276
47727 5641
66948 46897
23181 153
54173 51925
61247 39928
55543 36588
62138 49374
16203 842
49246 7455
29334 32574
20417 15880
43178 25120
5850 30380
52447 24649
8369 26418
17527 65225
19057 14467
27385 11444
52961 55475
18086 62761
51318 3126
24080 36791
61501 43011
4221 2601
30785 31742
56254 42575
20752 17823
3820 57690
43102 37234
6914 61632
62557 59087
42330 44141
5850 12043
57129 613
31985 18714
294 46253
49327 5165
38294 55792
11009 54817
17653 21232
6149 36288
26766 3788
14617 65681
15403 46402
11415 11589
38819 18966
60668 33123
57530 31168
19884 49998
17323 54348
40529 12471
63360 22505
8531 5908
59922 31645
60554 65526
33548 53131
10701 29453
49139 40377
57884 28481
51081 19484
40670 64202
8107 64655
40106 59527
17291 22452
31587 23027
29082 60462
53437 30801
52809 9421
1674 58832
23399 6670
43838 38346
4075 22872
27897 39502
66251 57903
42753 64779
60227 12459
11506 35736
14290 12237
1674 1483
3725 31574
16464 56024
21802 28803
68140 39757
6285 35843
4300 58262
24923 31287
7782 56471
49177 46665
32011 36395
56502 52621
6485 12420
30996 19442
9866 35825
678 13066
30333 67323
30996 45920
13412 24873
46597 63397
5427 16140
33497 33139
26022 4080
30702 5992
9834 57854
59415 54637
14798 21315
1383 49254
56734 4842
121 20665
429 15092
57715 49178
58390 66148
40616 22197
55390 39845
28161 63417
5774 39078
14297 45538
53883 64834
44356 20200
51572 63652
10612 16478
59376 17982
24621 55159
40179 4626
20195 32106
7583 9662
23739 15399
11112 43935
68656 20126
25301 38030
18659 22509
39951 63277
20185 4860
13808 4677
33689 771
12666 22688
53389 4795
49099 27573
24270 55305
4027 57122
6933 58264
10160 28064
53014 67913
38534 26605
42128 29126
14095 30837
33430 11300
8089 59332
56293 48325
67019 29583
5791 2782
15585 48413
16709 66408
55121 4487
2592 26558
55005 2776
60500 1252
6310 55057
27568 30538
857 4678
33641 42990
44041 53572
47989 22554
47682 35929
19175 68115
60502 20779
5437 20623
28401 62328
65922 49179
50676 48349
4511 46308
20979 32035
30949 55892
43668 57199
67078 16904
33527 3402
45864 52478
36517 10392
43628 7163
25245 28352
10875 17252
66446 41374
28018 34638
41326 57109
65403 7499
5511 45260
62438 10968
3412 41468
41982 10195
37631 52609
29259 13361
8488 37342
43712 47967
50157 38474
29729 42059
43119 65454
54294 52059
40293 16510
55355 47469
35684 56537
59397 25654
51361 65816
54692 48322
14317 16807
65645 4913
46862 54339
31331 67737
42768 68668
33935 4278
44035 52725
51937 37292
41855 10611
14076 49947
54870 4936
632 42068
3495 24858
68335 41584
65141 64018
18498 61052
30060 10015
39360 52703
31333 49987
1522 25861
37937 48202
40777 67475
40112 66284
11649 22031
22500 23625
19485 63706
60653 9284
15374 62027
58850 16457
8642 28758
28392 68049
47716 68645
59763 22966
38743 13519
5335 62674
36137 46493
52160 33378
5011 996
14084 62498
26148 67402
16658 49081
39049 13184
17727 1010
28978 14654
37806 24337
42883 27061
2525 32616
21455 22576
35067 52841
46357 21274
64371 16592
7951 54124
65634 36844
5831 59790
32108 20228
1363 3636
20722 24862
49407 62756
34266 1347
10144 17568
43005 42333
22286 9251
49644 8477
11063 29189
62663 61895
63322 24805
36672 21084
1482 11910
51139 2228
31178 49615
6019 5221
16413 22409
31187 28926
16281 48844
58128 25236
40295 19063
17063 136
59630 52826
68613 27539
36621 23259
8933 27872
5313 16435
39277 66605
28768 22045
28917 60604
54587 30847
37112 44646
68255 60345
31033 47448
56691 12542
56314 10269
47534 39978
55303 32831
5983 60301
19902 26648
35454 12133
43774 23756
23761 21594
45514 40310
33088 364
10177 48375
52803 43792
14019 42812
59020 3408
51064 58883
54978 57718
4381 25564
24169 23934
44784 47924
869 20253
34907 2633
44578 47608
34498 42241
3363 44945
57264 13653
61746 30740
67683 14628
67410 28334
2338 41933
61018 47092
32181 6340
22214 51033
18390 14577
15768 67795
27194 18823
46446 37430
8122 5082
61063 15650
55968 22470
16655 49596
35988 43035
3766 9690
43700 18535
45961 15802
66764 48874
55192 66237
49165 27700
27404 61004
43553 22897
6748 8552
34550 6453
7687 49820
64391 27650
17099 33983
2118 32775
41731 31014
4183 7152
25074 49567
65786 10771
32304 55726
5432 35208
12754 42878
27200 51668
32351 37002
3348 49380
5006 44187
39675 17698
45550 68720
24889 38607
43194 41813
65594 5693
4650 42926
31899 8845
26076 50298
39400 10639
3688 4506
22483 37905
28141 3269
52369 43781
35518 9597
9955 36614
29384 23001
21592 32257
52119 49937
3413 34815
66640 29509
38776 66615
56132 35636
194 20287
62488 51181
51785 26008
64164 12688
60971 55667
47221 40291
14988 31893
27385 29140
40159 36846
43459 59532
50086 53017
42917 477
58947 38792
35096 42455
48984 11369
47515 60236
9229 56995
51003 49226
48466 54789
54200 56333
53835 24629
56646 50133
25512 43476
598 37508
68207 43476
64345 18817
65613 64058
2158 26563
51489 23059
35064 497
12715 60173
7281 22466
62931 41144
11566 6352
25520 40967
32534 50671
7961 23771
2234 48617
52826 53285
30984 56216
52751 4500
37692 25344
17843 62332
560 55972
52215 56616
64720 37433
31090 19398
57760 38717
32548 23280
16731 22134
31107 52492
52158 19011
56251 15881
44649 2000
17936 66226
17339 37476
20791 4461
48843 18437
8574 59120
25374 53144
12029 59936
21292 39433
62685 54618
68337 8081
15011 53030
65527 52819
58962 5814
61493 34492
58291 13763
21517 19468
63278 58379
15704 59410
15822 15605
27790 62262
51837 21984
21999 9040
7104 62599
9459 49776
869 50949
43946 37120
21559 26315
16662 52844
50202 21399
7867 59507
34047 42037
2461 17427
38645 60869
47017 24306
6498 68307
34905 60049
3515 18479
24776 61763
48689 10307
43444 20377
10657 11284
63588 32465
35910 12359
39200 63637
12258 66828
16804 63446
44500 10087
20680 29575
30948 60707
56856 30388
27308 55705
10978 4942
35770 29235
3200 22311
56617 52912
37392 32536
47402 68496
995 15536
24075 2033
65303 58603
14292 9089
25392 34722
19117 67936
45720 21290
50729 43374
46508 35089
21965 20802
26089 28186
15970 47263
49212 4234
48356 49045
21685 14755
26751 42453
30203 52062
2682 47993
31133 11666
55117 22748
67574 65480
9703 22958
1121 26197
49597 57279
25868 64593
55996 30116
39235 18143
28597 61695
24675 57912
21247 44626
9599 11476
8718 3284
53828 35544
3239 56090
48046 31577
19214 26169
51518 45942
47446 15757
36241 33267
60067 48179
2762 13579
49717 18468
49194 53797
59692 16074
65276 62298
65534 59467
16963 9687
53159 55303
63024 34945
25528 37006
52192 38491
48263 59360
63038 29308
14013 35334
52528 30466
9365 64249
68342 37840
64045 19380
34623 65100
56310 68433
27072 37891
68632 53054
7064 52030
19643 49786
43103 24457
20534 47238
59007 26691
31849 24652
62559 61189
29918 24872
8116 63281
68265 7804
23511 22454
58554 10942
42609 44000
55452 38745
10940 25361
42003 9850
33759 57932
68666 58019
33575 52941
55945 52045
12993 52594
4329 2771
61767 58725
47886 45465
2673 22783
23924 22018
28770 16043
35153 26357
27408 44120
32525 12140
11761 48194
11414 5259
28839 40409
43936 17563
57223 30509
55177 9844
38540 52672
15435 11900
46762 19119
51902 4815
9991 36701
5320 12476
59785 28726
54818 922
32051 36497
27074 11653
23217 41162
21463 31839
67067 32045
4694 2984
31992 67690
68291 6431
29910 44526
27406 68539
45999 17461
35525 48942
15072 49134
54042 62835
17577 50921
30418 53944
3684 64153
25106 19452
36781 49007
60944 31555
13672 30743
34381 52390
39363 63027
47368 61703
4526 8092
23638 33749
55333 30232
61154 13522
17026 458
44970 11516
22711 60420
43150 32099
43266 48474
43295 32146
38360 68333
62984 9228
66535 35724
2939 65321
13344 58229
13398 20728
7650 28797
14456 60076
21575 14280
39119 31636
21053 45854
58651 67288
34888 42462
25845 65293
51993 32063
34949 54806
36508 41937
12214 44888
46096 55815
24243 10154
23392 28804
34046 18803
13822 3652
27890 7364
5154 37102
1957 13963
3735 60854
14357 11788
59009 31849
40201 58885
43251 39158
42580 65323
1972 28160
22538 33531
11345 5837
66262 53879
35840 67700
56217 51720
25805 26793
23243 58285
55530 53898
42418 5961
19336 22178
41571 53414
61666 6925
24310 18914
8154 43019
16940 55780
61082 68388
55926 32754
15482 37214
66755 19415
6177 41003
64833 29164
40130 54031
9963 21589
64034 29234
11949 48095
64963 29653
29656 51644
29598 55702
50724 20875
13046 32249
2907 63305
16707 32413
64266 24682
15198 64975
16424 27925
53993 5167
1468 54628
26180 17353
57116 35585
64155 16623
15403 66897
11852 48840
38506 59569
33270 14043
17679 50157
16656 53740
53970 38290
67285 53813
38270 45931
66074 66331
24882 21043
8679 17050
24572 12804
1734 45944
6223 52605
38328 65201
2099 11066
22614 61015
55091 14560
19346 49315
27442 38438
12973 66382
37953 41056
12244 46908
31568 29006
13905 40097
57846 33072
1568 44967
28609 50625
52061 60542
4165 319
17365 21687
5911 51307
962 20855
33417 62056
31323 62596
734 7576
42915 65010
30184 45275
23393 22367
29999 66857
9086 30315
13286 25802
50713 26265
33234 48195
23663 68026
10565 30392
49667 47857
27425 15792
38014 2752
37800 6105
29647 16316
14274 16093
1668 3515
39438 33187
14634 48741
51204 49446
18076 44450
63988 51213
128 58795
49236 59779
4628 20868
42025 56641
46372 30867
40300 6398
39941 18896
24785 45049
27540 61927
607 46289
49617 3401
13279 34862
35293 53538
26726 48747
25300 34625
2233 4940
50733 47941
27712 3881
13764 60065
49296 42719
68288 55968
4065 26487
65347 33867
9262 36393
61753 19448
36617 19888
51057 23007
7961 25513
51381 39127
66416 8688
16028 20507
31301 53068
29323 58923
10811 3007
60221 38476
29304 28737
38315 22389
66044 13106
4849 34343
68667 23619
26381 33859
67767 65063
52194 49253
9587 55356
28501 57252
34170 8758
23535 62014
18388 19122
31710 14003
38500 51371
48891 2570
65102 35854
36976 68639
56793 40644
30481 3388
1362 63497
42657 58259
24500 25286
55861 51911
48270 15337
67291 14042
11527 58724
6037 50975
10162 5770
37609 45334
43750 38236
4176 43522
27769 12210
49905 21859
44085 25135
55358 57882
27981 46777
55284 20435
19582 8403
43000 53117
39479 49305
14036 58371
30669 33557
48258 64856
26355 10365
67344 4754
56243 55624
61500 66964
53168 29000
43145 19027
58352 55214
46496 56782
60001 41435
12435 42745
14712 2793
34494 28576
14427 51225
56976 49143
51503 4707
46519 22665
47708 30279
28995 63091
9479 62365
45240 3910
10437 18368
59811 67934
1948 5830
24551 35606
52763 44750
16305 26831
13658 9791
23019 41288
53 65509
12577 31797
57109 28447
35685 5341
7039 45796
63415 68403
37260 25557
42156 20352
9729 29199
14924 29343
28252 67559
27182 62360
11729 27781
9354 16815
48005 22867
56118 49302
32195 43085
9168 29963
21072 5181
5765 62226
54465 54575
32685 33871
55842 53367
56733 58346
23592 17348
16467 21821
11145 39409
14004 14974
17379 16752
2253 52700
17386 49202
60121 62084
48307 5772
36766 7209
37366 51062
41263 28247
1291 68702
13077 28971
60738 7906
48228 5862
53056 17808
57811 1798
51617 24959
17906 38836
52602 65168
26704 54834
23445 65652
60826 36969
61343 25947
58881 27822
2722 52007
18167 53601
24274 4604
52406 48294
68462 21963
54141 66273
13660 49825
11399 23759
32686 57271
29116 63103
65978 63079
19643 50082
8617 21378
66547 44225
50481 39352
49801 28132
40175 8260
55063 35841
14175 8444
40030 13962
54877 38130
56393 65180
23701 4395
39822 9711
47173 28785
15013 52700
55316 24844
49662 39465
39852 1039
29333 6180
47792 6392
11484 36438
6290 3806
20283 8966
44412 49223
33784 3071
2543 47845
35014 46537
46931 55324
27289 12290
51631 738
67334 60913
18846 64094
43782 36227
46466 53783
67918 2117
7988 29940
63264 53474
40618 61875
11927 33801
55819 40030
28063 50710
64811 1305
58158 54335
47358 31266
62261 62693
50712 31236
54099 5846
38200 57012
1301 30062
38691 1565
8898 40760
58187 20716
10967 20258
5422 26749
33358 43999
56676 25436
13645 4098
301 35189
22914 32972
41910 27105
53325 24567
54281 50628
44400 40675
17700 41069
44651 58552
57818 3549
50700 4059
49009 37049
26311 37492
67630 44391
35424 38604
38769 58412
65575 27693
56698 3603
18348 25876
61295 65896
47140 30946
10249 3902
10014 54347
32985 19333
29622 32327
56061 41931
5173 44648
24670 47039
29385 43052
25227 40456
35263 19976
43581 11100
4301 54336
30936 38001
64113 3109
31637 7668
37330 59085
14248 8739
38804 23177
61988 9458
66629 13947
30277 65871
53882 35342
52380 26157
38772 54136
19338 14394
33973 51025
39847 37092
67001 20965
5897 64089
42523 62791
35294 40551
2865 34878
35432 5921
11894 22232
23387 5756
14248 60129
43769 11823
23429 47889
41609 21655
59903 41407
12538 25480
68562 25366
54789 38366
48961 3579
35468 65925
13896 66746
40676 28052
55991 64062
32265 19807
43299 63084
59064 8694
23581 33702
17649 64034
55876 1054
44498 37701
10229 35836
68106 29504
60244 1332
62112 2408
66496 57312
2347 61502
1176 2606
65497 19960
62924 28947
31673 2217
56148 14175
54810 43416
35075 36651
65634 62699
40305 8375
63449 26576
54840 60011
50192 56790
9499 19626
64464 17827
115 61861
28657 65630
58412 8248
40329 32530
61634 42137
3414 33992
25935 51306
40391 61854
1262 7858
35877 49912
52887 3573
7214 45880
40689 61130
33834 25292
12416 66839
33289 26234
40759 40736
39959 34009
10298 29875
37164 49861
54994 52666
54334 7710
42639 21136
35672 16260
2035 19397
11790 1042
20642 40407
34831 65464
13353 22812
65665 32976
9435 10125
36893 50674
56742 60926
19193 15433
2007 51977
11684 27028
38364 14459
52600 10947
58421 63203
40837 46310
52302 24358
58205 38372
13642 39821
12224 39323
7406 42450
11084 53393
49714 45031
50955 14779
42669 39620
35598 17426
42926 43487
5768 55931
14208 31533
17891 10242
4224 14044
6599 17025
63265 2145
47261 46713
29659 56725
16493 7665
56163 68192
61665 22311
49327 37688
24297 17575
67063 29593
18862 20154
14761 15093
58550 21650
17009 46117
6384 61548
3463 10239
39373 25915
20921 44896
58827 38985
53471 65795
49398 51940
56193 18436
59009 45181
11579 4641
6287 35854
513 16430
13889 64991
67685 17896
9385 17081
45599 37309
2719 3704
54573 26085
53365 40859
59872 51146
14867 55711
7666 57345
29289 37064
23383 5857
20457 30951
54592 479
41193 60528
7890 25974
14582 17150
42115 25150
61441 46878
51377 59256
27247 42378
15339 11231
13049 17601
54876 14735
9412 40931
2318 55904
22561 11628
36775 23999
49152 25752
4889 46470
60009 48635
22030 62069
55147 41241
68817 58564
12811 34250
38322 3035
23600 53659
9870 59798
29631 9527
41597 31753
9803 1375
51115 166
47740 54504
47773 41143
41906 64979
2536 13574
16437 29732
632 4792
35835 49823
63398 10185
24877 45855
51601 409
3347 16987
31521 56159
58657 1243
23780 11806
41052 62320
244 32248
27532 12960
66418 14507
66721 2523
12046 25266
8147 26570
2857 21160
25082 39327
12835 18479
57404 6899
44927 59423
35104 20868
9252 20359
32906 63875
14490 30278
13107 50479
36146 39342
51542 56448
3170 62428
4875 59961
61095 55177
36774 39931
53843 26015
270 19656
42846 31827
39003 56074
61294 4202
37828 10210
47860 45699
32286 16113
53721 28116
2334 116
47286 29357
47466 10997
31491 15542
26767 7527
10142 40781
64168 39988
17298 41381
18256 47971
15410 66769
30303 30240
55529 54631
8399 13706
18641 8092
67127 3600
52263 4882
4638 54177
61811 56151
3598 7474
10797 53644
62632 39323
45447 35274
34522 41822
53523 37184
33886 9787
53991 10873
37704 62230
23321 27863
9014 42615
68387 27119
48550 602
17258 12329
21481 5997
32513 61306
1335 26133
47568 2667
55154 61541
51086 26632
48900 26454
4178 3101
28967 32550
27240 40526
30700 52090
60859 52712
16127 35117
54988 8947
28149 47624
13273 62975
43945 44720
4838 54617
61012 130
47340 18882
62141 6503
61140 42199
31226 54833
526 28065
47662 2224
21889 41586
19251 50061
62803 57655
19634 22618
51321 14248
47804 15841
53913 3686
46535 19981
59731 15671
10666 20867
27712 61674
17534 58998
38803 1
27162 38758
39282 16287
38076 21070
48095 62716
48351 18183
61101 42725
2855 10390
6395 19766
65902 35141
67193 34684
13583 12749
48216 13989
27452 921
14692 30024
53910 24356
18271 33496
14417 11713
11664 7249
68630 60984
23632 24703
54704 3607
3848 49759
33641 51314
49400 51215
64527 67523
10282 28443
55955 53528
55373 55185
37323 11480
3840 64186
37851 41234
37968 58808
39054 58742
24312 65125
35178 23262
43878 62499
34900 38722
61583 5555
66853 48212
9224 41530
67446 67829
65002 55615
4840 66459
27366 44496
51952 59166
28253 65150
27491 67602
20139 16677
34356 40394
2253 63605
32674 58286
51574 37284
13458 9832
20085 52947
14648 11546
31426 5166
7438 39618
32869 43091
60558 48634
57355 58825
529 4982
49989 56552
50853 59343
29781 16719
40623 59557
50395 63529
40773 32278
66520 53641
22604 15876
64148 58905
48630 46691
43288 53482
42745 13392
12450 47354
67258 41619
6675 18869
11045 25675
36186 41
24155 5046
42586 40357
46595 62287
21671 39772
42303 20239
57891 60672
9983 24563
58400 1344
42621 55754
481 49538
44454 27041
29259 11907
66386 63383
11647 12394
46023 48018
61801 19371
22357 35409
29121 66518
30366 36666
20692 7278
1360 2549
36434 33905
68796 51081
17845 56126
10791 54805
54707 39143
62750 43813
42814 58403
14974 65431
45904 43011
56624 6524
4667 38510
59956 10639
41355 63287
46072 1892
7776 15321
40940 15794
5511 31281
44791 9344
32975 52402
40760 6857
42457 12509
4291 19184
38211 15860
47468 11327
63368 58691
40579 24466
53003 22289
28948 1542
9230 7546
37031 498
22625 154
29366 56921
66859 3941
37861 67151
48599 19300
65295 532
58227 51638
3331 889
28281 50596
56431 17722
13258 24885
12313 58896
28293 49601
46237 54242
43446 34690
8681 1812
41292 64717
49215 13028
38232 14234
31904 34635
51311 28226
64435 27365
22360 41891
1493 42532
59114 4564
63067 55949
66510 11286
53359 11977
25157 31658
14536 55893
39155 8321
22319 61132
17971 13615
2497 31231
35143 42390
6711 44886
36808 35698
48487 60529
5937 31104
61218 50663
2525 30069
38417 34738
1375 46143
11858 4739
63754 64344
12390 50665
13607 18516
10258 20664
35276 56552
10188 59346
35330 68082
38583 32458
47414 39276
61370 54967
65728 48322
59879 11247
6859 28536
58358 4729
19791 273
20118 48446
25600 58031
4606 61491
21695 65548
39644 21738
21810 49780
33102 42570
13642 310
59768 27076
43988 46320
27242 49022
33002 28599
54804 57154
24609 17692
58579 29641
25409 39501
58967 24252
14658 10796
962 59216
53123 24125
32939 21611
55226 3039
45891 39958
25555 12792
58568 11092
11189 19456
34307 8499
15439 43999
52184 25097
11957 57958
23298 17776
12647 57905
383 46610
16251 54242
3179 60819
46697 43536
37762 68188
41898 23832
27528 68647
50961 53274
62931 21265
33457 64164
31323 49471
56681 20804
42098 25367
10773 59594
42572 22709
48753 53173
15124 40757
9500 30252
47398 4923
15299 46097
40505 28350
65551 11965
21723 7017
29670 65632
15270 1244
14833 55138
22240 48596
42011 42620
501 24684
57090 12865
52916 10650
61926 53099
46119 6939
56042 55905
18878 18790
35051 28433
24190 57604
43894 7307
31182 24652
26590 875
49802 50071
68688 35052
65707 36923
63525 5734
841 30785
60115 31781
17921 65146
67916 26082
33944 58767
67630 17701
50308 39618
66868 39149
57646 26669
18779 10612
31684 2057
49859 8790
5994 32451
47373 59361
7371 43597
8254 28881
65141 50837
65322 60104
52080 46197
38978 28196
27862 52719
35277 50878
4429 35370
62015 56249
5865 12283
35004 66620
36439 16539
53314 3130
58192 33228
22118 36992
16620 12410
25264 47086
67647 24707
20103 51517
15074 13413
49521 16505
47471 43002
16546 39540
5155 52421
66764 36979
43913 28784
30440 56203
16310 5470
68429 23244
25802 2336
68451 30405
54156 13626
33119 63437
56218 62133
61122 39302
12418 63227
27329 15116
65915 36913
41402 49387
66661 31141
38981 26417
43643 63895
32171 65223
42123 60153
46617 26785
33667 21096
19926 52964
50419 49897
31217 58155
12934 39687
6610 6762
54667 5589
46091 30468
33797 68361
51517 49782
47742 54261
22596 18397
60325 28185
2476 47916
49892 65290
12311 32943
31310 46754
16344 67202
62746 27196
63718 27217
59712 18125
3230 24635
36029 53131
4305 2456
34517 12479
61774 65140
10950 52101
66616 24659
56659 62966
25926 5507
44050 28269
57790 2333
8457 63411
62166 18006
35826 5741
52757 30442
43026 45568
2839 14332
14472 9283
61868 62768
33990 68438
58705 46872
17740 43514
30840 40364
16867 37173
10124 66541
29048 33288
61193 58854
30847 20195
55685 42212
6834 40400
49838 27311
19446 25577
64405 16248
26834 49849
24150 27732
48118 4114
7586 35292
51901 53652
48959 1662
67163 52551
64014 665
54952 22333
57502 16481
60896 3228
3994 46565
16749 36579
45228 20915
16703 20592
2772 61269
4405 23217
8156 50346
10827 25770
16018 27273
12780 58686
46841 22681
38056 54349
35687 41840
46697 20963
38511 23895
15277 34660
243 53431
3447 22292
25380 31902
34059 19652
4054 58103
33037 38575
43346 22054
14470 29671
40298 40948
41146 67883
5591 14623
54650 67937
52909 30206
35122 29678
55769 54618
59529 45237
64429 12087
54685 21910
62848 21585
45736 40765
65884 17467
52347 56078
29851 40518
54205 2522
9906 56235
53706 67436
44354 60695
48607 27486
3857 33966
16863 32665
62764 5828
43499 55923
22076 32061
53939 10849
36616 59172
19236 14274
28827 40426
9264 29466
47363 39235
1293 33948
27081 62760
20618 31457
36512 61007
68135 30323
2607 33438
46342 64629
15785 58067
16061 4914
39531 45991
44553 508
33734 13526
42456 50137
50008 62744
20958 60580
14692 7832
46160 59057
29665 1493
8154 36521
64918 66167
21432 28408
45045 4626
67188 64570
43871 27665
16593 49032
16034 62001
12224 61733
54235 11884
23218 18798
33702 23836
31465 29593
57576 1125
38589 57656
40153 30360
37749 29617
154 9568
59332 62921
28283 40336
6193 54187
61623 55178
16468 42698
39477 41566
38827 58559
12075 21985
64233 31806
12364 35024
47230 37928
40677 17023
32193 38657
57205 57557
10224 13115
11562 13757
58203 19307
9321 5199
59304 61563
28665 19093
36652 67465
40025 45342
57915 39621
66055 720
3891 26857
25147 40574
57678 16666
34294 28099
32185 64020
10051 15821
9233 12602
8643 63109
26172 55949
61260 54608
42090 44154
12929 53221
58250 44493
51943 23760
8348 24393
50917 66820
30712 9155
43140 33407
50084 45317
19630 37819
64503 41845
44085 40092
60571 44698
46667 56515
53466 11862
12650 28361
40080 13880
23816 28729
41194 43960
12433 11698
19653 45986
6015 33598
1316 56487
63455 46492
57701 31578
55563 4741
14078 64350
36996 2247
19250 39318
57548 26858
8380 50219
49488 20766
2178 3585
43163 3353
66965 33284
13507 12145
44151 54119
27403 17833
193 40785
22260 41734
26915 67167
28679 15733
64667 35090
42671 33943
62880 6111
103 65449
9650 50633
27576 18893
49241 61220
40449 37646
28373 66655
15240 51661
9087 20221
19975 12431
58581 46465
57546 48830
25048 27741
66172 35101
41614 45318
17068 37033
39082 15280
5235 40024
66012 24658
60660 3903
40953 60538
27750 50895
27810 61935
60122 53440
45127 61183
30521 33145
20904 30197
8845 2104
40177 38548
64093 3033
34057 46391
46736 12442
66983 25711
11679 7586
57175 16609
43764 27336
45992 25939
23523 49889
66028 61138
65817 66286
33685 9019
13313 52736
38664 16315
1834 25431
59107 12395
63226 55447
7452 41806
4703 56344
33646 15618
57231 15260
3471 13844
15031 23637
59802 41735
68450 50075
30295 61192
54688 18548
12216 13490
57205 54431
65407 2875
59155 3443
29533 20165
56227 64750
5188 148
14602 41502
10036 66979
37339 21653
9693 3519
66527 53589
15401 59373
21 6053
67627 41601
39579 39311
67851 35759
34959 33071
33224 8698
26128 54825
44174 43080
44930 18666
5955 23772
59325 7419
1448 36771
9151 12746
9248 44553
19857 11215
65839 18549
53177 26668
3583 68137
49355 61494
10676 29460
52210 16565
27786 55194
55929 57227
20220 61199
45282 13405
46038 14360
37462 10758
34413 241
37129 2167
67079 13681
23799 62073
48903 8998
50213 11994
60054 14998
22949 8207
52500 441
38400 36363
17249 20480
14048 10179
61974 59741
18193 7183
41169 26748
6587 25734
23788 42042
1732 52080
18716 61830
48360 9922
1136 66115
1772 43896
56042 60092
68496 31783
49484 42340
7023 36618
24361 18572
7080 54961
35629 23761
3627 25898
51816 55886
40852 61348
48771 37698
10212 51262
66283 47879
50027 117
36958 15751
58540 30396
20448 50630
19671 28669
58981 60258
26170 57489
39056 44000
15331 26045
56223 66331
38767 48965
42756 32021
200 49395
7183 31764
37347 32020
61613 59518
54122 22901
25872 13140
12435 67477
33692 858
22233 61423
19878 54619
61722 32313
13462 62897
40789 64403
28487 30188
45396 34648
14791 45633
31588 36080
29691 61073
36965 13034
25868 55980
68699 55568
59378 15677
43615 55120
61431 11284
50255 32519
23791 35726
29361 36938
24619 11822
62525 26150
21510 28869
21556 55524
26561 16019
67624 61797
39584 11715
16696 32627
18658 23103
62049 14345
11718 54781
3416 20047
17889 48288
3903 2894
65389 15144
29354 53694
12011 7843
58945 64353
41376 30901
2794 57770
43584 46266
7079 45082
57228 38913
65742 39757
9763 47780
50780 11944
6760 37892
15916 17914
32542 51704
21138 30879
63506 20223
26624 7171
61934 16777
7702 12390
9334 14607
9528 57768
49990 25838
32478 35864
35020 51960
48686 65970
40755 38360
61914 13627
35602 24775
43755 10151
2831 56051
37686 63522
56659 17317
68673 57050
44291 31772
2465 15793
43332 22646
3953 12235
21391 9578
58974 47465
44232 55217
41214 20098
21712 7472
46382 56505
56260 18260
62134 28725
15570 44267
49771 6139
23854 44519
12085 51779
67605 48931
42357 36910
8476 5045
40027 18496
17574 1244
48136 41088
31950 52217
35572 56437
3377 61827
2113 31957
16708 11010
31069 53277
50587 21531
8056 52033
58402 51707
29574 66686
56049 545
68553 62430
15654 19687
17765 26078
67662 49556
39358 33181
59959 58446
53806 16518
7092 40636
24612 63394
47565 17856
64838 15646
6340 53158
9040 20974
62480 762
67343 51199
47045 62582
3129 38951
42190 19967
9625 44335
64276 19913
17092 33177
47920 41309
66371 63994
27585 6989
62096 60953
39484 53937
46759 31550
60760 29598
1432 54279
7176 62179
56421 42133
52289 38082
13255 3612
60000 22175
13039 6879
54840 19036
54416 10565
21018 39338
55629 52340
18076 42858
45357 7177
57089 25994
20807 16721
57429 9342
33739 57005
20854 9050
59630 68546
50089 66093
67991 35604
19860 19048
28405 21669
48406 41590
68670 29210
28420 3395
53288 26237
48668 63225
11520 54004
37545 10518
50263 15076
22358 66974
41426 33191
12007 66013
11752 23576
28471 33152
26234 27001
28368 21364
41955 20245
64880 35686
42628 45484
63636 3773
41830 43820
51482 452
28537 7171
13288 6360
65892 36166
6123 65288
22859 10878
32611 722
7936 68033
26814 62131
15121 24234
32041 55896
11061 202
3963 42037
34534 56420
64206 7333
66783 3768
6601 58791
15512 39280
5704 24196
53772 2216
50678 6716
35063 20170
35708 10259
5172 58524
45116 53815
65975 27458
46446 56175
16386 6394
66774 20970
7660 66173
2366 30019
22013 12880
11369 38088
59002 37158
6901 13480
39626 55675
46440 51059
62339 5507
1714 48549
53565 3749
29888 25627
33212 23469
23267 32541
61059 20193
51142 64218
25561 39473
59144 47520
38387 15402
26769 17335
22892 12822
59008 24509
32150 27687
41065 58395
13856 33256
50748 51793
23471 34159
60148 36483
42284 48678
37251 34792
2852 14961
55406 20161
15582 16494
14921 54022
20373 38644
43658 51929
4138 28592
26187 14369
42650 9632
11143 59767
987 30808
68421 47284
31294 7009
36582 7091
28154 50976
16538 25064
66668 8021
13673 9684
30785 7823
17518 63203
43306 18559
62190 11623
10512 56595
53347 53681
5569 45408
8721 678
11660 11926
55081 6548
27099 20659
42862 47562
2445 31860
25907 51460
47073 28656
55633 5513
32584 59021
54452 30407
21221 25838
38063 8090
63115 14327
66693 42382
49782 4197
32021 15709
22701 32598
28038 42021
54588 55595
39611 48556
34528 15055
24240 31851
7435 58545
26965 29687
59135 57154
54880 46432
25805 54677
36393 64323
19736 13440
18883 65457
16960 33561
48581 11398
33484 9888
15292 14276
56966 13634
65460 48016
55600 23147
42832 17554
1037 32494
26577 13109
31883 34792
48427 2738
20359 35453
34161 26830
5713 13346
47047 1221
36709 43111
41798 40550
38300 24865
31980 55936
68463 59550
13964 54331
64849 40674
41920 24941
58393 39812
29318 64980
1295 19038
61370 30028
7989 56966
21453 50384
45534 10966
34078 35778
42102 3701
16406 38795
19225 65831
35942 8250
27772 48026
1786 68640
32121 6796
21426 32854
22628 46482
1533 23614
58902 48989
22639 29895
26806 19697
53575 44951
18946 45136
20099 26829
28258 35632
5286 47001
56140 84
30079 24439
6036 29017
3433 45473
31917 62148
28938 49929
19673 5446
1415 10908
7869 49660
10886 47989
65137 969
38658 9253
37454 39285
22550 26585
25282 68683
45235 64963
62103 56583
64589 23909
49664 30820
28147 59080
64946 52709
28408 61277
13576 11611
55012 51170
35394 68151
62234 8701
33633 558
23864 58449
3018 11459
26903 41881
56412 60731
63993 17679
45634 58335
47223 53460
18321 40202
39283 38468
63979 24346
42305 31265
25375 46136
55835 53853
36779 24321
12532 47601
62256 3973
24118 64556
62271 18825
36227 24582
5614 10949
51223 15786
32795 45777
27083 6301
9821 64910
37388 16269
45559 30647
64352 58876
63501 12523
30549 65746
23235 40145
41158 47826
4021 34075
20515 44182
10406 27262
55468 25365
53673 40325
45741 50527
53075 52904
10858 41000
17015 50722
67223 57194
2150 55891
18062 11366
46177 14865
24818 36396
17512 34765
20437 31591
52527 638
34301 62280
40325 21455
50124 65516
48481 23644
46745 22115
60813 729
16820 41073
57614 51158
55508 31602
63854 37514
58416 51719
11866 10759
20174 34908
58023 31952
44108 15702
50351 41328
19577 30749
22585 61126
55966 30006
9680 29090
36924 20706
58714 57848
224 10452
66131 17852
27834 27828
45305 30135
57758 20939
50828 17602
35324 29216
21765 17813
59106 8918
30719 29882
54967 47129
56761 28902
26571 57156
52795 55375
65483 38587
40515 23124
29174 42331
62060 34155
60366 24178
39553 45145
62922 19523
9010 4810
63310 21203
28017 34659
57884 32257
5077 41794
49588 34802
51953 63794
27187 47194
17469 19062
58033 29176
969 67935
31385 22386
30370 67917
37739 66621
7174 28624
56048 62494
39254 12585
16569 67003
15263 61114
52755 41795
62691 13154
38217 56934
27399 9954
57258 37884
31522 54374
14614 52276
28626 6262
57369 62404
37886 135
43931 39246
13683 9753
33799 63643
65129 17674
40924 34410
67916 10300
50135 35182
67371 26614
34826 61400
33318 23948
57516 2180
58414 19647
14462 7290
48981 61649
29755 8972
38862 41253
33039 13003
63947 41489
19516 4816
32481 68208
30593 22720
42655 42272
65591 1033
22203 40225
41993 24464
51709 19086
40489 27983
20103 68096
37503 38891
66877 48861
29433 27131
29908 25905
41801 53378
5504 38991
44522 28499
47613 4370
20265 40339
24568 59675
9203 51555
28861 48457
15136 67760
45119 29189
53505 12517
2982 44627
28543 59621
26115 20610
63989 11821
29208 68740
29360 56752
7232 52778
53874 22159
22562 10568
20066 6618
4161 46011
7189 45583
25651 24246
27824 64659
25645 55942
25588 5693
25489 26576
54499 59537
141 14768
11124 33230
64491 26906
49184 62773
52252 64497
45816 33630
14225 29567
52512 20080
1936 18584
66401 60259
38237 22724
1888 52499
28730 25364
18558 22133
61449 45116
17621 28082
47253 50687
15829 60857
15880 38568
27107 57196
1257 67843
49695 60776
42869 46584
13782 10100
63585 51541
44985 67328
32306 19204
19932 45705
858 29059
43470 26712
18401 46
20688 26430
47530 6273
32690 31409
64529 62200
50448 42812
23939 2686
20940 10875
54885 34695
10755 26384
8175 63118
7684 26404
66937 51432
27696 10161
55926 65083
38064 63798
34163 44662
34619 35048
67403 43794
60236 39674
29886 8376
13207 29687
64357 26908
48124 52092
27855 42359
58175 8446
3895 29695
57674 54336
48500 48184
20595 1372
62543 32430
41579 60783
41778 9409
59650 46548
34760 9949
15224 61820
59485 66384
53625 65052
23738 2025
63123 47372
54994 56719
14349 53686
33265 16775
27231 51084
15846 43423
36479 46326
27172 13270
58101 41234
9202 34429
58810 290
57014 10002
19494 990
58294 21240
67738 33450
65810 15030
22799 42627
10828 59687
34342 12262
38538 33700
35050 29844
16213 45670
49160 54798
41618 47682
62713 49119
14461 910
12761 30299
59226 32425
13476 41566
57831 7079
1777 13323
48438 63621
24793 38939
27551 10348
927 26953
13967 57830
26335 36903
9560 19860
60616 35175
61935 38687
30972 10304
23609 52352
22645 6072
20894 67556
18604 36768
56056 9213
23165 19068
30850 35156
16185 17725
40915 3756
64630 51823
60580 22228
25598 29009
62793 33923
43380 34913
52037 67947
36485 13369
48556 42600
4717 33328
256 447
48375 50317
1690 61635
43477 34091
23919 64317
13537 50453
22964 57803
39906 4672
36881 33858
63690 45107
7523 34615
53720 63907
2397 50902
25602 29433
55303 64009
47964 27621
14764 68380
17654 49533
26982 12992
52868 41013
24456 16452
39005 26725
46253 48808
18285 5661
8007 860
58664 61304
9056 52151
68276 34870
8291 48019
35381 6347
44315 3301
49744 14873
35259 3619
13910 16400
57993 66345
61537 56710
65822 44662
43967 50106
1382 47875
3067 64495
46881 57338
28473 62023
14923 40031
57483 27006
4163 48893
39752 45190
3110 6949
20034 55788
10261 21310
44764 67013
20820 33237
49970 32818
3429 3452
48358 36320
58754 26074
53128 66783
56315 59356
40806 53704
47409 58276
43960 29446
8726 48034
48583 34844
24392 24031
60194 55553
25018 10507
37505 61184
44575 7628
5637 4347
4970 58276
10608 9551
52186 10495
60894 1373
20107 28085
67289 32626
39241 27525
51952 61369
53868 64486
6418 47118
57185 24987
27505 40399
2995 2138
6643 64858
48928 931
51407 20405
3589 53013
5281 68471
56861 33604
34529 42757
39426 15854
57238 23846
41746 9469
30620 15712
60697 16321
29596 34861
23336 41093
46924 8575
55174 68193
62698 58925
26427 14592
34353 68752
59816 20592
54784 58024
56727 5507
15682 57982
25602 36654
45375 4036
22036 16845
48996 16742
15330 3386
3278 56977
2335 50149
9792 910
32084 48592
32257 601
15674 21780
48462 12444
37990 18281
66111 63163
67590 17912
12053 38366
36151 50664
9157 52654
41661 5846
40648 65600
43684 50499
41905 14558
8758 8350
1722 21450
31418 43872
39256 58785
38909 17417
23606 11162
51777 34032
27000 45308
27348 19895
27059 38958
9329 33490
68243 46679
44911 4503
38460 20527
66052 11840
43118 43442
54928 24244
4519 60058
16125 47239
17681 23634
2877 47588
36423 34723
18023 27437
59064 41015
14580 42287
19299 19865
52688 66554
35259 42794
9173 2788
62193 692
55833 5509
63214 45710
2609 20804
10528 15391
53221 31960
35575 26048
65647 65770
17495 50583
31578 17514
18642 5754
2577 52118
45715 10498
54537 16748
33848 40379
36549 38947
43035 40834
46870 24387
36586 61912
2701 53634
52985 29470
52045 29677
54718 65932
53097 7597
14334 3104
3647 55708
46080 33253
34715 59489
10005 59712
47426 16664
5508 29375
9057 47821
33673 405
13106 53124
3742 47299
42662 49861
62393 45580
46874 49565
57643 64151
29528 7635
4025 53853
32409 39000
66181 52940
52778 1060
35815 41632
24061 32637
16438 9393
63325 67453
45637 38957
12086 51012
62045 8890
22801 59134
14463 58364
58066 65058
63956 60477
26408 38370
21212 1583
12205 45664
2402 48072
33401 43211
59365 42889
68756 34674
11043 32899
55312 25036
48748 9852
36471 35837
2437 67131
2870 30101
53108 59137
59757 66269
16131 56911
10677 52495
26986 32069
9452 60982
23481 13356
65875 27906
24300 39231
35439 40609
60867 44862
16189 1661
2084 31446
18530 44759
14173 19719
42560 32248
19962 42468
33005 16312
30672 1065
47257 24790
38685 21480
371 4723
47257 5452
63468 4930
43340 41394
2685 12172
64390 37646
64737 36492
49654 26643
49997 57930
19079 3151
51373 20085
6098 57419
29833 3909
63049 44651
62654 46181
1943 23172
42929 56530
22204 17117
48685 35177
27775 3412
42104 58602
15701 16554
31948 14055
36019 16782
9543 32563
55744 27472
4471 25262
37925 44147
50991 27288
23851 37037
18869 56886
14298 31116
11635 52890
2057 49973
20579 51536
11608 1193
57784 1636
43294 38365
32874 63082
14848 10973
62320 40699
20491 30439
23975 67357
62116 51229
47494 18088
27750 31127
17030 46160
44817 58704
33352 52548
43935 4614
30432 53014
68783 16585
3854 60563
37282 31312
25388 63889
44204 8699
18751 26587
10982 32352
20901 60290
49581 34662
10016 34742
48721 29956
20911 29329
37224 68220
18193 48679
38363 58928
41948 56583
58991 4530
59057 64769
38628 34969
55423 9820
62907 68357
46629 33013
33589 46626
22436 57927
22561 24267
50844 17146
55096 55835
8110 49919
12918 18222
44029 51755
18090 1698
14292 50936
64394 33964
42811 19532
31237 67116
45736 40873
12040 27812
64480 22631
17442 41553
6921 65850
46221 29254
21361 1839
39964 30290
61831 55864
61398 7085
8413 40164
54173 5577
14626 66346
27899 58836
32120 63726
62652 22329
68304 7320
19971 47538
20574 30236
653 12057
20351 57466
4551 15654
20649 60406
39556 67357
63817 48711
41735 66337
169 30025
12727 37122
21990 27987
29563 33793
11314 14273
21554 60396
9043 26160
67479 19758
40735 62700
44861 56495
33420 58088
2986 55463
13251 27955
7273 26471
10431 58447
55729 43054
23166 31745
10113 41050
47807 27784
13473 4677
63843 18384
16670 16233
61353 36137
45958 52915
47523 57264
8663 32144
649 13015
51036 25667
25455 39593
54122 28585
62427 26626
34033 6620
30443 67401
24236 66549
34936 48162
30963 20698
26635 3419
43127 66856
53683 42151
40208 8200
14364 31205
61782 43729
9522 18128
10 58913
42822 26958
8073 28508
18499 65707
33975 55371
15293 49077
46672 23618
5220 5895
26067 58201
51699 57508
61442 15407
53364 16597
65374 54980
1191 38733
6492 1857
41134 10662
60458 63995
37973 53551
67746 26724
8314 24783
8662 59413
48425 52183
66928 57781
23821 68470
62306 39980
37022 53422
5936 1896
47127 50818
31675 32939
15023 16279
18676 27014
28429 30941
44665 34214
38126 40841
24947 10343
32434 54522
20933 48171
9286 48112
58618 35208
10619 29040
20188 29335
26754 43191
975 46733
25069 43254
32478 27699
3214 28907
64194 37790
53497 27797
29772 15231
10604 12806
1790 13887
56173 16771
37214 65907
1805 17594
57480 37287
35061 22200
6437 19543
15774 52526
26168 48531
33468 16077
16801 22151
8943 65988
13650 68054
6758 30613
64064 66873
65203 31552
48987 41591
24880 26540
14203 18274
2941 48526
40973 21090
8114 53765
33359 55041
37561 14368
5750 2015
38620 63252
67224 51279
54780 36737
39111 35836
63026 58031
49039 13033
8268 25160
66771 38008
49133 25247
27103 37182
16001 1938
17136 65304
30058 21022
38139 740
16865 67390
11613 21592
28969 26676
58434 19138
40634 63482
6310 36433
32981 37082
66015 67689
57683 1852
4101 26864
62839 46002
24609 42576
18567 35166
50809 11635
68135 9061
4505 8745
5623 8028
22376 57006
23575 43316
28719 35860
18115 10005
55496 54500
331 22883
21105 37931
66079 22480
57081 57504
14917 64714
59092 9079
26593 910
67485 31227
55143 12594
3033 48140
16646 66963
14875 62273
1995 59446
61388 11876
39892 27476
5576 29024
44164 10348
18531 34296
15400 58418
59944 35428
15088 25848
7541 38403
47725 62314
62626 55202
19176 2439
25898 29013
65078 23575
40520 68518
22057 52464
48487 49643
21880 68604
30958 62999
15143 709
28060 26702
47781 33260
15249 68464
34030 49211
53835 32994
2325 5213
46471 21126
61595 58472
57169 43022
45812 5506
9390 57979
25586 62758
58775 56383
5984 44382
51289 12722
17304 10780
35429 35947
22170 30384
68550 22922
27802 39798
40855 59128
3316 39551
5538 49572
9776 11848
29508 64767
14501 40002
56854 32693
11526 30021
33216 32141
9318 66044
32997 37521
34477 53699
49033 36483
66792 59576
29030 42630
23134 62157
21402 10723
23858 2313
65265 68427
7497 20717
37432 6726
37172 42932
26701 3807
49666 31073
56068 21573
12925 57533
14198 23575
49227 68405
41813 29475
30910 49221
2772 44403
20016 65116
6835 9600
42300 9062
54002 47973
20228 1808
39624 38924
19160 229
42224 49125
2588 30479
67621 29594
66099 365
15873 4279
32934 24475
14793 22249
5859 15386
18120 39074
41990 42895
36897 22090
39764 61994
5268 50940
36857 32496
26903 3364
34171 64071
3656 25387
62131 35671
42358 12419
67158 22931
51903 54334
35646 42630
40273 35832
20668 41577
31599 15265
60551 23596
48498 28619
6054 5227
48872 10721
34196 48293
52848 52962
4455 8254
67552 64377
38918 61091
59938 32439
52934 2690
62290 64770
17571 31281
35784 66854
66135 9900
8135 44371
67003 51609
2258 49292
12417 36558
39194 30592
8060 39922
52792 25894
8099 28318
19661 23862
28575 44670
66641 58063
66805 30930
22449 33206
66372 39459
42535 24065
8387 66860
25944 50537
11386 42297
38958 17678
11184 45506
41336 45916
50985 8554
62533 20250
48170 7105
65938 34083
30179 65239
65558 58768
14038 13025
23451 15506
32330 19485
58780 18072
28636 47388
68279 44567
44471 65567
62340 3104
4248 35316
13497 47552
17686 25177
33535 19638
4206 29029
15599 40887
42382 51408
19667 3270
7624 24513
52513 32262
7663 54919
24875 18875
20138 19543
13775 4039
49142 34684
6793 65719
61030 17226
13420 59697
65019 31989
58065 33693
32564 50784
13752 46109
4571 60105
6271 66719
67628 27583
653 41886
57537 38321
52761 3265
65568 48946
44302 35042
15593 31203
1513 19232
68711 19560
58711 55814
1413 57399
64136 34842
47072 64634
25421 6823
24729 39737
55167 20101
24477 13577
16866 14344
15269 18196
12959 22411
29971 64550
52946 1098
27718 8219
32045 36853
10909 44519
21693 34202
17959 57814
43053 20154
24168 19307
28973 55098
14636 7556
35972 22597
12595 49778
26657 45210
14753 19360
50931 24897
32472 25599
27330 68545
5884 28307
32441 3942
24200 11113
1846 63615
44750 58273
40784 41778
48659 43575
33213 57364
46431 49590
50929 13202
55402 47881
55273 33755
10214 6148
2885 1463
2709 62449
62754 10369
9025 3547
42852 12730
64173 29904
54011 27132
38408 25446
62304 17951
31809 61059
23498 29870
28735 64498
30109 18155
50399 53160
32844 565
23201 65527
38092 4304
15677 50730
13679 43597
27470 61422
2052 17866
24383 49282
11487 3290
62715 15412
13630 10561
1129 28791
43174 44997
36866 7180
2155 25047
24382 47309
19552 64325
52906 41432
2514 53976
32195 26185
38424 14390
56679 22233
50430 37208
59302 15594
19240 10361
3171 48521
67764 52655
38791 24544
19107 47149
16223 63682
26109 66480
54599 46028
60598 616
68577 9867
16303 37776
48150 56350
12323 2671
16306 22152
16398 27455
26918 39315
5957 27548
3657 57524
23841 1733
9311 46115
67857 23918
16232 37620
66894 49705
61225 60045
29908 50300
67389 64526
61736 63522
13268 59205
35047 52313
37012 19115
1178 67054
65473 37821
14265 10344
20526 5534
8354 22252
18435 48743
931 34379
54189 43202
44351 62905
31559 5733
43649 68371
48277 24
49501 36561
21693 65448
22991 9910
11802 6156
58897 49112
36372 49292
24661 10173
26664 43648
15431 32988
31304 17538
38997 36040
32023 13975
35117 57334
47809 1504
22518 63419
16532 44557
4437 8037
10088 62577
64487 49051
67373 13391
52682 16268
28969 43929
29224 65013
56140 60953
2832 32301
54325 2355
28485 45580
24225 68308
46178 16947
9923 5833
15340 31878
49410 15763
34170 6482
4291 33580
6047 68574
9452 4058
5578 48781
51533 29829
30878 5373
64952 63689
43296 46944
32622 25441
19970 17859
4060 42064
31882 55474
5803 972
50354 8950
17754 68713
6147 12522
53931 47493
4173 9579
57378 54751
14542 32798
44069 22825
40589 66352
5722 45814
39332 51698
11659 12417
23807 33197
2329 37477
40845 2724
3122 60030
37735 24589
25886 54144
23542 53773
55905 41293
11357 65551
9864 35108
17235 19453
2689 10322
52701 46885
39531 23227
30742 54411
62218 59634
68509 42683
63097 24932
20796 5275
34462 280
23192 49562
29614 4861
46602 27463
15552 65955
52282 66262
41351 9576
33735 65170
47074 1551
49400 50023
50224 50328
14613 6160
35329 2254
68439 25504
20174 39654
5162 49752
30403 5442
12182 56154
31721 30734
40149 3981
61703 21849
5064 41187
64369 20327
29507 36868
3059 55414
57033 39029
38793 9640
29464 6386
18722 30701
29661 11472
36590 30049
14717 51285
30533 15
54205 68370
59689 35967
57906 46131
20226 55987
36110 28587
21538 46694
21384 55708
33235 15067
17715 10466
37197 62545
17961 33864
10178 64385
53135 1134
33811 42595
47615 34255
13085 2227
51394 4715
54303 57776
65550 36224
65031 53464
42910 55181
47951 8927
32907 2314
19901 60039
47543 5798
40327 16623
9434 15931
66710 31037
67382 17925
41947 37959
31986 55287
46071 8072
57187 41170
5245 18197
33325 11193
8790 5465
22381 28595
34038 15861
44081 38143
64562 16382
14918 1108
12616 44651
2103 43338
23953 39399
23800 27449
51477 60741
62130 55830
13248 50360
50511 46957
3325 25798
33698 41200
68615 35289
19082 44385
29862 13108
23046 41886
37270 478
29330 8331
56983 59244
59066 37961
66993 26494
31872 68379
63282 50916
37599 2790
23842 22577
27777 62448
9980 36333
50889 26248
55355 21115
12684 8361
67335 16231
65576 4402
45938 32959
11815 42009
1884 10639
14028 61901
54776 33735
39429 63690
58001 61192
33747 44120
57960 335
8071 25415
40710 12166
49591 31622
32955 18389
59002 26939
46172 15284
47006 44669
2963 36163
39010 21615
42989 6870
67924 65738
42145 48560
8772 5401
28059 64315
56839 47512
47129 8277
4395 26233
40489 50673
17417 48916
60456 19541
21213 20723
66826 64576
14631 39605
9147 19709
5294 54379
4473 23942
34979 44781
47254 56237
37704 3107
1307 26501
34759 32682
68085 23935
34479 58012
67634 29019
64462 47402
61965 56341
52772 3956
34211 42050
67799 16913
12610 31640
24182 37670
62158 62666
12711 65134
46571 57832
60971 27865
23494 42692
65122 64434
34593 10321
55739 29763
64119 13097
27317 14125
46914 57672
65733 22894
58718 9793
22927 60067
14543 13816
50093 51608
44814 20124
29261 49589
22287 27435
51320 16852
36406 8171
50894 12298
15961 26579
2735 65580
45004 59753
10068 49853
7456 26122
22059 47686
60057 13161
14630 43454
16980 6132
22138 53358
8961 15951
31773 51184
29439 52771
65707 51375
43168 9488
39355 5732
42445 25651
68807 53330
23831 42373
6258 47393
13394 68690
24558 14941
11364 26558
24650 13954
5807 21360
43716 65119
50394 44983
20181 63863
11376 891
55062 60183
14659 49224
23871 26098
13455 24836
8358 14323
66849 9380
20065 26267
40303 27506
12954 55533
19221 66928
34546 64570
52321 4544
34294 16875
27472 16409
16771 42260
25333 7150
47280 13765
26772 18605
63111 23741
43057 63156
3357 18182
9718 30293
65080 23962
45896 18495
9397 12599
31248 51786
40657 24656
48984 8765
15011 3216
58881 36713
57535 4752
19186 40389
49791 17831
28743 25033
5601 22668
48404 46626
16781 8639
36405 58760
25462 15619
1323 25758
57152 45755
30339 47723
39841 23888
62890 45929
27386 18818
15900 47745
27707 47072
11979 52690
67511 42654
6850 55648
61335 66400
6807 52356
23486 35563
40311 39062
23504 21765
41656 32141
53585 62878
22607 31938
23684 657
37160 59917
57851 38440
23871 49551
46967 24169
20336 48365
64243 38956
12926 2893
46347 56083
52065 1602
63867 49113
51160 20563
1204 24665
25015 37306
50933 9810
22946 53322
56477 55385
27534 8229
28464 40370
31806 20086
12933 3870
15622 46464
24604 1104
7995 65489
1591 63694
66800 66463
36680 32790
67049 51485
39843 46632
26039 16082
65835 30113
40323 46916
40483 45845
17630 53343
49470 8748
41573 17506
10555 60102
5169 47361
2474 22862
37508 42730
63215 56897
56094 20900
66575 55418
57599 9445
7220 9464
57180 12016
50952 37124
37338 35489
43360 11534
58456 58028
33896 25615
33511 26162
60419 64080
56116 25976
59835 10224
60980 8328
48284 53171
1517 49731
39899 40273
32026 12375
25147 24078
9529 40901
64035 19427
24495 19928
388 43918
54539 53885
33357 37197
51664 35404
53762 24175
4151 40842
26995 39721
9553 52319
57749 63059
66305 15962
7177 3564
24878 65738
68264 47302
7657 44907
19694 32615
45873 26529
51803 63017
63909 5371
45505 51197
42588 20943
66076 29791
55054 46747
68131 44760
39499 62547
32067 42753
40118 3830
40629 29841
67025 17072
49406 29701
33578 55913
21506 6228
6658 46735
28954 25278
3165 29042
59892 56634
775 53030
40778 27976
61693 2842
5168 1754
53549 61236
9526 57970
36094 6554
27379 15518
38870 44696
19927 401
32266 49403
7585 40263
17238 6679
19905 43376
36245 66776
24692 52787
67531 34766
63778 36749
21631 34386
56424 24282
35732 48927
67414 64376
58803 17811
29535 55217
5004 49037
2086 57024
53610 35361
28032 42549
29114 67218
7226 30302
45055 4464
5398 4056
22556 20830
48794 12547
44307 46437
66326 3864
49631 2395
8887 41817
20588 40218
41024 20577
17973 22253
8051 19272
61437 57739
66061 22482
14508 62576
21841 62786
22805 61821
392 13378
22087 43989
35049 45742
50626 61633
39295 61163
54000 8626
39407 56261
48068 34767
13770 14147
5904 43088
6370 20306
68143 30853
54469 28418
54983 34113
22237 18948
23144 217
27085 38604
3412 44938
44515 388
7535 41535
40427 58374
23552 53475
26115 63562
4099 3783
22184 17001
17418 60537
58099 10611
56067 49825
145 56082
41066 57604
7031 33978
7423 36202
12389 38416
46115 27080
52312 64554
9076 56484
16095 18497
15642 17018
33023 17312
50408 25676
8043 60768
5868 54752
27258 42884
63621 35138
11662 45262
1629 63495
48464 54607
44060 30855
31176 27729
13742 53105
24222 22632
53616 19644
57113 26396
31933 53675
56593 43289
14266 37237
66755 16800
52509 55352
31218 32955
23958 5454
13556 14087
5290 56536
64929 8317
29148 50324
1909 1315
25638 43067
30261 42973
655 53968
4864 16589
31288 48001
54828 43142
18657 48479
34636 25613
44899 8792
34220 32983
9007 13259
58696 19290
19256 58828
36515 33492
8404 51411
47001 67479
20263 36855
33441 27326
39804 57584
28174 67740
42791 19738
38532 5731
43626 682
8758 5353
34539 61472
26938 1990
36467 22744
40657 22993
58845 6062
25879 65608
59351 59437
49802 31891
12559 29341
39503 25736
17526 64239
17712 43515
58820 41772
3209 3704
55722 66884
5572 11075
60718 47555
46192 50115
23951 13035
8679 53582
63434 52407
58668 9197
5673 9399
51757 31687
9609 56849
5870 39433
475 45385
66661 63557
26583 18899
51187 23224
67585 32341
9387 58200
60955 2519
20804 4400
59132 58399
53601 21273
45465 24393
31453 16258
13019 31099
3885 3709
42475 38978
60703 14405
57611 63295
11318 12014
14214 41815
26867 22665
57325 48863
41763 9669
29484 9750
68118 13594
49417 9017
30002 53555
1772 55567
30007 23023
28695 34720
18150 39591
9289 57898
3862 41695
18593 49895
28633 226
40367 36505
54102 60808
46192 33370
7224 35979
13944 16121
41427 61506
8238 47155
68185 31540
68013 33257
52717 4708
39021 62916
1264 7620
31710 25226
59912 61609
43992 37431
26112 1145
29028 50557
7922 13400
19491 64596
6278 32289
48753 13494
33367 37259
63448 63328
62558 24531
61416 62561
26747 58734
45943 67605
59353 57210
9716 11533
16637 40874
58644 39783
64927 67990
359 46753
32913 26652
35321 23563
14865 22365
14431 5020
64963 51796
14170 10300
12014 27712
26703 51959
46639 3418
25576 46415
26970 48126
35306 18106
38614 43847
49192 22426
63020 3926
63535 49159
3463 21701
5211 42149
66574 56953
18667 10597
26673 29462
23882 10492
710 58756
30395 49920
4338 55304
55497 45474
51742 43685
2732 19938
47943 39172
67817 65025
37191 32361
67923 67762
23214 37847
30600 4514
45909 30387
60560 49836
17282 44435
47180 40665
63104 7445
43217 48623
48885 55495
31996 19464
55841 52469
40629 48887
33665 21152
35945 4725
14859 17233
16328 4019
2396 19640
30648 53969
20121 10700
52748 25197
65642 27529
18148 14606
45651 16997
49152 9787
47762 43257
52261 59432
19312 6668
29020 25468
47059 13157
30710 64418
19724 14980
22815 5029
55127 47698
49098 1963
53540 68772
3081 61947
48819 50993
52449 36606
1516 53889
28630 34566
62369 29541
37499 5655
17478 38495
58186 11609
34484 36488
46475 23264
20567 47581
67713 36347
37416 67397
7818 52881
65257 45839
40801 16018
65232 36311
2802 1512
5935 47781
3662 28254
8279 36256
66619 19871
57598 25981
52888 39575
19613 50639
63924 63650
32116 43261
48816 51585
52172 6978
21969 38254
58734 66465
39624 66770
59174 67021
65833 39027
56534 28053
50911 37708
60877 30550
26466 67890
37024 6832
9210 53029
4153 677
13255 1138
42972 40435
17010 31487
8701 42373
22876 30317
8165 11785
619 61735
3517 50837
41140 6458
18113 3097
30798 39635
32539 31795
1694 54933
39992 15728
56126 66861
30195 62319
11724 59900
55412 13427
28876 33316
27311 42204
10639 51010
40444 48993
29592 5399
13438 3818
13708 8476
8873 52128
18171 53372
175 17331
47045 45911
65646 34016
4089 67795
39383 58882
16393 50214
65117 5966
62567 48337
43061 538
54446 66145
31167 31738
18109 59499
45329 57694
25115 50910
25498 66301
56447 52273
36639 42587
36951 58
43963 12507
33468 53263
756 14880
51625 36054
19810 2915
32153 167
2268 67358
49609 66677
65037 12261
22670 41754
13136 678
25148 12463
38435 17711
26508 17926
27336 2124
14961 39985
24630 50304
34122 27548
5437 21428
30639 10468
11492 39110
46090 43545
59295 9874
67300 58864
38088 45291
44746 56443
48880 4567
67770 16038
17869 63601
2074 55351
49497 59145
41398 9887
56345 34952
44988 28143
49661 28130
44667 45194
56441 36111
37041 62204
7950 56166
3335 42194
7197 60720
6669 54121
18855 47699
2975 53614
23726 28027
50049 44167
8972 55663
861 25987
15023 57716
2898 4321
54919 68629
16374 43712
36949 44438
66550 40008
38521 54346
40023 48527
53225 65916
63726 55123
12404 34866
36065 26425
47246 7106
44555 50037
66171 30289
49569 38959
35782 8683
18360 58909
1971 55259
60110 37539
47327 20170
68083 45042
3795 37127
14860 16533
40274 14492
22993 50073
40685 17523
25727 43174
5797 68144
13812 33284
13744 16563
4886 10441
31312 29244
20628 9858
14078 12043
14749 20582
33784 61648
36574 1092
39558 48319
49969 32329
12321 67435
14474 4535
67943 55376
21335 6174
6444 21109
22456 25734
64843 51670
3075 11201
68340 22904
50659 19158
29679 23163
38119 48875
20656 25109
36799 30966
68758 20957
35562 39571
67835 31553
54169 26436
6858 64050
42766 46526
29285 24928
2778 26601
44257 35554
32980 17193
9335 8082
3735 12860
46071 28399
36348 66527
45645 9622
59218 2291
30080 40952
36948 51823
2047 28377
10312 50744
19429 20625
12961 66327
5252 41002
44585 49204
24594 64137
14647 38481
16563 11485
60960 16943
17484 17452
67454 16055
17528 64705
45743 53142
1280 58053
10390 7047
42019 27057
30189 22533
37311 27357
49768 11492
43651 13509
14204 11850
41344 13162
56366 39946
16622 66
40548 30152
56139 17640
21939 49828
19064 57949
3205 25942
37874 14932
29453 31607
26218 22171
57775 57622
36408 7667
249 9046
46035 59517
20238 44982
29455 39209
3661 44500
1959 6670
41652 42182
4386 54219
13226 13129
41704 48425
20833 18095
51534 41662
10876 63151
60630 8218
9625 24621
13895 8862
5385 11975
5455 29889
31885 39315
4228 27696
21994 62982
16676 20730
3072 27127
53007 15080
11163 46130
29765 20550
1695 67576
15625 14478
13340 1727
28246 11913
59248 15525
46175 50238
7156 66013
59583 40178
52593 38662
23274 62134
10705 53140
64957 62279
16379 47053
2062 59780
63446 13508
27754 27443
6064 17602
22070 41928
47908 44199
47583 24803
50682 1052
31126 49166
55656 28769
9420 37291
46464 41600
27143 33509
33092 3588
56365 51835
54921 49286
64432 37623
17084 44010
62326 32188
16264 12792
57757 60836
21464 43897
35701 58713
45550 8554
45979 18191
64713 14394
43140 28639
26638 64586
32768 3232
44196 2903
65192 42544
6004 22764
37772 8955
15427 25707
49887 6894
8115 59648
58181 62816
14373 33697
39457 5201
57920 42393
19526 35764
10422 31996
24530 48640
40695 37396
43394 21678
7645 38284
47842 10183
16933 8349
50975 12899
14728 56547
45432 36281
52592 12322
13059 35725
11019 11437
7485 61493
62811 34516
6254 30302
67298 33980
34337 21448
19733 53460
40377 53972
66758 37124
40546 8517
22944 18265
47844 2210
3288 63902
62540 32431
40473 46142
11174 4230
4581 24933
22956 61595
18879 59419
25977 61050
27178 64457
40065 10484
4470 27311
51017 6613
12840 3787
53229 21864
51611 9408
61361 60095
10814 43109
7952 12110
2690 14732
48098 54395
16786 44687
63392 547
46730 58599
44128 67090
26412 34498
42317 53375
10649 29870
2658 49195
9425 55064
47927 49002
8632 10440
67397 7040
31770 60076
25706 21918
20645 5084
19477 6613
42315 22265
15390 6393
47190 33846
54492 3897
17770 27591
47269 26701
49898 47579
52320 19778
3246 61508
44897 34589
57084 18087
41853 38564
40785 23047
33768 41231
873 5088
32400 67187
37074 7764
54128 63386
39640 65021
33753 22359
49506 47518
40035 58108
9333 9731
68753 19291
14669 41800
41630 57095
54600 29973
1061 675
45714 12474
5718 32311
29459 1783
49547 9011
55555 34088
51413 32462
26720 53020
7246 28457
20367 43930
7985 61678
55853 68211
751 22200
56141 27801
1974 44052
49250 13826
57767 12183
42999 46165
2383 36003
5864 52527
4574 64236
22738 55621
52883 42069
52955 5356
61700 35716
29649 27185
61176 45821
28048 3705
20009 28308
65452 32679
5444 52890
24728 19116
36968 7182
10616 18778
16483 12174
28135 3640
34286 30784
11810 35146
63247 33732
68283 49243
58634 65923
56148 5878
37024 38528
48224 22221
1881 48239
9656 8128
25546 9940
66571 44713
18748 12187
3153 31686
36777 68489
40517 66361
10910 65747
10431 62455
62163 67082
15485 55650
680 14557
54496 27603
10288 33305
1759 56374
27202 60393
68762 47951
6280 59406
58882 39038
29798 24153
27077 37379
54580 30805
4805 55691
23604 8201
19920 21669
66258 37334
10618 20421
24661 6564
662 35382
47084 49339
7924 25163
34300 1724
55493 25555
23447 59918
16084 44812
51587 62474
54271 6830
47574 40016
65296 23421
14553 14141
3734 56523
20595 32063
506 26236
55832 57221
36325 61713
19930 50129
8746 11202
16025 24137
46035 32403
50570 53469
649 57986
45968 41251
66045 59844
33442 15037
4988 62406
28392 25608
28839 50854
59555 62837
14644 14550
30474 48693
8859 10966
16979 17528
8954 3440
65215 37976
21332 3192
979 46562
33371 6148
61369 15577
18310 57558
26013 97
20674 1622
42673 47588
38956 14221
46104 63025
10259 63727
11214 1227
5549 3731
46255 7719
30126 39425
60391 27954
61900 53384
53282 23651
38663 916
37659 26820
31157 48974
15935 62958
5796 23364
63991 55299
29495 59034
28870 44861
27153 27494
11622 35184
23297 2880
22944 61138
56648 34794
41013 11615
55063 8852
39448 9427
9476 65612
20690 49514
3707 12190
50334 29165
13957 47787
43890 66118
7848 32870
5906 9059
16349 14774
40923 56819
7084 60280
53631 18825
52866 46622
14367 65013
6101 11855
36086 35725
20432 61135
39500 51301
57412 44079
28284 31694
43227 39754
22038 28457
52190 18086
38578 41944
43638 62951
6736 53643
65411 62968
225 33511
61052 59003
44827 27459
59379 168
17923 45866
11007 60138
23906 36886
49637 42695
1330 55764
16669 65164
48944 48321
22302 12859
68501 53013
4684 12322
43456 33086
1998 66141
59281 29879
53042 25791
64669 20125
26082 7292
27036 17523
65278 3477
24092 62601
41567 35748
39235 60867
51299 45549
62253 65913
7101 33334
55954 7744
64101 18481
47169 7011
29875 44533
43184 57217
27479 24273
67232 11036
68708 50243
2241 41111
37257 11935
2064 37193
35650 45862
17236 36077
58203 13387
33617 22995
67552 14160
31051 36668
65903 29276
67708 7025
23786 11026
62855 62715
27749 30905
30103 67008
52792 53373
18598 57573
21693 28781
38878 10916
17968 24958
59368 61865
30182 14698
23492 37572
24323 61567
25103 31945
50149 6673
56893 24540
53077 23307
67317 3339
57397 46615
841 41762
63340 28085
68648 37362
61626 10671
9181 56612
6322 42048
35413 51945
27341 53473
4050 60489
26459 45126
25686 52195
26146 56544
40485 31530
49210 36714
8390 16707
52158 13058
38327 5685
28477 38048
44612 13278
54536 67347
10200 42565
58824 28777
24255 57510
1712 65949
14035 32050
21397 61789
43221 27086
1079 42421
64688 35961
62787 47911
45878 63699
39652 49887
45724 16997
45711 17387
38556 32200
16040 36136
42476 6393
42195 41875
65385 49558
29867 44545
65603 60225
58244 14422
68183 67104
64764 2086
29709 51037
27180 24254
43312 18961
26261 37333
52419 24896
12120 25744
59127 47719
57715 49147
19444 68785
38300 43364
23389 35213
56738 65418
61385 12881
39433 49537
28129 6309
66676 47674
68432 3849
35989 25354
60322 63585
14108 2737
28356 39153
7215 58694
64568 44552
57819 1734
41178 54839
30914 61083
114 23205
39203 54417
41245 66277
23571 6152
38080 54889
4824 22086
13527 49007
10470 13497
14493 49624
15533 52838
2486 5324
44818 24604
16183 25205
10631 9137
54954 22869
63657 57745
18517 30070
17434 34650
53408 12614
28197 23585
53470 58082
25521 53041
44564 62713
16492 26927
55630 43294
5682 18574
45733 26295
56687 3443
44154 54765
16653 21515
38619 48294
23692 49925
5007 68746
34568 6703
38481 14384
37058 41131
33914 15319
9005 6505
39271 18455
39875 53208
56332 49643
27077 32200
17130 37196
17548 31891
62017 48270
1825 22057
56013 18104
2279 31879
22838 36448
3315 23211
59533 20634
32152 15265
22826 38060
10114 55051
732 24465
56790 31600
10620 68535
30778 30969
44523 17160
66849 19916
34649 27476
20067 61794
61319 17515
64973 33667
49531 22166
55438 36462
51457 1911
10169 46018
5323 39364
46447 46890
51970 35039
47709 14215
3015 40179
23571 1111
39653 49493
46937 68372
10152 53578
58009 43593
32271 65985
25786 16589
139 65392
35963 58139
10420 43459
63383 23113
49077 48273
62561 60763
63853 18111
5939 32353
50702 5900
23601 37760
48268 64385
47464 11674
7524 15101
39259 68298
2983 64272
66007 14041
43464 67913
44957 41848
16721 38481
6166 15380
47184 25628
7804 8950
14250 50639
66841 10176
42046 29333
22734 49986
15460 39789
2148 10277
67366 55543
20950 14368
55879 37664
57596 51813
25113 515
17614 49848
33388 24343
44120 36151
31985 28842
21938 19056
57996 43475
46105 58517
33021 60434
21104 18683
25130 40753
1624 55878
35918 9833
50752 61112
7378 8799
53222 35569
47623 54928
63844 32965
59014 26617
29299 17354
29953 13467
61307 37490
29906 13846
23420 66795
47450 61017
62565 30125
29 30546
56825 45100
21353 12323
55022 56176
23209 67334
61379 63516
12710 12737
11791 4882
65774 12918
22545 41388
55199 15608
45556 60281
48762 62421
27255 16667
25025 5153
3437 6093
55578 50558
33025 64949
62879 38177
788 63717
16725 49361
50090 2152
43804 49708
45988 23325
13254 3000
24861 3487
64987 44558
11744 18903
38322 43288
30752 56947
17385 35836
68503 46769
6993 30911
31390 13472
63429 40601
4911 28080
50261 2245
29362 27148
16665 43276
8056 37373
61728 21695
3909 16512
55718 38333
31743 40659
56705 126
39349 44370
18735 40873
10667 44268
55895 29332
1400 21490
32296 16043
27723 13654
27662 46199
50348 40371
53603 58659
3340 49006
32462 19474
16637 14934
14372 50965
54722 44314
6797 34675
31801 21432
26240 59135
8386 1123
59204 42950
27872 13554
679 17817
27287 57100
19897 40346
34244 16177
68250 52241
30339 44503
24790 26965
60743 18808
18791 55341
64134 29644
23915 41143
56444 56856
63398 64810
29647 5948
36464 62399
10595 60506
2195 38451
32446 14787
434 43912
58397 44887
18058 20690
647 31328
2548 406
45882 13081
1684 24177
66967 28224
46067 58163
65695 45588
50487 64604
9163 27820
24542 410
51809 55617
3037 7537
68320 23106
59347 58350
67080 47613
35388 39840
50409 42786
42072 65521
5842 34224
18814 62312
25921 37416
56818 46709
50983 27616
27379 61745
37762 51912
60532 8375
33010 26411
37662 10005
67735 25154
37293 23746
20705 63656
58003 43671
16506 25754
39182 29685
58794 65856
56527 8412
55499 40583
31450 50650
31404 14705
49434 44708
59414 64166
50539 29231
13676 26514
34453 57916
62120 55698
67085 61129
12242 42258
29358 55022
26806 65843
45870 9399
34454 55030
51917 1222
24006 46229
29353 12052
26563 15389
66814 25266
48820 23445
30911 27061
11206 42828
68325 16111
22938 38201
6062 13318
40446 28537
49379 28878
64327 18228
48664 39996
21357 28712
29392 44511
9854 19715
7755 33069
24908 27151
13225 41166
9984 35481
58804 20011
15737 61102
37868 19675
5756 38673
6930 6107
39188 36223
55309 34997
5498 6799
67795 58334
68345 49069
23437 23446
48804 64661
10084 62188
5350 65090
139 26978
35751 20363
64545 43730
26782 40860
35593 63649
44716 13927
6046 16451
48648 56663
4988 16700
52064 58139
5336 61971
60095 54044
24701 43110
43390 34475
53655 6656
58542 59857
66165 68563
5364 54381
51794 53910
2835 56876
19164 38497
7504 4831
24776 2913
5872 8872
67617 22334
22484 45560
24291 62320
66032 63962
63308 23291
593 66800
1908 17380
16199 65677
68569 15899
53163 48030
14114 37629
24089 48547
23785 55543
55717 63234
29610 5018
427 16820
5769 12756
63195 52166
12827 26955
47492 11113
62047 62708
67095 67904
48030 6164
24004 16667
45782 39685
8993 37556
25283 21379
32346 55330
39221 11537
45298 45470
33740 53959
29935 13031
13476 3924
57978 11114
45810 62431
35668 16103
24746 67066
47717 65620
20081 13871
50534 8522
55623 62096
49498 38909
60852 18969
30418 66492
13294 37857
11646 66856
42661 51206
51335 16650
22474 1948
50191 22902
67330 67022
63878 12167
25534 27399
31064 54706
65267 50694
41384 26061
22326 25731
9752 47810
47597 19831
50258 40263
25122 10168
29113 44131
62509 63983
18599 8556
24066 6755
14465 28486
49776 17344
31374 31629
25244 48614
58469 64491
11038 17405
7158 54380
37209 32251
13491 57635
46522 60587
55115 35369
18543 63360
59913 18507
35666 47556
6570 33839
63070 64509
3730 58118
47164 12526
44487 39150
38922 41192
2687 28123
45806 54821
41514 44263
35757 63403
11053 56168
62823 65647
15565 1260
29548 10170
53118 11677
60749 62408
39095 55327
50461 53891
33019 68222
61879 52144
14477 66830
6198 49727
14388 62175
57525 13119
4191 54831
4710 54617
7259 63704
44885 34357
22155 41729
30840 24782
24219 15069
4932 12468
12567 25096
1405 32066
31780 62223
55405 57047
56920 67470
63773 27952
24502 24290
52161 8066
36531 35290
20690 10135
48132 30030
5336 59602
67684 37588
37185 42607
48295 63164
52445 477
15565 63028
21709 1711
20212 2867
6994 1264
51305 50149
28107 57887
36211 42951
27174 64081
23207 11152
60474 36339
46223 51679
33558 52963
18598 31418
35082 49362
36625 65572
6355 64412
36270 56938
39528 34247
58934 7503
28563 38591
39304 10330
31873 33299
8713 24167
42503 28958
9310 61871
53602 64297
51491 41200
61736 14027
41768 19959
18805 55971
42840 20491
44681 14088
18279 35871
66338 41842
52602 16200
36045 529
56324 9726
5167 34120
49746 57594
45104 61224
23139 34902
7733 50330
41683 29375
39447 17125
48506 63552
54852 16200
47773 25816
20426 40280
31796 55433
65757 3195
41680 60461
38986 55414
58931 20240
11773 5649
22517 30522
24594 54217
30291 34539
49325 12071
60012 29808
17807 16041
18121 28851
50208 50971
17854 1555
18577 29404
65836 14337
29341 23252
59414 56845
58662 5195
26414 67550
57729 11988
64076 21870
15297 29777
23915 67646
46284 14728
5896 18476
43978 28610
22323 34475
4689 53102
50211 55843
55208 41607
31925 44123
58600 44647
46771 1460
38846 21490
50988 20837
15587 20518
25415 46460
55778 30401
50721 33771
56396 19711
36365 4357
68129 60022
21848 53821
12626 22147
22933 61799
62088 15086
16073 52713
41059 22499
12104 23223
63465 24574
30487 14172
33190 6596
3796 6775
53453 17322
52922 19562
53860 18463
61936 39606
62260 67800
16534 23321
54107 23638
12 61191
67377 8962
54728 3709
24931 45608
43931 49983
64666 8283
45035 68745
13671 5243
16007 25664
7518 42773
13416 17221
42079 9389
61154 45687
43884 47271
29725 45247
8989 60161
48443 24896
27517 32193
19721 48101
63375 40096
8002 37582
58125 44605
7268 28240
67638 13700
57346 4822
938 65250
15601 36625
65332 4881
44342 16239
68669 65828
19487 46553
57969 46841
45608 43108
832 10458
41030 41401
46516 16701
58322 54528
24965 36131
2885 55241
11921 33897
48672 35283
50585 39008
21447 47651
55656 68218
1926 13174
5288 20637
64804 57247
63367 54389
10419 35211
56800 39231
5656 58630
57575 61082
12100 32596
24712 64016
51867 25830
37954 27433
41316 2745
25794 13397
65967 4348
47479 55811
18543 34034
4276 18832
58113 67133
30771 606
64319 14143
40630 59685
31423 23733
55673 46829
28226 32468
370 50734
45992 15559
43703 35171
38060 3022
50260 54744
67146 4312
42608 10205
19088 47730
10966 18111
13321 38170
42400 20620
35501 21368
40722 37163
21366 27087
43802 25077
24686 8609
63136 63756
11670 32739
56600 65092
38232 11410
1010 49149
45264 59038
36576 43752
32164 39777
7002 63711
9439 37917
17021 68452
55640 31850
10999 55292
41452 64720
8136 35053
58883 9645
58975 31702
45394 37329
8346 11667
33385 20282
62538 43088
57862 58895
11822 21489
13426 67180
10319 53916
13149 14322
68461 22005
46659 41025
47837 28023
25458 43589
30350 26262
51165 38003
68557 31049
12158 37991
44860 30034
68817 58438
9651 29829
54557 26726
51083 8798
59007 18773
54606 54542
2306 4021
46718 36274
6424 22530
34106 22894
62185 4715
22808 12732
33712 46646
9437 42728
12407 42057
20288 64640
59784 51213
4022 24359
33192 64165
12338 29837
47825 67596
37809 26507
3298 53571
47286 19591
66720 41066
7129 22926
30366 950
35165 31605
32666 608
8060 67638
27410 45995
36437 59182
27095 28845
31239 21962
37780 31929
16687 25995
37964 37467
11800 46685
33356 56112
8800 41165
56457 32535
4660 45791
54936 61399
8131 45280
57307 36571
62881 58201
27001 1562
2553 54178
22980 45763
17067 7738
49404 65169
25762 5965
48651 30737
6593 44404
7043 21852
12576 30178
46079 11574
40893 37868
46101 7018
37459 26975
23328 51648
65532 19090
62591 45159
52388 50548
65349 44362
33065 56807
12999 52935
47116 51545
60737 6507
40597 20966
28564 46050
34652 19627
36033 57142
27590 12436
35038 64844
21720 31003
27032 7981
44142 53023
30847 67123
24595 61272
21782 63290
36295 28489
62039 46930
35143 30633
51219 29276
28435 5079
68378 60404
51502 31907
24812 19077
11064 3980
44109 65726
39406 3838
65378 417
9219 38082
60126 51761
59776 27523
23064 12989
22609 4780
41521 25673
33836 38677
16627 21980
57559 18911
8598 43535
56797 58629
20238 17231
41557 45823
24740 9476
15780 27139
9484 7861
38356 48872
60164 38268
36063 63037
53961 24935
3420 33823
50608 24164
23826 47956
35304 37581
21622 19546
64171 45477
19114 29633
38819 27319
45573 11379
65601 18721
43611 1965
40200 65782
64170 32516
7192 6935
28648 35475
14397 39936
24254 20769
49124 40703
44415 61958
18938 23194
48517 13092
10278 23919
22957 63254
47211 62301
37386 63832
31050 44596
41974 46509
1647 56776
66933 61314
42670 38421
63371 52492
14303 39276
60916 9598
7580 15706
22057 3643
68735 46702
3676 53304
35148 23453
27685 4696
51785 17742
11050 45421
25153 10983
23019 3178
33198 32323
9357 445
27912 8110
4740 12405
68134 40226
36869 54328
43526 58966
1781 38283
36204 63010
3080 2457
18420 42632
5701 56219
25128 18792
30556 24871
37737 7127
20698 54933
31855 66361
29269 29629
8422 59829
59765 65783
49899 16469
54408 37966
33120 68619
49261 68594
30916 25354
25210 34226
26961 55268
58629 41411
63263 5806
61413 53018
24242 26912
28965 26107
44608 64829
62282 45511
50419 16974
59469 62874
15738 1466
6918 33667
44380 29943
51699 11195
20483 38513
60368 32215
43966 27236
45578 53930
16028 17042
20177 58891
62923 39160
39377 666
906 28354
36020 64554
19176 57790
19809 45195
9753 68554
27495 47392
24947 44603
61505 530
13282 19275
51512 55731
20034 12335
51589 43564
12925 57801
48998 56813
4537 44059
18560 34518
49025 48402
35954 19091
67345 67637
42273 64016
45576 65395
46058 40086
10304 13435
30085 50790
57810 15106
42509 17102
31261 33213
63098 24731
4522 38592
40639 14509
16595 13398
7522 11459
17675 37861
60929 17459
67919 11502
38482 40746
63941 22920
43786 28178
37113 30090
42172 20773
62252 31485
5102 55065
37634 9270
8803 68624
44262 62227
17517 31985
3175 61176
23017 13144
63156 5526
62623 48799
4645 64926
560 4951
42614 1639
28820 17823
31183 66951
12874 46184
39861 45997
63436 65978
66963 32838
11112 57378
24723 7534
35533 17723
4917 15811
51343 41229
24246 39812
17061 33539
35427 66188
37041 40992
43326 54883
92 17436
37904 23108
2578 27222
68320 37630
52333 21787
3491 60812
52589 17685
56938 40260
42640 10406
32099 29591
48994 35622
46981 63393
35028 15099
50726 1661
49992 68599
8915 13551
39164 18113
64845 39852
48705 65837
1338 9057
6733 16603
34588 49301
36093 46219
31074 67500
13361 9411
9563 15784
51271 40555
63659 48403
58275 30855
46758 27152
60393 34784
6601 62436
7327 1191
20087 52199
13592 21172
31302 18930
7011 34116
13053 66735
67169 41343
54531 53069
52741 33089
60961 15473
35866 29002
26964 41189
42242 15710
398 61496
49759 17171
11818 63915
39852 29945
47293 35724
25975 14772
40143 8225
10662 35739
57290 62622
68692 50100
61301 31157
46476 62998
29725 39269
2449 208
66258 4336
7919 31564
6042 6344
40115 7011
621 55540
7987 60872
36200 8091
35455 29279
28718 19272
56786 46272
9051 37206
47969 1882
54543 6715
17288 52299
64478 43655
47139 5032
27653 23404
55288 29672
54527 15442
27704 24451
17051 57148
13643 4162
14921 15107
20614 38723
25443 54846
47785 42887
56684 30980
61530 6466
8754 17329
64979 39798
48779 23981
46151 65068
10686 31971
1439 65624
48413 66311
52753 15702
21390 26381
48546 903
52313 49375
37692 44612
17265 14844
61464 57312
51804 28702
30560 19099
39757 67822
4214 68225
68000 43120
50598 18069
62845 37446
42954 51601
9668 42206
5079 48956
31863 23907
22245 16823
43861 26158
57866 53217
22691 5094
35496 61955
9025 908
60754 14765
46088 5315
18158 16823
13131 53396
13 20606
38889 45771
58424 50498
35078 58414
7728 44176
50316 47571
26227 16844
62963 57680
15868 59868
6335 57048
509 46412
23637 31154
55438 19094
36784 37628
43626 21721
14788 65527
50371 56400
48560 16842
19894 15816
66244 48998
34937 45022
67155 31238
49072 61352
38878 2659
63120 43600
27390 30011
58926 26546
54358 25248
32830 10353
50606 33725
27416 40010
9350 33650
45914 52456
6592 48133
24584 41950
18067 31297
60865 10764
15018 16805
31451 31540
25881 15070
18671 65433
67717 62245
44894 30935
10920 47696
6199 37820
6695 57610
26996 30950
29073 14893
57907 13306
19653 7450
22550 49971
5497 61478
35702 44729
35280 7551
14985 65627
34445 46053
20497 11885
48380 39912
51303 9013
24823 45908
2177 22656
51409 54705
62310 61869
30728 37233
25725 8027
54815 25110
8479 10430
33046 14071
26038 2174
66762 19406
55600 39013
1597 8445
49458 54122
16363 57572
58548 2097
54068 32296
2186 42155
58826 7683
11037 10859
7083 12946
35700 6218
15645 23666
50537 67732
2550 49513
10033 1184
65870 52653
32535 63406
23782 18750
42838 24541
7425 24789
5106 40888
50314 3111
4049 6544
23867 13263
39141 4033
44962 33855
27595 27818
50749 23115
14002 46943
15399 167
58940 8356
5012 16789
20476 37813
35317 47940
15141 22190
33222 1447
13704 35522
35413 4812
18042 31128
40439 60163
16987 37770
41567 23327
62997 14348
47420 28746
38033 60342
46409 44532
11743 1241
181 1156
26034 34377
25238 28722
17237 64860
32894 25386
16155 18254
29449 9954
18594 62672
11579 14829
35139 19563
1623 2829
40295 49755
45422 45415
64972 54827
17790 35767
5462 48407
5654 32237
68718 67140
18969 66191
41070 35844
54726 15111
33917 46958
61435 17227
67792 37482
13568 48238
52807 8834
25658 67754
56027 7508
6164 28315
42219 43306
17158 53844
23457 14643
16029 42998
22847 31405
64230 61322
33852 38063
66876 5866
58559 55374
41199 20968
8998 53432
58199 44902
35026 38975
25704 23636
54731 54499
33273 34010
13716 42553
63557 30775
13733 60979
28089 26175
54325 3711
67114 8557
8163 29603
65590 57560
51996 46431
23901 32642
54765 47322
15625 22659
4623 16713
51728 44946
38707 29309
30280 18686
55758 24752
43145 29816
34736 10472
36034 34765
23679 45062
5440 17854
31081 3304
49989 32329
34887 56290
18560 53231
25138 64356
24286 15852
33688 57532
27196 36716
64994 23565
54441 569
67721 52953
61632 24598
52052 62331
62858 68231
4707 3860
59198 4408
8757 51547
27327 36366
43729 6357
1501 11786
11968 25090
15520 23872
12880 30450
12942 11857
2159 66016
43900 5233
57952 4534
922 23435
34735 47620
25279 5700
47216 49952
66516 34152
59890 1961
64851 15835
64819 44515
49112 5021
49416 19590
38937 11762
40938 64942
42043 40991
27625 7978
3356 19357
42443 11428
8570 7780
26640 67573
68171 9414
65957 13558
34392 55926
59949 21160
13678 16087
48814 51380
44358 41372
45533 42627
58479 38148
67337 32824
51022 29706
22353 10410
60151 10548
5890 11290
2812 43554
57853 17778
34266 57010
64038 63936
41106 4388
53251 4806
31987 32949
23011 64396
53656 5924
17557 21937
8911 27493
65122 18534
35207 40417
24894 16398
28150 36849
45951 62343
39647 66511
17528 54336
39441 1768
36832 45587
65612 37795
25294 3142
55498 20960
2825 3513
56348 21926
30355 19918
67295 30656
61035 64140
56953 17138
38548 23728
51760 22702
33704 48824
47004 59698
63231 41568
63175 23823
43926 57190
12298 48536
1645 43800
59905 52550
123 36105
38022 65855
25669 9813
22490 61479
43235 42255
54827 60818
29657 11320
22223 40239
57697 23600
24346 61443
24701 29237
37414 38515
34694 15767
5719 34150
44911 15033
67268 45978
44617 56516
28417 14753
42960 54272
61013 25044
56010 21096
39380 59529
31592 17961
38655 36356
42520 55570
17720 15683
14902 21583
50114 43014
21394 14630
34388 26075
63166 42148
20828 10868
55978 24576
44877 49648
44194 41015
43638 35162
2602 49634
34407 414
57702 34855
50304 51279
15727 4574
693 34842
8302 12698
66243 58603
65526 26898
674 26434
51474 12670
59011 37995
21827 44668
13195 31781
49594 62619
34319 32792
60908 50926
47680 38306
11617 57362
27090 37954
60713 1674
38977 46222
26654 64050
15633 10782
5898 22401
35785 5412
54817 6096
36447 54191
17103 56193
6152 61179
66231 41677
30349 15155
56727 19118
31879 36309
19912 9282
67499 66170
45660 12462
2033 44028
14450 46893
50438 38788
16736 29433
63765 8944
5651 53685
39582 44718
11403 19592
53833 42268
46514 8349
67712 47195
64209 59528
57237 61050
57775 66499
40703 26100
65849 31431
45875 25649
40315 44657
61490 45600
25965 34935
33882 16101
34090 30747
10856 4959
49816 19360
1190 67828
54644 48387
56398 20650
41283 4635
6387 58956
37027 54891
59989 33503
12093 58272
1654 53618
33877 4261
53889 34228
16486 56341
35871 11309
61011 14941
39508 53405
49144 19440
42893 9678
42748 47066
6496 41152
54200 7760
39140 19625
13926 37610
52502 7564
251 22211
50344 58728
58577 64271
61125 33733
68407 1841
32091 55558
54901 32239
46380 28735
34601 15084
68692 29304
7263 22414
44420 13997
61178 1179
18942 62926
62840 1379
18740 9878
14213 27853
52238 40191
16728 15366
17803 12372
15231 47707
16704 37418
36835 42626
6778 38493
34457 56557
6746 53313
46334 40408
57430 38630
60601 5931
3770 16784
51904 27993
35818 9061
51475 24998
55471 66068
63819 6085
56379 17444
57677 21743
63523 27356
24878 5378
27444 21940
17056 52494
29131 1585
45819 9628
293 34334
401 64741
52637 61525
17916 31017
53447 66926
45675 17726
6872 61517
10972 29196
63464 31243
61105 20902
17467 7239
24070 36243
37687 18776
46943 54600
44569 13344
45389 39349
64344 24280
33058 22464
53862 26513
46114 46491
12994 24107
5574 14354
10861 51592
35328 21763
58485 14727
61906 46022
52764 47204
62515 43899
17094 59267
32809 2955
37668 16995
67779 1
4671 62581
40936 50933
43140 42658
53001 67958
14496 22012
12134 18410
10813 26372
54571 1634
54186 33238
60120 54550
46297 50960
52052 3089
32875 11263
60343 46649
56474 60485
51642 21884
23106 25720
41789 16699
56319 67217
58339 27534
28825 31359
63684 34988
27794 23851
56143 61448
34907 66821
27756 43836
42925 33983
14703 28860
59420 1324
39838 60622
12277 11306
4705 19044
67093 57839
6773 426
27554 47768
22753 3382
36942 26519
36675 11925
66936 56343
56580 35890
25076 50839
34822 50615
33598 50600
51986 4451
23441 27805
45510 14167
54063 54730
29980 49775
37049 15607
6899 28603
60234 12456
56677 53503
32899 65096
42651 39514
17397 66820
61681 32013
10366 42556
35666 13517
10540 3271
25563 2377
60872 65446
11054 28308
6024 17082
7411 2152
23476 9582
23100 38573
41737 59818
34665 65997
66470 9192
64056 45251
35679 56063
40809 43339
864 32461
20534 9879
31558 57497
63516 18741
12889 44059
57543 36206
25500 65196
27615 9611
25878 37810
19205 21042
38698 26868
16717 31732
33453 30488
2494 29666
38185 49666
27751 31995
56317 64619
11571 13077
23961 52049
26826 22690
33886 58378
42718 49619
48832 3658
39803 1631
61675 53525
62960 23363
67809 52264
6040 3540
11717 12611
68216 1325
10596 11520
15950 41782
35059 29846
47555 66569
19652 5570
47480 18092
51812 11946
50986 44835
22619 41890
43974 4443
34556 13415
27911 14553
21517 52855
15873 48130
30020 55240
43931 34775
40797 19838
46315 45228
68704 13552
14039 57995
52712 16576
55914 14253
8045 19884
37712 42689
24117 9824
62933 59800
26553 34570
24111 26781
68167 15801
30054 45424
43324 14621
17302 59580
47475 20432
1767 21108
18887 47973
18822 63538
46201 17010
10517 51833
20555 1078
66980 56968
12562 37899
45664 9336
31700 37767
6508 39449
250 66377
49120 49490
48439 54871
66201 4244
15975 30763
62259 32675
29912 47695
45702 28505
59983 63850
31974 65873
5051 18767
65798 59262
51982 57120
42222 34828
41095 37814
32418 23000
5184 47586
30378 4056
607 32047
19480 36626
57336 4626
29044 41053
4047 31350
13094 11454
66954 10418
68688 47650
55014 5536
12115 42211
25547 26510
31129 9196
24824 40312
54067 59825
25670 64502
14567 28147
55881 30283
14318 5739
29951 1483
40898 60536
11937 11106
6091 26565
26494 28156
19015 16400
28995 20427
33311 38463
27363 19392
66024 41189
56371 34175
12664 11863
13342 52101
54706 18313
47381 64968
12686 18658
40264 58572
37075 28031
23953 58255
26736 38171
14383 12436
58813 46790
10302 9916
15762 23988
33959 5479
47398 23326
20087 68036
10087 23157
9554 5518
34350 23192
61443 13304
24207 48223
45577 46789
17587 38522
2718 3959
6480 33629
17660 33064
59768 33175
28904 12927
21347 50799
55083 29402
21285 39195
60787 58726
21868 38680
26851 30430
47533 41197
41072 32982
40053 5354
60418 58876
61041 34065
44365 61150
63814 36380
15338 29697
10696 8896
3644 55277
29926 38246
49179 27860
60850 15617
6661 61356
61680 1055
2499 44347
54689 34245
42533 34119
65877 4236
97 51807
1103 60518
1913 39277
60303 38477
54773 34888
22001 28014
12437 24662
23904 36487
29914 57409
43622 4097
66524 19422
36175 11223
58922 13645
41145 65751
68160 49081
24857 61014
63718 66922
4368 61442
2536 52185
22757 62725
20948 37569
3634 50585
11932 66217
27561 53052
16439 700
19601 51379
39781 13012
4233 15072
61939 51949
27737 68240
66765 17123
52535 44153
5430 65507
38100 29715
43744 52114
51306 3724
39796 9748
41490 42706
35917 55663
54908 27967
7185 59047
5089 66208
12536 34290
2061 61909
62900 13442
13912 2121
65948 59296
30215 23841
9006 50919
16285 56651
1968 22092
45274 53499
12610 817
63973 30977
24153 53476
12469 11110
57879 39236
3539 36756
52654 23937
20351 37401
35360 33846
48953 10196
55597 32911
27014 45539
60902 19812
2246 25208
5307 8591
51913 16760
50643 34549
39612 21260
63231 25472
48013 19801
57659 19416
22648 45214
66082 8439
34568 4476
48893 3239
50535 29303
68754 42897
67952 64068
32497 2228
21520 51353
20001 27792
35609 58568
3304 66829
40131 21637
8227 19518
54951 37713
790 58469
17518 33586
45264 31969
10798 46706
9139 24779
8702 34288
24410 5777
31892 25601
29417 17413
66977 63225
32195 10730
8821 45078
27229 48484
33306 14658
27792 68748
64685 30539
32694 1755
7456 61081
42992 66463
47033 18047
17014 65303
19100 26861
58139 63852
58439 46581
33504 14432
15388 49275
29092 9285
58965 4022
38667 10041
66428 35541
50469 56814
62240 23977
60579 20793
16834 5551
43005 14882
27533 19062
8516 10075
60097 49088
48994 869
19664 29680
13915 12013
6690 6760
34248 26126
35618 64211
322 12688
37313 41456
56084 47546
11696 21732
3369 68739
24745 41266
7569 26112
39592 15174
39156 2311
17588 30491
55371 25405
27368 55844
65571 37089
4755 48009
34820 48630
42339 62066
29966 28638
41374 37060
18579 19157
12886 38590
49810 46426
8637 14581
52975 18522
55903 67275
11310 56300
32288 13245
41631 23593
4672 13665
18252 55910
3795 58617
9825 68276
35527 64049
64736 5212
53444 53741
41354 60304
18321 56445
24258 44212
56255 52190
19923 26853
20373 19207
62532 33739
37397 59978
52508 44691
25435 32784
40540 65691
33380 44067
7549 38477
14991 2929
5957 12796
2204 22174
46919 44840
19597 53961
24162 40509
46905 61428
23512 32661
58234 43199
52924 16053
30526 65152
20737 28069
14506 38481
60534 30772
50526 56459
17175 9214
49274 40173
12005 19410
8742 8921
64941 16813
18205 60753
27604 23247
38335 520
66291 24799
24378 20034
33980 65586
45848 34301
4132 7472
53612 24318
53347 22893
5507 36876
24855 5465
25226 40778
14389 9169
37640 60291
47287 37695
8999 25960
54112 66624
5392 47873
24868 58977
65957 45571
28983 25177
6972 64343
52344 46472
56087 32824
14950 56401
21628 50072
63177 18390
29075 31697
26557 25869
19615 35163
12696 33940
43232 59447
36527 45624
46971 13821
46227 59909
55026 39530
28542 38693
9896 27136
56307 11515
20344 61870
28400 12176
63080 12591
22765 38827
60521 53803
34797 29333
49676 1964
13928 22443
14426 54303
1156 16668
12125 17333
54110 18955
7876 41299
39710 32439
36052 46015
63977 26263
2637 58243
41812 22728
73 53781
24020 50950
12523 36726
16824 59045
33755 19084
9925 45184
9297 65436
13583 4167
58442 14697
62662 40383
44343 3653
5523 24986
51986 7170
7603 56641
59288 64268
47134 49046
18438 62229
2543 12082
14736 32765
52884 13843
29063 47058
40174 6870
43304 21434
15311 66664
5674 21478
27490 50015
25390 40876
59744 18935
30892 22965
22001 40975
47439 63688
50696 51405
60373 48373
6600 36879
48483 43415
28124 3710
8812 64917
2488 44019
56152 3009
59331 43081
32393 20774
6766 28455
56633 19357
42251 31260
4185 8069
661 18377
33482 1654
4652 60513
27552 68253
57474 24674
54091 66001
35109 15238
26975 6471
43474 49240
45919 66046
6600 25045
8111 30558
39219 63272
43831 15697
37811 40450
62562 35688
56149 16102
23272 46844
61504 30227
22300 43021
21903 41713
26775 54459
25763 58453
37916 33879
62711 39243
7647 7394
15977 17760
41769 66853
22020 17842
47206 20586
4822 7474
38314 15140
45051 61602
27771 21202
1675 56830
22677 58568
11873 24055
5438 16474
11527 51048
60880 25943
16296 10621
6580 30768
21839 60152
29839 31697
33623 40235
32959 238
57319 49815
55457 55633
30438 11490
24732 18996
24217 10817
63457 50057
12198 59737
4817 55982
29767 56123
44566 18368
29604 21711
19273 49682
40427 67621
41334 22436
5990 14997
54768 21493
40001 50383
53046 17709
43788 24622
58215 52391
160 674
24470 12764
53737 36824
21158 48204
65180 8943
8627 38417
48568 19081
17058 42674
22620 52760
47351 14601
40478 53556
31511 60083
50303 25747
45198 33440
24878 52548
66080 23976
67881 24591
18962 64149
46806 48285
2821 30393
22536 12271
33910 56992
4651 59082
18454 2652
11133 12871
50379 31922
27407 57122
20302 5516
5639 92
38748 49618
30483 6920
11676 35824
22906 40134
63770 27623
57547 11334
33065 2472
21574 15585
42568 61449
62441 510
30347 25168
25008 4244
57652 10644
31586 21343
39591 2570
68810 14745
2096 30030
67842 26941
36802 67666
11155 63786
44014 34902
38455 57214
64272 42170
17199 18959
36451 53487
18049 9970
15663 10689
1574 41600
1920 8287
13430 46140
11822 12481
17841 31906
151 58089
39997 58955
1461 37995
38643 23133
4530 60564
46375 30952
57185 34630
42645 48029
4409 60555
49205 15186
4518 28735
55275 41837
60254 13493
18495 16587
47428 53369
1506 16184
593 7260
24892 42685
32605 65312
65861 45884
14501 21492
37438 35415
17091 13179
3253 63418
54493 9028
26875 23008
38184 32762
5982 66777
7715 36965
8729 17352
11269 20338
21608 51070
23148 7968
38775 15998
5798 42258
68653 45881
11102 39450
19088 3491
28877 58297
55198 27107
62868 24285
32115 40839
9221 16421
1139 35833
53471 64210
63676 57104
39193 33309
861 21934
25959 28964
46801 28676
22572 60959
37306 44198
47564 56135
55983 1468
1991 60145
65994 38879
44720 36675
20326 31457
50852 40424
55717 63205
39378 32244
29014 3852
48033 42145
49696 22327
67880 16958
8537 38963
26765 8900
7436 35984
61101 67724
30448 36264
57651 32248
58441 21014
11988 1450
20790 26006
42217 47667
18297 57132
13428 3218
19345 11893
50817 23982
19009 42385
30810 64483
66919 57636
39670 57571
30165 40886
56832 15464
47279 59840
66010 63201
2975 8319
66110 20124
636 51966
7455 52073
36291 19553
37943 62870
13039 9235
55139 47595
34485 3286
41767 51143
12610 38606
46047 30340
13046 38191
14407 1696
54246 38474
38465 64641
29614 59947
59783 36799
10047 44978
42873 23093
62164 30889
40111 38424
57298 30523
3310 27693
6794 34974
53947 36296
63595 43724
47275 43060
51134 16804
48482 42373
42494 9958
3269 52157
36017 11824
56008 50837
21265 26842
44327 20345
47948 58554
65802 43698
68318 35376
67342 56946
65655 54879
56361 38166
25141 39152
22815 49828
42328 67033
25445 16060
7455 65280
1965 10994
55554 40753
13163 39534
1111 32758
21542 2846
20692 29261
7989 14716
55308 56674
16001 52273
41145 48117
36025 57175
2685 15149
3204 42479
21127 28598
10686 55848
28649 48401
4399 37806
10977 59048
24432 9250
7226 34909
52678 11749
31186 67005
3674 53080
46879 53454
11422 5004
47848 32469
19148 37462
13850 38982
19495 26339
23032 42506
58481 58729
15773 38992
37297 37190
3620 44050
66855 1270
60078 45075
26649 40467
31177 33878
42113 10434
45512 60249
35608 40461
9486 15610
38224 8238
50299 65143
21835 37474
42089 55478
12816 66436
21037 54408
42076 56834
33034 58363
68670 38739
65859 39756
50096 2323
31233 36381
183 5536
45070 38233
18362 50579
68088 34715
40507 13453
60797 58908
50151 55194
40664 4103
1864 61967
58896 56998
66099 18983
2734 41554
37957 7351
32968 6501
27218 41257
16996 41969
60717 22556
67024 33770
54019 50340
29380 66882
44580 4514
58582 37577
46518 16157
61676 45954
47514 13963
66276 48588
24784 40089
45234 25646
42041 16473
61065 57698
68026 13026
64280 23591
46830 53533
40607 19498
816 28496
20607 17154
40603 29749
64963 32211
12109 7483
50625 61066
39525 1725
65084 66225
16263 7602
40739 45380
4971 37465
3601 20721
14159 49681
9973 18317
56853 52020
58270 54770
37008 43170
57020 11746
54199 46773
24938 28523
20629 21424
2424 46822
6070 37683
49568 17667
29415 24453
31372 38277
33629 51551
30505 12208
7207 42237
63294 53688
10236 43791
18511 66212
64215 18230
63235 33
9917 25604
32253 46590
65784 44832
66721 45403
4956 31991
68263 16277
9971 49929
40127 60389
65533 42142
35914 51764
60127 22716
42884 62892
65756 7865
34478 59554
54383 47593
60647 25459
45941 11008
32983 68771
57162 38934
31207 48157
13527 25733
59305 59473
41551 3191
37225 59932
30577 56555
23020 15972
29054 51413
26119 59502
39828 7149
63197 51481
56647 34271
20522 35329
8227 66121
21581 60003
44585 36790
67991 34139
19874 16203
35934 14275
36748 35930
1300 17898
34157 56485
18673 36891
6446 9894
40017 43856
27386 26575
44 57867
41806 27745
39053 30436
10228 11044
57164 24703
58112 36908
64974 67569
52723 8496
65266 54764
21056 14803
11343 36571
20195 13152
61435 30817
68806 66887
42722 64526
24698 7763
1904 67368
26403 68510
15119 46487
12774 31579
11101 10071
45517 65434
48422 56536
1720 64813
25469 8655
17772 15587
57662 26297
59194 42594
26061 29247
28387 61397
7014 50440
29561 43192
54993 533
57207 14114
34935 63124
20743 5433
37165 63870
10423 13906
53102 33966
50913 28041
29499 29400
63750 39887
24688 19875
41150 42565
722 23942
64482 759
11700 45117
59255 32518
10598 34960
12327 25728
25210 61031
46302 48970
21088 51582
2440 29353
18676 10619
64270 44903
51975 48690
57921 32117
5025 32524
37617 29088
38739 56764
24389 4064
52432 50272
67063 16455
63782 67486
38001 8485
51272 29803
50387 6815
24626 69
66197 60905
5513 50626
10069 47069
5067 61351
37525 27055
20981 28091
58675 46592
5652 45863
56539 60884
21288 30822
3200 7149
35007 55757
14430 27999
57639 39246
48041 57017
32420 65961
64787 62301
25688 11239
24534 44953
33120 30478
30022 13463
58426 42323
20564 12582
43355 60782
15829 44434
15850 42963
7915 38196
57096 39032
8216 56349
49408 5694
22992 49604
4520 4937
65811 10003
54223 60981
33199 5355
8524 42033
12486 68028
15942 22185
61143 37882
40646 13730
30591 39562
15202 65628
31922 14185
60921 60952
12326 53477
36460 46622
7558 63226
20889 39045
45054 39137
52331 29898
24136 48096
65694 39681
33236 54838
66568 20548
13775 21096
33963 11512
7289 58336
38920 17793
10395 65897
19156 48421
37114 59792
18481 47729
27829 42091
43968 2859
23791 24981
9853 26610
9111 58794
63238 51955
33874 24181
5990 26901
3767 62897
53562 17602
20299 60375
22268 11324
66504 63472
23892 9392
59991 2143
59759 3010
66912 5439
564 8041
4948 10486
35227 21553
51856 15410
52083 25293
37774 43857
113 34090
23577 1490
3739 45274
48632 52454
24089 22145
57845 9226
68700 11998
23286 5688
60538 67254
19827 10114
5720 23459
42553 55486
4300 2642
6517 38908
44091 30155
67410 13893
22472 57833
7378 30352
58247 35996
62699 9382
51838 6940
14578 21380
17865 35681
29906 14075
42247 40109
18019 4609
62681 19256
57778 45880
36917 66289
58973 9707
28092 44175
51391 11653
31637 42001
21752 65569
19771 25077
39294 32154
16203 48577
16012 4673
37556 27512
16178 59378
50174 63498
42792 5049
61420 53590
6266 33112
23694 39419
63744 18131
49612 51033
4827 18909
47011 68406
51024 10322
44610 30803
68138 29107
49769 49250
45815 63510
32393 40323
31045 19681
39026 42614
29163 42484
19041 9352
19333 34756
7526 29605
64519 30231
28045 54646
45290 42954
54825 64835
27200 19650
39152 7021
23693 37880
22687 49009
54845 14379
47222 58941
57483 42176
54983 25378
47361 49897
48884 30864
52219 13243
27315 32705
44060 57395
19400 2947
7470 2600
50728 36622
2135 7305
62272 3079
12928 4010
58937 60896
34786 34085
53968 5768
52890 62102
41067 31958
49346 58005
20112 32078
59000 41546
20593 60578
56029 68177
20800 41320
10903 29730
51950 62612
8017 26105
63487 60624
45529 2551
54322 40248
63043 7943
40957 685
20394 41696
18119 7881
222 47597
24520 57827
24399 39863
53145 28062
67383 12439
68670 49346
1549 47551
17734 54780
6733 56000
64651 46801
38021 11734
3410 12320
55144 51609
34127 40704
4901 48397
53431 34091
65611 52714
19404 19318
31357 47027
23534 19580
60473 15833
42705 24942
1079 67543
29583 62978
14991 13657
30881 63458
59213 23309
40404 25402
56908 59053
40659 37796
48684 15379
57800 7879
15446 31554
15836 4299
5166 66739
50291 57866
33312 52701
18638 20827
32863 32003
22375 32054
48950 19760
57996 33732
36729 30369
5308 67538
38500 37738
24844 17777
66583 894
16717 30099
5752 17901
41186 59466
29267 27699
8171 63031
8841 49857
28949 48276
34761 46797
9502 37194
4348 66
52413 30858
51705 19702
355 25687
48123 47045
63066 62544
64070 45147
36529 64335
17298 44790
61408 40960
664 52733
26007 50523
42435 53884
16698 1151
27539 25657
28331 14877
5672 26069
49492 55329
43910 35242
24935 27210
5212 53348
53889 53138
33122 40856
10028 49710
55205 46591
63986 35112
14104 59048
65049 27751
59811 47718
31430 15274
63887 55038
2723 11072
35194 20093
16781 18090
51576 60037
17929 24776
61681 62411
27086 40384
48640 2701
14571 9181
13020 6025
16508 65741
61460 31709
25742 43167
52407 639
27686 41576
61346 5506
3504 25487
45684 55171
41168 61664
8432 26736
45333 38418
54503 18531
41878 45776
45525 1864
47014 32476
65177 61587
61527 24314
21824 54465
3271 35219
14206 28646
6716 17443
24773 56542
11896 56046
34462 23064
17483 52554
54438 17728
2714 39199
44005 47943
67966 751
5748 36460
7667 53083
22296 6171
57122 27443
40820 9483
49390 22995
56978 4331
31735 65765
29059 56083
52830 30443
46291 34567
61262 13793
68660 64975
55214 10919
18038 431
35857 39708
34887 63283
63653 18586
46530 38160
30752 65866
61989 45273
54375 48440
68563 3320
28857 42700
27848 49169
41353 52247
4304 35124
7498 31009
23674 11288
56239 3785
39520 60669
12206 25461
54772 34432
65413 24204
47820 31460
61132 55474
25129 5749
68256 55044
21361 10039
66174 67325
54450 22371
43846 8727
53375 7001
11899 38785
42498 46977
60345 12112
67359 44663
18296 48429
46086 43846
31627 39510
32188 65869
16483 50608
68209 58181
65969 24087
19806 67230
26609 20179
22540 67460
28675 13489
54307 63705
61860 5649
44642 56547
64771 50527
52475 27247
53027 50433
37063 60878
38005 48985
14069 6729
54414 46110
11747 4432
49631 30518
23264 15776
43097 25410
15890 23994
20227 17707
44248 13602
29585 3175
53295 64583
14647 61748
37636 13276
62888 39745
17595 53266
7469 16556
57959 8320
60371 43886
44100 7964
8427 46719
17429 25401
21419 3521
35942 14515
15980 12468
61104 21024
31851 59051
63406 42548
14300 32620
23480 57486
22789 47353
38466 6511
56797 46984
17846 60035
11275 10695
48807 59698
48237 49509
3113 36112
24083 61981
62096 55752
12421 35660
57384 23921
996 7847
41275 6871
27301 67660
30523 10107
35416 59879
67950 18841
17348 50166
2346 16919
66625 18905
34927 32641
1631 63230
31266 22974
46507 40075
52453 18546
916 37558
64046 56915
55894 52995
37549 5527
61794 2317
42596 35193
58685 48419
42348 56758
48219 4011
16431 21418
36837 65029
23410 27130
6476 30821
8752 26554
59745 9203
15800 44270
65582 28198
45584 1016
38281 42151
693 30939
31919 7587
15685 66680
17746 67720
44498 33285
3619 36767
41676 60832
40824 57698
45065 19643
57660 46946
66931 33893
65624 42986
166 9385
37360 60180
59055 41831
37218 19322
15425 49530
53753 6245
23066 33680
4963 57438
52085 49500
38372 24247
8014 47225
18585 6944
54593 38383
6757 61481
56804 67511
31938 36195
38856 7360
7427 29337
36427 24712
658 28892
20568 21623
52173 26646
27571 46213
65579 15748
51342 41001
6655 57036
2437 21602
18148 46882
19168 30375
38650 27067
19662 29402
1297 25350
17322 63961
18440 4554
48359 53528
29117 8237
26441 19743
17543 31038
8471 51863
11212 449
17033 8586
52205 22276
46636 43652
14484 49093
11936 38204
10446 30574
28645 56838
59688 15243
57565 4344
2533 29193
27795 2256
41048 40022
52960 4998
40431 40993
46837 40167
19101 59059
17029 15643
31436 68539
5333 12354
8844 14672
63342 40572
48081 7818
27220 1298
58833 29006
28158 67105
53568 2302
25115 18781
14030 57416
1295 14042
42516 3545
15051 33648
4502 15503
47881 23976
18784 21454
31665 28706
55815 47460
6709 37824
15392 19146
57630 40711
9890 56886
31354 41465
27304 21046
40352 8181
39393 33629
42692 57674
52942 58450
42243 33876
65030 20574
10829 52107
36549 8893
50288 3955
17851 1294
15184 35759
31362 41634
65138 39281
8242 10508
47120 33054
21019 47097
12343 55846
61885 18752
36330 42537
62699 4597
59114 12080
37524 19474
52008 7279
33939 1488
58177 60449
9300 35978
18220 31834
2337 24872
17533 6517
65490 11912
38569 53207
11095 25649
17522 34048
38635 41747
33844 37775
18366 17462
2037 59631
3133 32692
16432 22359
8449 9178
29890 17931
17278 6773
44334 32555
41564 18031
52931 30880
17987 54866
36247 40143
59545 40411
31608 14109
68124 25260
7754 31546
18891 18919
49218 43176
12537 30546
50721 2501
11650 51763
10348 39231
61613 51553
38383 56564
8593 56186
30781 38651
19180 19687
16162 47933
52872 68017
15281 1229
57925 45246
13450 59306
66996 67094
11964 39711
24435 66498
12246 14076
67650 67509
38701 59591
40807 44145
5958 47250
52243 48107
24700 37620
22079 8318
38869 32143
26337 52403
21054 52558
9882 2194
39847 40330
5654 11419
30972 36976
32083 55809
15568 37917
5670 23668
61442 65008
64213 59546
63484 11954
38246 35886
59558 22994
64590 39370
53896 8244
48108 42316
40602 26665
17054 46771
20132 7642
13894 8435
28126 54313
49639 51137
30403 3391
17196 44238
26119 13651
60043 67685
36708 46817
13762 59360
31324 23317
57934 11773
29641 59330
46035 18503
23939 40053
55008 2868
36348 54271
33881 26098
56104 15009
22010 26604
28510 4856
62179 42963
20699 14438
56435 28646
43677 1533
26552 3028
11379 3460
21935 43337
19380 32459
55884 31114
58467 22201
47400 57107
50446 6360
20233 37058
43237 66070
43673 22134
43618 17282
25803 54421
25351 42251
56472 67040
8576 13362
30014 34458
58766 10900
36924 11135
38062 32840
68706 57482
34014 66402
52871 7234
53510 34942
36886 1680
16926 1736
19401 15672
21927 59515
8191 58239
29444 37539
1503 38988
51383 23504
22294 53232
64423 14763
40832 61020
35222 16027
66469 21464
45943 48736
2434 7347
37575 63582
13515 23331
14776 11107
36589 56059
46945 16698
22160 32359
54438 35082
25017 12216
54784 15517
61599 2619
27261 39478
30001 33714
29712 52057
8626 36029
35618 27063
65366 31107
37250 26406
1931 21777
49016 49510
48656 13699
31762 30414
1741 52735
24173 52536
29099 52820
60715 38311
9557 59261
18577 42877
49318 41420
10581 50774
61535 55506
55355 11380
51522 56324
478 38425
60149 67542
31391 64834
15977 37277
33402 57713
59026 4885
24164 57216
62663 21461
25398 54485
44861 33398
66177 44548
27810 63772
10323 7937
18027 41549
37172 27182
46609 36739
61715 20431
15194 8668
13779 38800
43198 13449
54405 50488
51769 49842
67237 21184
61760 13880
33937 57753
30708 901
41549 12580
35830 27502
4418 48545
51946 68425
44832 61949
46362 3851
45132 26271
9890 61138
49625 40654
9507 28776
53984 67170
36693 40505
62509 36245
4390 46607
57783 39093
39586 9078
1935 10462
47854 37523
43556 5124
16423 39294
60998 58392
42000 32894
30311 20758
41793 14207
12143 13935
51652 12233
60859 60019
4770 3596
61940 36922
57526 30671
1716 41692
16829 43972
51918 36178
46896 2648
17575 57681
1037 51683
26737 25791
20625 46863
584 42023
56150 9971
44714 9441
31476 23288
4707 30276
2873 50473
35839 57943
23808 50312
38950 976
15535 63677
67577 24926
26975 64001
24239 31795
1087 24727
52960 7858
46461 14804
15217 22984
50774 57018
41515 6987
63824 39432
57378 35033
50544 36017
21780 17527
53769 33032
25051 29346
17825 65092
25170 67681
14761 23089
65116 37155
62117 18656
60086 53467
13521 35355
38935 38230
60207 26724
42898 44780
20496 10309
4356 28421
41821 50782
46159 36769
61510 50457
877 19208
54334 24720
54652 37882
36725 40528
4737 56870
64313 9805
64560 64722
35910 66924
7276 38395
29598 20847
40307 10119
31346 21686
45585 1527
28768 39744
25852 15005
28036 67061
25965 68434
58694 24982
17556 34604
24906 39804
46143 28015
40616 64107
8286 46558
39075 32592
46152 66331
39053 20095
27186 47052
518 46112
3496 15826
1439 26343
35125 18208
29010 37015
34615 13727
7990 12477
9208 9035
9485 25373
47016 26041
21855 49137
67746 42141
15043 47764
24805 25345
12133 12870
18981 56959
21864 2762
34545 37173
57103 63648
46958 31790
24952 32672
66626 33311
62826 34950
27284 64365
2034 19265
25754 33495
6702 4425
28214 58253
40157 44492
17236 26211
57368 7198
2800 48808
56616 27904
57240 2670
8993 14337
10452 29847
35543 4726
28470 6987
4782 31030
11233 16090
392 29391
18474 68084
32113 22508
60674 52547
42156 68400
68220 1513
16573 15594
22362 37841
17702 13727
38927 18475
32753 27692
9588 37562
45932 5739
22051 2774
66399 16247
63207 9545
31987 29331
34693 51831
58871 44254
58174 12429
16394 3301
21044 33452
27282 61913
61475 4384
43861 11524
21812 2209
48408 23794
43269 41545
33366 44223
34926 7398
17264 47967
48388 55443
61255 48120
9801 535
24082 19682
24121 16934
10822 42853
8437 543
8869 30489
42459 46753
39093 64786
32956 4189
38080 5520
11054 65052
45807 31305
59923 35596
67037 1005
42326 25432
49404 2822
26554 29989
39919 3318
41436 42961
51382 50879
53948 60743
2530 48448
51941 68170
66979 49995
57377 60253
53683 22774
19723 27551
42638 61773
50620 51105
54410 54211
19279 6281
14970 27423
40443 43913
40708 23605
20274 5261
1793 32973
46200 25254
6500 33419
65248 16177
12976 6562
61368 43384
15778 55258
40173 19988
57746 39072
19961 50667
11703 48917
10847 8669
54607 16328
6877 35252
10998 65121
24021 42500
26499 20377
34338 43210
52720 35885
61618 29434
13159 22939
50381 61176
51792 55366
44400 68016
565 68034
9632 15100
50078 51302
59885 29926
65768 13182
68390 46638
16442 27752
15627 41290
44654 32191
40749 11463
39380 42451
54340 23450
67641 26481
29584 26901
63867 34438
13058 48723
26194 19509
57937 9234
9639 16188
46413 9294
47614 39413
6156 34470
54310 40862
47902 10265
40576 9162
51206 12977
65393 19802
16381 46182
1268 52987
19246 22478
50812 46100
24052 14953
54956 66597
31717 13891
30744 64221
15167 11867
40349 48380
62239 13047
36889 34507
66325 42898
50056 6243
58164 37901
14757 57834
49336 18235
5525 27171
26700 48923
32473 43203
11078 42148
42489 50298
34996 20333
52213 7242
22180 8407
34217 7127
39631 54215
13432 48310
45376 46868
33835 46642
49532 11390
11443 28591
61139 43294
43479 46898
38428 24033
54284 49378
43156 43210
44908 57869
65714 4722
20973 5780
56341 40639
62566 55205
20232 54971
66869 29483
33197 22390
44133 46902
32696 61569
41646 51123
16621 12350
3775 38328
11938 55533
28759 9088
54832 35578
36207 11461
30505 51069
1072 31647
65408 63032
43016 53493
64435 61586
19515 51716
45665 26740
2230 36884
11658 31100
13746 19792
65456 35273
25957 48208
34779 56056
22977 2319
48526 58592
44148 11877
52728 49539
61226 24235
14511 14304
41807 35444
714 25100
11338 25877
6802 27405
15363 54272
22061 68363
19719 19060
42477 52151
59119 29240
58609 60783
66141 22941
49966 67211
55580 55559
58753 20384
68113 7239
51412 34822
65286 34326
37387 58244
33588 6164
38872 54006
26010 4591
55762 66204
64879 51810
52595 55341
35095 51071
53636 28625
51434 19264
14395 32304
1259 63467
29167 45642
65710 31835
12081 34242
26914 46208
50049 21964
47675 29247
51659 59658
66563 19103
10097 51326
39892 34601
20397 32358
64402 48517
64176 59874
35953 55476
38396 12531
2915 42217
2875 65144
28050 34132
8949 35583
3983 18477
38666 47544
18052 18147
30732 63755
12541 30743
34010 11844
23548 52015
29065 48062
51872 45142
26212 21471
47973 56144
18290 64747
3542 23420
60364 58647
54693 30373
38874 64429
9657 20209
21503 37721
31918 56841
46209 52032
66125 52056
49108 60948
51067 37741
41497 47311
50813 50585
14440 9125
22410 64389
62504 59465
56287 38828
41466 47609
15116 10388
12536 53294
54974 60681
7222 36847
16112 52071
10317 20230
19671 44009
48680 41160
16845 30247
6928 24892
336 31178
26378 11557
51674 67311
40568 53472
48688 13549
33362 2520
54398 55370
59444 31620
34799 62282
41163 38946
16088 4590
47065 65731
38442 61422
25579 12054
34094 32110
38926 19483
40525 60191
42966 6439
65028 32104
31846 39644
22112 41996
59259 61194
46245 3667
4077 66815
42361 38495
21501 22983
30209 18990
47698 38452
45181 23131
41919 37535
32180 12144
9174 766
9652 47855
650 4422
58616 26999
33686 53867
11541 55768
29501 30907
34504 44533
18599 60930
46149 16797
65578 57898
23438 20394
11037 20544
37913 31941
38406 38437
56296 51981
52032 25971
62291 11840
2126 45129
60478 40627
52792 26538
43687 52829
42915 37343
55466 55320
355 33476
25889 45108
12591 59792
6116 10282
46855 43261
52032 12769
19768 57415
61905 22578
9872 12257
31917 18703
30001 9984
36748 14301
19870 57826
80 2343
14377 30127
28420 62947
27247 32820
58381 65272
48601 53716
19849 25807
49885 41550
63035 34203
29919 47734
41027 57761
32814 66005
32976 27817
48108 53298
21191 7418
41660 9737
32126 32531
41644 59320
8590 16161
49886 170
30411 15312
13474 58311
36162 59826
57009 54012
66651 3273
42009 8190
11012 50691
25287 40892
34457 60537
7536 36710
22359 31425
51882 64851
30258 64461
11943 15423
50132 64645
59407 41918
55477 8215
52334 20747
13518 6705
54487 55735
10313 11740
20244 59861
49731 67388
51998 42748
1235 14858
20987 14710
42518 39896
34518 31093
56948 41508
25223 54487
42612 12670
24297 57577
34774 11606
39285 20623
18251 26231
42117 41138
20015 14715
34757 10083
23454 54352
30048 46037
62395 54784
12316 51041
44424 55802
14473 1533
48518 5542
63406 50651
10132 33077
20703 54195
51196 5928
47592 31488
23899 42514
4593 28211
25296 7367
35775 44192
16441 61607
61475 17985
60755 41134
9394 18043
25235 13182
23617 13774
29681 53710
67297 31566
57891 5471
62632 26739
17008 12622
22004 60060
51570 28971
49554 26495
47717 47000
68089 46669
13103 58262
46677 58601
41072 52686
53247 43736
20074 33590
51196 43563
45605 49934
57112 35824
13553 68349
62819 50453
12252 58020
29673 21710
41975 68378
67379 32691
48074 56622
24328 5677
18263 22757
60729 13748
25966 3344
29248 4590
737 56026
12502 68749
68114 44313
15238 59742
4965 5188
21154 1283
64849 19844
34443 24617
18565 65957
2278 21235
15235 44703
6996 1970
54655 33074
20538 56164
49724 4382
31667 247
8373 42475
29302 771
46190 38148
9746 66285
25302 42221
25892 44365
20998 19717
66662 42092
44346 48808
44530 24774
21379 60101
57402 20883
38345 41761
47030 46161
35618 6725
41832 47483
38659 19543
33443 34196
28498 11951
13776 17000
10114 50153
34904 12277
61711 67174
60563 6875
17630 60570
61369 35510
31161 22102
23970 38172
58702 13514
3482 15941
28015 60801
29594 2678
6882 21162
51964 35250
23489 48146
2316 11562
13261 67942
22230 13254
5427 50306
64984 67917
56873 4552
20209 59293
41634 7354
65774 47474
2200 2531
35417 10027
53799 28212
18906 63412
39100 5836
4478 2233
50370 52127
43376 58496
47091 32517
17398 12597
63603 8332
44537 7805
44244 43855
42951 14956
3898 594
41386 47702
26389 32733
25319 44619
26324 30170
1201 50489
7230 58426
19102 44998
14348 56335
40832 16320
68193 34729
32177 43116
27378 43408
19172 8340
38776 14385
59234 39461
13692 31589
65038 31547
67657 6207
65354 39141
67190 52256
49437 43501
132 16480
31566 60736
64292 62251
43454 28374
19514 33386
34579 34515
64051 20438
8026 15916
40975 59642
37068 40586
64098 8800
2160 41160
12974 13705
12314 3815
14127 27140
23124 15357
45477 7206
61759 21097
3636 21945
47816 41395
15108 21153
20826 55365
59656 20526
15947 14898
29133 47424
37754 1179
46554 66570
61162 57976
12629 4867
2310 29265
6644 42878
59796 56845
11583 32372
34973 36369
8517 3692
43664 18429
3983 13236
17281 65337
30545 23735
66969 37552
52196 26736
53759 26534
31875 47235
40096 46790
2633 48437
65767 31650
4800 47219
67586 6561
58720 47963
26490 24316
21407 59200
60415 47850
23401 36920
47156 2583
56411 47756
58155 34781
47303 65626
54354 268
19331 15835
31848 57537
63784 25946
65135 34024
64606 53343
29321 29553
55527 20848
5496 24183
1690 31172
23242 47065
14663 23807
13252 6026
10232 14930
38395 21804
14624 19553
52259 21772
22975 23932
6372 51042
62864 4031
55999 3283
54498 45991
196 32623
46195 165
23357 29460
33276 33983
30135 21058
49759 47846
42417 54407
46577 11705
36082 12106
3459 21504
984 53546
14516 57656
25300 59297
32433 42610
46548 55430
40387 51109
22204 40955
66536 47489
14482 13628
10223 26416
59074 115
60534 17736
29562 7958
51019 54730
60788 14978
51114 2628
25463 36512
68606 10788
6018 29991
62735 49561
11529 66883
46093 30219
23833 1355
27617 61849
637 41245
63157 53736
41563 25068
23246 41808
36726 391
34905 4837
24468 33921
35454 24627
62254 52372
7965 5938
35142 50399
32737 41094
66862 66489
44177 10266
49994 2962
54494 47571
28507 6216
62520 60707
17161 33628
33422 37947
29867 48364
30119 38490
42159 38925
21987 5572
51179 31973
59670 19730
52037 35521
44797 29900
15045 10394
15096 58120
48815 54903
1211 12278
42406 66281
20104 22616
5225 10475
67189 48305
46986 55045
66484 12739
23807 679
62847 30199
8196 55717
6763 10120
20614 25860
27829 37634
34205 67056
59394 53277
19047 41627
13518 57721
57450 22484
47380 5029
14566 36252
2437 48201
27061 32578
48080 22883
44982 37928
66384 34318
41892 18141
67469 9846
56924 25347
4180 49814
34360 64781
32346 46596
15721 28910
23600 15104
23891 40020
21346 185
51821 14375
50584 11075
33071 45516
64669 6427
54976 68325
13925 67490
65783 3897
1092 15967
47999 63999
6892 20937
66783 15099
22642 39712
23354 34230
66392 28380
11892 28377
49384 43390
23910 58563
2651 53284
32328 49794
9004 54366
63501 44429
54738 26354
66537 762
58747 43217
36767 40587
26845 19909
48176 53534
14953 65008
60895 59869
23044 26617
33993 29068
54919 806
52481 11005
15538 53651
26975 68426
45207 41296
44368 12989
61949 51890
39978 67809
66803 30625
47370 38665
19659 33195
28600 14773
44367 4281
63579 30729
31604 32076
27183 18141
8660 58214
39926 26084
17657 52141
21814 30394
46268 23799
1817 25386
48971 66818
53017 39362
45268 29536
43860 59358
52787 61183
47414 53509
32868 18463
18088 44344
15101 45439
52018 15299
9300 59848
38458 66007
30619 53708
35336 54714
43938 37028
34246 21974
40290 20556
56765 4402
12659 59652
54384 31529
49647 22729
21329 1975
37318 40146
19837 44911
38695 35926
6999 15463
3698 26776
51349 39907
68232 24474
41570 47635
529 4822
36902 68349
17973 48275
47103 39740
6660 36529
18220 40285
40511 57533
15659 47553
65600 63282
11513 66823
31115 25967
48825 25159
13373 30945
23872 54545
21099 27112
33524 26009
29846 22622
59521 60240
55339 43313
68621 15460
45935 65139
60667 31264
15184 67442
1927 21337
17216 34359
37503 13624
1704 21149
29376 33564
12588 63295
23552 38427
62796 56269
26136 52291
55908 40941
28660 17948
48491 2681
28029 3996
49479 61892
58566 54158
49631 68552
29366 34496
9264 54031
14834 67192
58654 39360
65064 17451
244 41097
39651 21664
38281 53478
36530 24364
67077 48972
19328 1216
18257 27230
36321 3886
27262 13461
51132 30285
54248 24778
33918 41956
68469 50509
50987 40709
12397 48486
13760 29463
60160 52215
19947 6514
54952 54836
9040 39006
55867 30390
21164 19832
61513 12103
23529 11595
10835 57080
59079 9479
31476 48841
66644 39819
26521 42037
22075 28112
44262 12158
34794 10840
17662 54075
6307 43797
10878 53650
54844 10320
45307 16586
14898 37329
34843 17671
25894 60875
46027 65916
36987 36098
26437 41210
41469 14992
4903 58110
34245 55801
64338 66962
5384 50747
7188 57187
4029 33748
33263 52780
47334 22146
44175 1071
50223 44496
21536 67043
16893 29222
27341 58967
62362 3344
43704 5891
25404 64039
65544 19879
17415 60792
66316 3748
10418 4054
31514 48909
61436 68363
67998 13224
35284 43674
5248 13404
50070 64032
22837 42073
24925 56184
33982 56092
63753 62134
64762 48653
67122 35952
30324 12506
37472 54754
26608 21851
62688 59452
15733 1918
67589 36235
58566 45194
2469 11616
2739 60189
66158 31828
60441 22371
55192 34905
12953 6821
53600 8665
63763 18078
34814 50908
38814 59695
49333 16110
37451 22863
26845 58537
41295 59287
59075 52207
64662 40113
46602 8347
67565 22626
14760 19276
53216 37602
10770 15725
15271 612
41128 50562
15835 56839
16254 26454
23427 62204
7937 35082
8730 22865
61201 3955
9401 16441
22440 13183
18634 63237
48168 32813
61992 61730
264 27325
34023 68321
54615 29276
29353 32136
25978 4122
8872 36516
33282 48668
44706 7755
66763 45939
29131 8385
5686 8262
63400 14260
30100 49291
10198 68320
9098 9013
61722 6563
47232 62589
7372 10338
11316 36466
56909 25736
48579 25851
56865 18707
62781 2576
7302 64768
21574 68539
58391 32452
3357 37596
57743 38244
52027 18774
42496 9989
48079 43767
22760 3233
40422 47680
68324 61775
36356 20177
41303 28209
20948 16938
32398 18939
61637 11653
68292 10093
60278 28783
46168 25236
45384 19857
66000 15208
27985 65740
21846 3983
16971 28852
41183 26461
49744 60146
18451 31466
21481 4804
25185 54363
18720 6813
25991 26791
9235 33812
8199 9276
67651 42758
13204 60896
12757 61478
1075 31540
34133 17440
3720 37589
49785 9084
6849 59440
60987 62675
60863 32186
41362 3436
46893 59878
17769 9151
45869 32490
58152 66340
262 65336
22397 57553
20306 68106
57143 20641
37493 2460
46414 3520
39360 50708
50014 37831
55810 7877
68324 21636
61532 16702
54085 66204
22694 34821
26782 49424
3469 20222
41341 8508
6186 66772
52657 35509
39105 14392
1082 17453
31324 10084
595 62931
13054 305
5777 11238
21570 25870
37943 4563
34530 27703
68204 2784
60308 708
50993 65598
39844 42301
4369 14624
41166 14602
64012 59617
3626 63946
37102 65874
14511 19558
3899 26165
63572 48925
41154 24885
17323 54538
13515 55119
8084 14985
46480 34025
21662 18308
64498 10834
28659 2441
4746 47760
3096 16078
14439 39582
3447 32220
43465 62904
8936 51982
65138 9524
47221 53053
25939 63834
7784 50629
46619 39785
38146 15754
23022 45839
23804 10873
46617 34999
24008 36796
17800 61046
59953 8475
21068 40560
48162 34042
38737 525
36989 52487
10573 38851
12079 34131
26865 36139
12989 3723
34967 52300
26981 67427
642 66151
29257 24805
31320 20999
3569 22253
31626 20300
56323 52764
6898 66351
61600 13362
60377 39023
10500 44400
57909 55691
10342 2395
36155 22167
19866 22345
39487 24589
33594 703
36756 53216
45188 67533
10945 15722
66228 12290
32242 55986
18559 30631
49472 66964
18187 48686
14230 31785
11402 8679
50493 20291
56510 59875
57868 68683
57720 24789
49762 9273
15336 45544
13436 63011
5272 49571
6965 56603
3928 32877
25044 33927
38808 14158
5709 6090
10511 26314
41184 31760
33997 6510
57787 66635
57142 58408
36155 55573
46381 49237
31747 11198
30898 33868
33715 57454
10956 50694
36968 28422
31949 17287
48891 27048
36788 63942
23 29193
51970 32569
533 27720
63643 24696
14982 4406
51049 64698
27585 17910
27371 63666
726 50603
8012 33785
54512 50578
57757 39533
6992 62228
67836 6697
37882 68604
5706 43259
18225 56084
64859 11126
39318 54902
33569 37440
14857 48853
53026 14730
7686 25652
17729 10525
33773 7458
29634 19727
21710 15006
972 60464
45290 4079
47645 12319
46803 668
33478 63563
35370 181
32565 56123
61211 27516
17321 60678
22343 11793
50577 26588
27138 59709
14010 50576
61923 68029
48861 28440
15130 28074
29426 261
46224 19884
61677 40429
28889 10103
46295 26850
5659 33128
43457 47646
11714 35644
39649 30909
3578 41361
27791 66077
7078 10796
48315 23436
27214 45365
61903 1036
4983 41289
10543 53084
59090 12976
24851 55089
2797 13139
68252 41930
9961 46643
41655 46290
31102 59858
40718 40805
2052 50427
54844 8176
55218 38080
47366 13810
6009 31628
47767 58892
49419 3656
45975 41670
67463 6492
33630 66857
13495 49376
66787 56628
62147 5038
49823 2310
57000 6097
55445 51162
19392 38588
22373 62772
35223 8891
17226 25451
63533 38808
19457 38865
59455 28555
14955 61976
21812 51730
6021 67245
19337 29782
9656 52714
31366 14426
2043 3307
11241 25916
23906 1914
21111 9319
25123 19462
23862 6747
5003 10793
55341 65344
32094 44849
62983 23829
43308 11117
54062 63828
29671 42890
35235 63860
10161 49934
9875 31447
24539 11960
45449 64071
50260 23723
30424 60326
53588 65617
67489 16519
12367 35710
42010 5243
16509 42252
30204 50512
9668 63117
55932 41628
14061 61567
42024 10923
13973 2421
8382 57075
60278 57513
6743 35311
17620 30098
18788 16532
57275 45157
57999 35597
39701 52818
1070 42960
25848 42799
56266 6341
17680 47378
12661 16068
68737 59458
23111 10874
25348 39791
29378 43829
57963 11140
5634 54690
6386 58300
40938 24620
3363 60296
48839 13680
59936 1073
54455 62440
16860 68177
694 9462
22023 41694
12711 32730
54872 3973
40228 33764
65462 27273
63251 31784
43731 59232
15830 64778
47277 36102
38478 43184
66420 56004
67715 65107
21620 19632
36453 3062
325 66314
8903 63093
27772 276
30979 61388
52228 7336
57979 14064
66257 45891
17809 45295
59893 65969
4071 28763
38560 30574
51903 54287
44953 42971
1327 25665
19489 2605
56543 10250
35590 52399
60886 23794
5544 51511
38684 44405
49230 19095
44749 62782
63606 9588
5028 53414
64863 42029
28493 32699
64912 53890
8537 47709
3844 57250
66107 2714
56851 11914
15815 57119
63328 3960
67653 57641
31369 19598
47428 49207
24508 67703
45254 33951
24766 20464
21154 95
10498 62048
22274 21601
32253 32986
68792 18509
64346 702
25568 52234
55414 29516
62541 36149
39810 1163
16649 63600
23848 57520
46370 44151
51948 39441
47627 42337
65805 22717
15880 41172
67408 61371
65363 32862
66108 29962
36697 33687
49147 65697
65941 21943
54035 43691
21557 14364
43574 20127
58281 32823
28288 65171
15972 2318
50841 38611
58664 67084
829 51294
53990 31367
68666 1595
47969 8529
32356 45505
19046 66677
58303 63969
13167 51624
21333 25561
46917 3492
63036 9243
50009 64336
54057 24681
31576 52468
439 50170
38397 47670
11258 66910
45480 17643
49951 41115
14788 10078
5081 18091
30792 58076
16371 54628
13609 50295
57890 44217
3993 33953
26269 21436
38632 48386
45776 32829
55790 52058
15941 10874
29539 4888
56112 11000
44830 9833
36181 59290
57359 36673
43285 6777
18505 52248
22985 59212
65472 51992
5850 19825
27950 39210
60702 12374
55732 2051
5262 68519
32215 14211
4919 19560
48960 10756
55886 28567
62511 9031
36195 19189
55753 39871
17425 54668
68326 24278
43589 39003
55160 64832
61493 58624
37037 46311
66904 50799
28631 38857
31008 23011
18169 595
43436 21068
24321 40644
22080 22330
2428 48250
25850 63400
22360 13257
25043 67773
22295 32227
62007 53347
43536 52026
68359 55245
14746 19231
54823 39837
63706 39678
43485 5416
54253 43054
33818 58030
18178 20660
22237 3153
56881 2089
42751 57058
24617 66288
29333 51326
41195 64929
15510 23789
12779 39014
5601 3413
67890 24083
30070 45037
64027 33957
61270 24217
19143 30172
30723 40424
7569 20145
18244 40376
55735 32412
45429 53420
51827 24467
52211 13539
18951 6403
29844 26394
57074 8345
53326 42069
605 13436
3756 22189
19260 2799
5710 55601
23927 12142
67343 951
63003 18061
5615 64181
17997 61733
39335 1350
56263 33571
17075 30894
61048 16570
16418 23857
38985 60642
46106 35272
62472 2650
26389 14823
30552 15664
7676 16054
23188 44530
18008 53788
47048 63142
22364 9634
4299 31311
55407 52249
22907 68464
27517 5267
63276 20806
17271 41645
63599 43239
5725 36205
5845 51494
57655 34701
34267 4264
4250 8734
46220 33648
48936 30963
28777 5539
1087 66777
10607 55534
45353 61483
21534 1111
32729 66980
12084 44475
53335 6478
33040 2414
26996 41522
26522 22094
31004 62091
68050 47040
67507 14220
29870 36195
21060 517
15731 55081
47109 3446
57297 46418
34787 18838
53039 14275
18659 123
10948 33998
42801 20294
8420 66612
53097 44890
64126 44899
27987 43112
49390 60798
58917 23779
544 67319
49659 5158
20170 67525
66274 13099
20820 51914
9479 37523
49234 59111
9209 8600
58083 57335
15742 53151
68175 31712
526 60844
50959 29728
9163 35897
60946 42951
65836 56958
62936 952
37869 42226
35046 34551
57135 5455
6659 58283
34455 46436
37425 59845
8553 15368
37460 13875
45912 9269
650 4246
28182 47101
60310 1651
13676 66453
42643 39968
49087 42432
66609 63268
8039 55384
10241 62829
36049 65870
21237 23966
63044 31606
23140 15860
3718 18371
63129 43958
20626 21106
10461 29622
37923 39435
66199 45739
49611 17578
35006 64518
39130 18162
12260 55028
25910 39771
10981 45648
53220 22696
15157 18807
10416 67269
68644 48609
65260 35894
17425 55436
13246 9942
46523 482
25868 46154
11638 3819
56610 67110
56492 68562
12121 3752
20234 43696
17601 54570
52207 54341
32437 28786
4195 12932
19357 41112
46919 65947
36894 10005
522 46653
3772 11956
55729 52954
23904 41527
37807 65543
17623 1641
15672 45288
64822 36526
32226 47730
45782 11141
50376 51318
7921 18431
39436 24190
48166 67207
30228 39827
27317 17780
35749 28605
43201 9004
6716 57560
4927 53961
12497 3096
66647 4997
66358 51896
50349 1824
4015 37382
1575 18835
28446 4246
37368 33903
17556 34805
18138 52352
55937 5208
6311 30193
15887 52408
62133 38022
9914 25813
67631 33336
40950 28154
63445 9176
193 47191
38133 26159
20140 49389
10659 7716
40595 64649
11504 46221
29052 35925
59511 1545
10716 7125
3947 64308
6809 68462
905 22534
14600 6998
66095 61733
48869 30130
68070 38261
32093 29993
24602 51485
52970 18847
55888 32388
21282 10876
20207 23693
31058 14132
67249 34094
10731 55985
39621 17952
51596 27946
20369 1571
63012 63497
64755 7536
55199 28865
35855 50931
45409 45757
36068 7288
60274 32039
28803 54568
51065 44379
31725 18610
618 3027
979 32396
2968 4138
67120 48799
16960 11638
14855 36063
14574 47503
20864 11877
66415 22009
8906 14879
5253 17603
54021 50790
67040 38774
10601 44409
8617 4566
38501 29069
68813 5833
38075 9495
30510 61665
46176 15335
27510 15985
43551 27854
31088 23908
37238 16748
23061 12817
30440 30927
11847 58135
41626 36170
49213 51721
46007 20382
19315 61070
42485 50231
67250 29501
23149 19
61824 16724
62052 10914
57097 23700
39778 36541
65687 50664
10972 8800
32286 15061
48940 62383
22661 59477
18542 11669
60085 48689
42051 59326
46893 56415
68658 21390
47177 3323
67307 13647
52066 3659
45542 24986
66696 5501
11763 51351
62646 60623
49535 5157
56216 50536
16401 11649
34578 40271
45744 52095
48081 42014
628 30582
37204 5226
40439 52752
24209 30031
65212 39698
28914 22723
56655 31506
64638 38345
15359 25126
50292 31585
13167 44141
54319 6108
44977 64035
68690 821
47721 52106
60708 28607
61377 62458
58056 54501
5360 41387
33525 19707
61798 61402
67901 41351
17857 10329
15141 16565
43011 38557
13212 46130
45361 23909
19284 66999
62082 31358
62509 39585
24221 65164
14634 60480
35590 64380
61268 62349
11269 22821
55437 67470
31224 11385
22586 47402
1091 40981
37158 41649
110 37130
12395 362
10252 63984
50659 7858
3138 4145
13929 23875
66269 46692
37613 40871
14568 59593
63097 8635
29241 55450
505 55422
13542 31387
55214 65371
30025 44577
34707 6529
6860 15056
4637 59579
12549 55364
9436 32472
320 46832
42021 61819
42381 45103
36603 60128
48647 60770
21956 26506
55465 18274
17618 5263
22936 33232
14589 15301
67669 51829
50169 41464
7499 62318
15448 45033
32990 5619
56725 45005
46782 26198
1462 8611
67783 55916
68463 28441
68397 10186
60233 54976
877 23955
52271 6119
57348 8579
25034 31768
53999 3098
61791 59122
25368 60106
49059 35785
47219 63775
1553 66214
39161 1413
57531 55711
38224 60903
18252 56724
54398 56045
49555 67703
12084 41484
58161 63312
16484 32307
18305 11886
19614 40650
26802 26092
43672 13164
4919 49501
4973 14001
35056 30528
55286 44529
15844 13404
2282 61643
25716 28776
10248 14540
68314 60199
27940 29824
7047 2196
19626 61759
42660 39296
61062 53892
58430 16461
51554 55032
21277 16007
46721 41493
5095 45469
11098 33722
9395 12987
41540 21550
57725 61512
25231 8491
37601 4532
56935 10692
67239 16376
60913 44058
66782 20398
66166 46505
724 63596
15957 18813
42065 35314
15477 518
3047 13292
20389 45390
2558 33662
32786 34265
67223 64099
18470 20095
46550 51707
58022 19071
35974 59649
3321 1913
51346 49040
26524 67849
50855 27661
5439 22316
18446 43005
31004 39749
16270 45744
57458 44407
47314 15535
64451 8458
3988 46938
17992 19920
38252 14798
16506 33471
68406 62667
46493 12432
48594 60041
40918 64846
8283 41992
65197 18936
51424 2466
58816 25873
10017 10678
47524 55464
10609 40955
55270 34993
65482 55509
18681 18495
54079 30733
21499 33226
42722 34532
7891 21255
64036 30325
59126 32724
44703 8149
41861 10514
35687 67672
6894 26058
23355 10336
24359 39981
60040 16691
300 55164
13717 743
37785 24033
3367 36178
36376 68807
37275 55613
16519 21438
34124 18732
34849 11148
26765 22378
10590 19525
15566 8558
34253 18519
7480 33123
19937 1499
14564 33749
24570 24597
63243 6112
33767 15686
14584 14907
53727 11961
43170 4669
12674 51962
6104 8795
42940 25136
58468 51347
6647 8966
15678 4109
42884 2383
51624 40249
67731 64962
16193 13157
44085 30874
63036 33458
42999 28325
29518 52047
43089 13552
5038 27277
54474 43533
9935 16944
68775 8200
59322 29080
30353 24837
51275 27231
15902 11420
14131 52665
58923 4360
61751 15815
66376 21382
17826 4247
462 33310
54026 58320
40946 27602
21299 19819
48109 51197
41123 35316
68068 9957
38201 20330
2659 67606
44624 37651
8077 63688
6523 46169
19403 13677
47003 62037
26631 26953
1578 58570
50713 28310
44028 61320
40927 10196
59597 26671
9386 51440
27144 51193
17870 52455
7447 55749
55252 37570
18669 37794
40063 2525
52302 57059
26118 18334
10909 58206
16425 33188
3542 34109
10122 46520
45986 44550
1324 31204
31606 14173
40388 3081
58948 38109
1260 12975
23357 42508
42711 46999
11303 12768
32456 58455
55942 6573
52062 58196
6862 38257
6675 30502
15465 61625
48694 37279
24709 21757
36003 8997
36538 35672
38984 16557
33639 11879
30870 39418
5514 28728
40158 52512
47917 34900
41327 20756
46580 36005
13475 24725
34924 3294
44030 60617
65286 18815
15126 45242
10411 65065
49489 43629
35921 46020
4538 58866
22572 41190
27630 45969
56630 1068
65494 54394
48533 54751
68085 51941
62811 60804
38401 31529
1220 63335
30611 50282
52570 32852
18526 8349
39797 11728
2022 46785
54363 41048
59035 16230
67510 29209
6409 43524
52099 9843
68318 6380
61807 26556
8649 17623
47517 32297
26907 40605
55994 58722
33127 8504
61853 32713
29461 57128
3164 51932
46458 6347
38767 16930
39583 37090
39629 791
30433 4331
66332 53030
40247 9987
7461 13523
42279 20879
32602 55700
6206 64825
53449 1902
43365 41788
3300 30734
20229 60600
23658 40365
20492 25077
44251 40707
51291 20785
48071 22614
14010 64933
36078 18219
60666 52834
33398 8841
42150 67678
60409 49741
451 27636
65073 21240
215 19236
50240 41400
45551 52126
33205 64005
53156 34383
32023 30343
42236 26796
62472 24284
14657 24782
27281 8916
3464 5546
42948 22525
9709 19897
26995 4749
1206 43049
24774 59501
61051 22194
14747 22302
19087 4031
7020 43770
63590 68266
34697 68204
37268 36921
41552 63342
55936 5302
40584 39431
68744 26321
20365 68375
51239 47522
20528 45984
56715 65911
29713 2999
35202 37387
37605 56821
25597 57967
24023 12560
34767 44012
56252 4742
14570 50028
43754 29747
54224 23877
66268 43318
4417 23302
43579 6932
28656 22141
28477 68274
63047 1676
2501 57092
39820 11874
42071 53807
13280 68396
5040 31839
19040 23767
24571 36667
24169 18734
39966 9085
49874 28002
61238 56290
32110 67026
53006 33043
8776 56573
35822 25265
13918 34006
24710 38634
15555 22839
44508 46222
8292 42353
46256 9118
8069 65471
20766 19301
59087 64512
10732 42293
19029 26876
36381 7559
65581 38781
18610 52268
25752 42846
28123 36066
62444 61152
808 63887
59282 212
38721 39510
35908 48870
29960 2996
27235 7831
31076 24808
60313 1478
46799 49850
24757 45138
6556 67894
61615 35433
46663 12041
26985 1462
17285 45498
37638 1314
64169 35094
11930 17350
29141 22857
54871 26790
66333 44487
52745 7722
6956 37749
32270 56843
4367 3460
36703 37070
55144 60059
9753 15649
45871 62546
45716 8842
67717 49267
54442 21441
15995 3512
18032 46499
61233 55498
15809 16343
19337 20581
21399 30857
45120 24491
57623 14274
24890 25246
25518 59900
38326 8624
31859 2937
51292 42136
8630 7266
28739 56249
66279 40399
7218 34466
24216 10369
19856 59753
62478 13918
53242 46074
25064 49979
50424 14635
20355 47088
46020 12318
591 13367
27108 59137
45263 49483
29983 6495
56450 55505
21444 48137
13690 59686
64239 18698
3626 32825
60279 65987
55344 50967
42885 61724
43036 37295
13047 26013
50882 26537
24406 14224
66920 3461
30154 23149
44451 41065
55307 48920
15281 62327
25906 15871
8512 50827
43007 54527
33994 1455
15834 65315
62664 29622
60679 30275
42151 33580
35100 53156
9272 52450
41400 33066
52948 50577
48004 67209
61718 42342
57317 22772
54639 43976
16084 2243
19467 45803
52011 31212
34063 30726
43856 947
13296 66908
646 45053
1215 22310
48767 5531
64292 6584
19937 27430
25581 1565
4067 34564
65500 64103
9585 9532
53264 23289
35044 12349
28205 609
45139 40029
12101 28449
57705 34180
28140 2785
58960 19618
12834 31171
21743 22058
697 54839
41627 24566
57429 27033
47297 55168
7994 22705
19912 48747
2213 46313
57530 31756
23145 3926
56727 27078
52797 12970
22677 47887
12985 54794
6153 8213
33273 37103
7295 5463
54027 21926
58049 16744
59194 58318
31463 5844
48600 15576
6481 41698
46822 17039
46666 56390
28357 9932
5801 61023
24985 67723
22745 43014
46465 2734
63402 28450
47852 37471
37427 34668
27915 22740
64872 42400
12871 43561
2513 10986
25718 25422
46347 27954
55393 13407
39129 13022
10253 19259
29886 25966
12208 22353
51653 6845
54475 37451
66153 57059
53728 12209
35349 9412
35960 65612
14659 41331
12687 1547
7489 42985
15120 57080
32034 57181
47120 54269
59564 14474
31963 24946
36319 65887
62415 53379
8856 41916
1062 58464
701 41720
48306 17358
30852 37143
6247 12369
35230 27787
29878 51035
40019 15369
41950 11817
40908 49684
2731 28331
18973 8413
40561 9341
25206 25735
67404 4706
11704 34867
20633 24781
24556 23299
50927 56177
61987 48248
9848 61660
42606 61269
58223 52329
61539 37424
61166 64979
46162 27719
15531 31782
21290 42135
12866 10636
37164 15693
34652 18074
66553 16934
26641 54680
10295 29310
32781 42156
20812 19280
34306 57971
63967 22320
25890 49280
29818 63231
19647 30953
26367 22490
9897 46999
36843 67729
24907 31138
56707 34322
19783 13745
26330 65585
24568 39260
48962 2711
13111 31098
21113 54917
57795 62968
14166 12830
53003 41414
2378 8946
23930 59605
19476 11278
28782 29019
67095 32501
49974 2080
31551 12676
42717 29721
24261 1319
68398 66098
17207 56236
12147 40830
33832 31429
35875 48700
45089 67627
28731 60310
49032 28641
41080 55668
12472 33270
21448 61925
48914 37599
21030 63107
33030 30397
29014 54433
226 26584
20261 63977
47317 6572
68700 22217
1651 42605
18410 8469
58936 63949
24509 60493
54880 20511
65206 24180
1356 21197
46999 15901
49626 34594
7238 14105
21195 5952
60588 59928
28855 41176
9098 22826
12958 64587
54741 17034
29008 3580
19826 62029
56776 2116
62224 62681
42392 60769
56974 38428
65043 10504
63325 23451
38555 44912
57088 49700
52469 19349
43989 341
32962 7284
67242 20717
52539 41576
60634 65374
32806 44064
42063 546
34163 39514
25739 67860
50896 50447
17121 49480
25105 1207
34163 383
16969 24433
38144 13498
910 25309
719 32136
23932 54838
8528 54814
52226 60227
50012 8189
52121 35635
37799 37313
37026 68804
54658 66804
29465 62968
5963 61117
21200 28515
26062 24634
11297 25594
25093 60621
59310 27484
43689 45058
22513 28689
1462 30691
67591 59423
58862 6778
51854 50054
11639 12878
60206 67135
2779 64293
1593 1152
53230 47224
34726 25256
11218 767
23079 24006
63981 1977
47841 14334
17247 16092
64592 48167
55725 5795
59641 6023
51634 50857
54213 23139
12856 11076
1053 24776
59622 46397
19354 33288
35002 19344
4385 28723
30864 66438
36525 14573
22442 35666
16711 38801
22155 19667
10208 11340
61700 9700
37737 44704
23440 35582
14180 15909
12187 33137
29576 65348
2614 15759
43745 34221
65256 46858
41612 44312
49717 36907
17163 4140
59841 60427
10940 32238
31393 67094
48817 1354
50998 6601
61512 26805
34838 58280
45719 6359
36971 20385
3289 60353
27874 44715
33759 12813
42756 23349
12799 3647
55797 28183
20579 59031
61638 27106
562 48146
6202 43485
5889 15350
23413 14183
59001 42547
30761 62641
14423 54965
35896 11650
5141 47363
36156 11477
59412 17188
87 56800
24927 59020
3405 68705
40148 49174
28528 63712
5282 34241
34330 1232
51848 27665
68766 10090
46036 18684
269 13649
27623 65748
60967 59992
26157 12853
53776 26334
23929 22333
41927 39735
17721 63120
19153 34652
56068 26368
7707 24433
41125 43072
38167 14356
42641 32567
27778 13106
55394 11262
43846 18026
68090 33990
4836 52397
19134 61508
42051 32122
45105 6921
38206 10104
3931 27654
43759 13099
66483 23697
53854 66455
7622 37859
48973 1950
20932 17873
38873 54126
66583 34609
39527 54624
44281 12808
63688 10151
54071 17525
20428 30826
15775 29561
39246 57801
18251 27272
65397 65803
6187 68525
14787 56108
44093 46845
15964 39901
42067 61058
37036 35289
34007 44155
6091 57492
37272 17424
23119 14471
42790 46810
20235 57291
9244 20969
54874 9576
36223 60587
47746 4135
66097 38363
48931 37242
1916 60249
2128 60508
59876 56846
9714 41817
5249 62184
67505 35374
16486 11012
25102 34536
54260 1830
33639 29210
19530 8592
46641 38591
3750 56510
12431 23175
2530 4610
10852 1393
4413 8579
5881 31260
43492 54350
18804 43662
6296 34958
63153 538
5062 11637
520 32174
32477 47006
41578 8827
30329 50779
44962 40631
24509 34270
41264 19783
24855 43802
34110 43235
8175 60355
17597 32446
48790 17089
37872 34816
46813 32879
24769 589
48351 29256
38912 41984
65414 60031
67121 11537
34420 5250
41453 17719
4783 41213
26439 106
43332 29918
50775 17080
61998 40774
1329 35514
39692 10207
11189 54210
49694 47624
4938 29785
14475 23819
18876 4095
54368 18709
20547 31468
223 15663
61083 31282
42808 12207
41218 64295
68259 46323
54467 46393
3713 66767
61597 62258
65349 30525
38974 41838
68325 46295
17296 3439
44004 43448
21882 51559
10414 19839
29948 33300
59103 11468
28571 63223
22497 42993
10760 14440
21618 22332
7924 26309
50799 24950
21099 55938
63179 35079
52897 4410
26136 63019
34131 42062
44492 68423
12003 35564
30638 10855
56196 63273
10454 34459
60175 10295
8151 18633
1219 50539
15440 34745
7398 62209
18983 1380
26412 15822
7702 10521
4002 36990
1636 45858
54782 46530
52586 13505
7141 10906
44373 68758
56809 66241
11244 52564
59238 29920
59300 4683
3403 18644
36177 65019
45320 14035
16209 19162
7189 56729
42266 24789
64248 16105
54884 890
42426 62635
25832 63967
21363 48956
13962 31818
18620 26713
43100 64890
6553 32437
49855 17375
24468 21484
56889 9402
41692 68656
60800 15563
68526 11047
62302 1033
27670 25329
5186 37477
52298 5960
35052 33
48742 64625
1420 36082
44582 43518
9365 61079
55412 28993
20795 64187
67133 32526
2988 21583
18753 39634
29977 9197
9579 15038
36734 14833
67630 59217
29588 3613
51672 10089
56348 26239
65067 18390
7557 47766
34858 2176
63620 32239
11814 50769
39092 12450
66381 19219
4379 21708
68009 14070
8463 9849
32455 38532
29378 2032
12587 36322
60083 17714
13685 59231
4491 31631
20990 66142
68376 42057
6473 49938
5368 67970
13858 37818
54320 35136
15939 54867
4240 34435
47013 66072
41688 11794
23797 6369
51059 41859
6833 2222
52288 24653
44615 2289
33240 21209
50083 38410
65002 61429
61300 27517
43366 11067
43920 3905
35121 37273
30711 53163
53500 37847
56058 46316
43913 31388
33685 62309
9137 41308
35245 3290
11442 62631
63460 11989
781 23695
1416 65996
19127 65017
65606 22471
43439 44266
52532 35653
21564 49809
48264 60268
50640 23219
41125 45948
54377 13670
67501 8896
14959 12383
11263 12886
43534 28815
12383 9994
12600 44440
26501 62853
38654 66944
66132 38222
52846 21171
49768 46572
59587 45240
22968 5870
43683 11144
10815 1258
17604 64048
49159 57949
28960 36176
32126 68638
48272 47589
9826 28061
29894 45865
5819 31917
3054 67905
43499 34629
22854 59643
13725 38886
17084 36848
61357 1559
19608 30557
31171 2124
34082 43658
59184 30906
1548 61047
15679 31100
30438 41072
2564 11632
34910 62322
31136 20685
25648 54695
14063 22682
48967 44724
9442 48971
9908 16012
58849 6514
23812 56252
8254 37775
59386 60876
30567 54787
21901 16502
15550 67163
28611 10043
27488 38767
44336 67670
40078 52647
18347 19525
59905 29737
14003 8931
24927 13296
32213 36300
40253 59105
61089 31744
24036 29652
34024 48370
23039 41668
66138 35060
14130 45169
65380 16477
28320 10538
59211 17019
16557 38506
22063 43502
53578 26531
203 13433
22321 55484
65858 22770
56958 22229
36267 37243
66412 20053
818 6524
44358 41998
51997 25961
18421 54332
55173 63665
7511 61797
13758 23051
54096 66902
52289 39677
64761 11449
24339 1226
43435 44521
55545 52555
28388 8118
65777 39153
57060 22880
36036 10256
17498 272
8736 59277
896 1738
26389 32575
8681 46407
56201 29176
28654 275
4243 53238
1913 50597
58284 54827
946 63385
50386 13334
67469 12941
39683 1385
45692 33948
27059 6820
35073 8958
45114 52465
39630 62634
28067 5302
32968 64928
30744 188
57905 51100
66914 1272
24312 34503
15436 6831
23188 39596
43350 3042
6152 48476
66757 39139
6824 7742
9635 13179
25765 67021
23844 275
3307 6310
28497 20124
26263 33977
49963 9165
59548 27597
27710 23199
12208 11871
57787 13791
34014 67912
45982 55886
39063 34520
20707 53617
33002 12461
386 44142
1488 53654
27923 43470
31157 5147
35985 17340
60102 48827
17755 19376
50336 15420
28004 49864
52137 20037
34964 7583
39621 48423
7558 36940
16811 16223
31259 68748
37836 12302
34426 42970
44901 65999
41119 10848
28792 45380
30087 65186
65259 45586
68797 31832
66132 27195
18884 1176
60019 51670
57845 19662
4994 49787
2082 6822
15341 15954
47660 28872
54556 37811
42621 28311
68292 21056
45172 57442
39878 6081
28815 60864
32384 64257
17304 23323
40029 40572
37191 62517
34763 42274
18689 56322
25508 13682
7005 33224
22565 56300
50137 43129
49967 45589
32734 10517
55433 54934
60103 31510
37537 53344
35754 50321
38482 46039
5121 13256
58977 57522
36288 49991
22571 31503
2041 43501
66798 14875
49628 32505
62740 54728
26263 19970
25342 5449
30676 16837
30330 22345
41995 61686
68075 26663
58425 27913
61207 20420
68075 2482
42763 2884
29109 50042
889 47610
6904 39730
22450 32475
8562 41288
44678 57743
46352 23854
26109 57288
41124 24082
61342 54380
63827 9087
60897 53353
19569 36653
47144 15914
63191 15078
26770 58181
41464 63279
25853 66195
20367 28642
56744 38840
6229 40110
44055 1437
36392 23651
56009 16694
12192 60587
48004 3759
8468 32718
54305 8324
49939 57272
12767 15012
12443 13764
60650 48570
37637 14039
33406 11745
11523 12856
3889 19174
57504 14973
57839 1458
35839 3946
9202 58347
31596 47747
25214 52361
56179 7417
33201 44468
33198 46699
29226 26348
21989 47664
6560 11500
41987 3738
7032 3088
58504 14254
6764 2331
25656 18530
24691 52672
48447 49434
44462 66676
49811 43326
11180 63320
8617 25233
66691 42275
50478 34452
8870 23023
4604 56376
6227 17145
34672 33619
46154 52662
66137 19244
57822 24441
23542 53176
66780 8629
54099 33460
1746 13615
28935 55052
40060 61289
24344 29836
25979 30863
55852 46093
48189 34437
48693 33215
4305 1557
9564 18989
68282 7358
18912 3124
36024 41547
10047 4087
45345 66829
28929 32276
28433 16684
15506 43000
50690 36170
54099 2964
57689 35279
19408 25424
55156 9184
65474 26516
37545 7824
21784 60156
47424 50724
41664 12579
16124 6899
5249 58546
56934 68029
3827 9911
40685 35243
35883 61349
60271 63552
53933 37461
49714 25436
23610 19982
3241 57896
58224 14435
9945 64924
24988 37914
16697 6790
67870 49533
66461 64629
5954 48882
68407 2139
28900 14393
68712 28185
51853 5887
48467 19391
20387 59009
62080 1214
10218 44508
17001 30681
2482 10013
23317 55201
38379 50440
55635 8146
27963 35441
51635 14299
17925 44417
59781 15305
51443 52240
54935 31061
67787 23516
54012 2731
48371 44015
41824 5894
6640 8342
58674 62247
63691 11743
4241 18945
60973 36230
45536 36048
66441 66364
37344 33618
42391 42837
20713 6969
13191 60561
57919 11398
24421 18453
16733 52488
38995 54429
14122 29076
33375 20865
10530 7393
42827 56153
52266 52653
54443 45732
55592 11906
25097 36192
2016 875
22039 14817
14847 48909
37646 63652
37183 17396
41016 8154
21971 68161
43227 12341
68197 45193
22269 54484
37150 41248
36360 22458
12222 38120
68677 6249
35789 15722
19712 53618
31938 67476
25670 51783
18163 6838
44160 7333
3609 68648
43245 29899
64397 58777
24264 11805
28867 25773
11161 5262
28314 65078
42440 27965
67706 20380
2077 68323
14429 15117
30297 16961
31947 61362
14013 41966
49915 62597
3715 51766
19050 21690
39368 35601
31984 2677
2535 59218
14709 16021
33657 68060
68403 63976
52878 25066
61761 65873
1728 19904
8550 57510
26863 58099
18119 2368
68410 33174
51869 9776
45841 58406
47572 13503
28271 60251
55536 26083
40332 65026
15331 36959
28516 42320
51951 23540
32421 68332
23289 32085
43728 46366
7784 20913
1499 38677
64983 15387
39465 13332
21157 27990
56111 66193
44586 65270
20003 29621
32874 58274
36064 5707
22707 45137
23080 45062
46585 55059
33171 31442
37943 57599
25919 1751
55237 53192
62683 32812
2215 36912
44185 31900
48617 18456
59415 21214
55804 13953
44903 9471
16029 47812
36148 34901
9669 30795
30064 48431
54715 49817
48787 17291
55368 30904
54032 28182
9775 7364
48182 15503
29425 36588
48808 64227
58687 2569
957 37792
10898 39334
36915 23974
14745 18840
47347 43099
28484 68442
10017 22416
38043 63994
61747 32438
26056 68145
2334 11942
53857 50802
34861 5676
61881 38901
19689 6438
35385 39288
11187 15865
6252 16626
55130 22708
65859 14488
27794 49291
67196 1876
32075 41697
1100 30689
13292 13907
2675 11531
42741 2362
53166 43202
24322 16878
42236 24573
14947 2204
23642 16832
50782 10159
21699 58279
14666 24073
68719 37173
21741 27022
18713 28548
59288 56543
20293 39309
33347 27978
6753 21745
23325 1758
9718 43395
31708 23242
61863 21917
13313 67237
22574 11010
27436 26317
68181 42229
12757 44644
42325 59111
14004 64438
2201 52658
57935 9294
61248 31907
32526 30718
44940 50280
17385 65915
20019 31253
19282 19663
21677 22242
2343 32201
32826 10084
65319 13327
30432 11847
31819 57193
7041 62695
60870 39180
65766 42567
13568 49972
31914 32089
20256 11424
58244 23594
862 68212
28503 20643
9737 21290
15270 39122
59646 63519
24971 751
8348 22592
62066 22258
16224 7436
16035 43406
32059 38011
28483 21719
1427 154
10752 37815
26842 51908
53675 63692
32776 10884
23276 17634
42779 63732
35546 39610
8004 8049
28393 36013
22820 58393
33233 18243
13419 7840
43551 9434
14560 35619
19691 6717
20757 52337
32543 9618
62912 49507
4276 7685
58011 57413
25251 50731
811 10878
26332 66460
20415 22038
49019 49973
56260 17810
45299 24447
67909 11410
67339 63667
11716 8940
26220 54780
33458 9763
44709 38938
2895 38990
62938 57496
31328 32940
12890 25963
9673 3595
6644 46499
29997 41977
64920 6790
25117 27402
18196 6740
26845 51372
57081 10981
53718 7956
59576 67671
7918 35151
34239 8080
31455 65417
3563 50617
15674 23935
32527 35271
48155 52371
66280 56396
36364 4009
22552 24057
18872 33256
62850 32222
53087 52153
30740 45892
27744 16183
831 54721
6083 20196
31061 40163
12910 61744
23994 36720
26613 64289
27934 22225
110 2990
18482 45077
22065 3796
60584 2675
13667 40112
50743 11816
60742 30426
66659 47519
57987 53588
17091 6770
54815 17872
14692 67289
26566 43064
60991 66709
12452 18387
14805 40393
11083 22621
32879 58204
28796 24825
18358 31657
11546 47551
8474 47945
31474 42192
19197 30273
41994 64347
13301 49890
9820 33643
6527 31606
54385 24596
47078 59999
30830 6275
22727 45307
48996 28041
25817 6586
11227 8057
29672 65299
28476 16170
15375 49561
20798 43260
55069 60995
4503 49435
38577 1894
34522 12065
12079 17854
41830 53906
23741 34463
48850 15017
6248 27186
41062 14321
43446 50751
7050 32670
35804 49151
62350 20351
31806 20257
10858 30908
743 66149
41087 65876
25199 26359
54072 60377
49959 11110
59391 51465
11090 28883
42316 1143
22673 6282
30526 6982
11013 63197
63466 21024
25188 56351
53001 68541
59507 53049
8033 22957
7886 13788
52181 3388
17343 1270
28814 51519
5640 13206
43127 34168
4936 34024
13693 21800
62371 48438
65440 1905
3430 6472
30487 21820
68779 51687
13860 28324
10846 2147
27957 13648
5717 36409
12454 43141
33920 6877
63029 66356
40027 56186
51338 47470
8907 23215
44926 29560
31750 20519
34411 29305
22707 34121
14997 58413
16359 6385
54824 31007
25790 22861
20370 11280
62799 59516
6429 67644
3724 63271
10073 66482
16880 42554
19490 18028
3475 35612
20270 48875
19199 3966
41707 4208
17291 5802
49910 40284
22317 50963
23728 8121
8671 9540
22028 4501
50292 62231
5069 53470
21947 17394
18414 57658
24816 48699
25320 67882
41458 41460
31858 38913
31691 11244
57377 56346
53190 66382
8208 18251
62213 52383
62128 19242
59 14562
8778 13309
34201 63435
14794 43950
47715 51248
56107 41731
57287 14921
4476 38455
7010 42420
3045 17535
49858 6503
43404 64605
51264 28644
13939 27586
51034 14305
47056 60573
40525 31989
64729 18117
32973 13800
17412 62735
42969 40180
56560 53358
14081 24354
65643 58087
40052 40694
1538 6005
59177 14168
58854 42007
53820 40717
61801 62277
41390 16277
32303 26596
45309 4718
38436 17309
52739 8194
44171 46376
10750 64348
17100 2203
58237 31779
26199 17520
27088 35972
4786 32053
22744 11264
10554 35783
50731 67634
60200 14266
35519 34977
47478 28894
67089 16375
48639 25684
27075 60961
34620 10102
15081 5319
31771 32392
38085 13295
56138 41321
56367 36310
67671 26560
55058 65042
29991 58149
64565 39639
21818 10714
30709 65430
57142 21529
61419 15054
6139 22692
38663 30201
46111 7944
24869 31441
54435 32745
29532 32068
32122 51850
38591 65061
65884 66460
12059 45063
18678 19099
10477 22974
33933 28106
8477 30747
7799 49856
26608 22316
64582 9537
20435 3299
64853 26053
28649 39568
25079 48116
25250 39602
8937 8217
51313 25235
64716 64744
23812 22685
19169 45249
59039 19367
35415 46317
55019 4571
3521 18906
20467 26665
59214 64502
22912 35874
18839 12768
31353 6508
6403 19113
38179 39148
38970 5478
20840 30317
55639 1932
11983 66935
30788 30417
63035 34186
37164 25885
42682 61085
7751 10767
8347 13943
34333 59259
63076 3133
6031 28309
20910 65187
61900 29944
12399 53599
6003 18198
61295 32671
64392 64818
22606 7247
48355 5350
50218 35096
50055 37456
57023 2786
13854 13534
18665 7106
60335 36015
50085 27621
54824 7093
10378 46701
19187 15473
16107 50928
55233 9456
28407 48045
67564 45106
60602 15816
27391 4910
40718 36092
32181 46791
16692 57130
55553 37879
8713 28589
5050 34400
32408 8832
36774 36428
10821 38442
19018 42232
14389 25705
43366 34991
65933 13589
62027 6004
22872 13941
30585 39416
8761 49150
25812 25554
10588 1613
27240 54309
57880 56321
68045 8097
9772 10745
64695 39475
4765 55299
44481 66870
9868 48242
48504 51362
26340 61325
67058 2276
66015 19387
48742 34544
10049 15478
331 43328
59598 18386
64086 56158
68632 59993
6495 66037
21072 35641
39555 23336
58375 21534
51728 66278
57827 54662
26045 60609
59994 25548
37647 58631
38516 42563
41767 61029
34343 22869
23131 25883
13931 43051
65688 7304
11920 53235
5912 39163
26767 45341
58727 38995
7615 46511
3421 14929
54018 20052
36034 46632
30854 68162
41929 30584
62330 7465
31371 42076
59666 30363
54825 11511
68309 172
49656 47218
52458 58715
15345 30585
6348 65936
19537 30117
9789 56488
63900 56589
49018 18512
56057 24154
61918 57219
42440 64553
63745 10626
19381 12603
30984 35252
20661 40903
27724 6496
8262 5888
38848 24833
44028 31217
10569 56740
10841 53012
53153 57177
66433 44002
30989 20264
20702 56909
34777 25065
32385 50524
31138 68815
61917 52001
22369 1372
64008 30512
28534 9336
55353 36648
3407 61619
11759 35927
36476 29023
44488 18592
22344 23507
22324 36134
12991 3855
12286 62655
11945 7690
60698 1925
15664 20863
8379 16613
17783 24934
42601 20504
35085 7300
63851 57954
57814 15430
43780 26079
27411 7272
2897 3642
29341 1189
59855 8585
21293 4049
68474 43834
50860 54970
40012 48453
25187 40451
51137 29335
39752 8364
36055 9686
9426 18471
28468 17745
68723 20152
17695 33489
49796 9509
14563 62565
4748 59081
28839 56140
45858 32821
7990 59723
25836 23867
41519 45705
42318 16396
5206 25115
64962 27060
27827 49011
50467 14307
31935 54729
60657 55489
50159 37963
27644 55004
32794 64896
68649 31577
58664 63034
26420 18034
41048 58918
57223 52515
38000 57998
21264 58974
61091 5267
2355 57581
63492 11023
22619 56482
25313 64485
58758 381
22539 22929
3907 16790
21041 36164
46080 26108
62543 33203
55704 53817
22781 29206
60331 56990
67318 65399
54245 39702
39706 32818
49753 17995
18468 3441
9734 51418
4896 24234
7196 57955
52937 67694
15908 55456
37294 67585
50179 59409
11268 55092
51098 39748
24212 40045
59375 57253
31027 51052
16168 8622
60661 50856
61795 55226
14828 22469
46639 64689
27520 52460
50106 32933
572 32893
46229 51854
42030 64884
16533 23306
50232 21627
23554 7879
30685 63400
415 20503
57116 10793
14596 13303
48727 28271
35442 51836
38897 68655
42911 39488
54743 64691
68061 23594
2550 999
28688 42001
20619 21817
57311 60114
44455 3411
33970 43112
2223 21422
6408 17088
23715 47777
52884 61577
17245 51061
64468 25922
16471 55951
57897 7030
6166 40907
34471 2868
24709 43899
16721 7224
9514 3990
2330 26073
5955 8083
42892 48965
51014 3241
55399 64095
65504 63603
20472 64573
45236 63507
52083 31754
24953 38797
26121 23830
14088 11451
49651 5762
47163 23570
49912 16475
58077 24669
23493 37927
24219 56423
27235 52769
51080 5730
61963 64947
41102 11295
13902 43256
63779 4798
4192 30596
25900 56652
24925 27089
18621 251
6322 5987
62574 40301
36513 37881
52579 25309
43162 45795
40641 63003
30442 39866
67550 61438
32531 51523
41925 7972
67057 18046
18369 13283
61843 41821
23880 23199
61644 33864
56199 58222
37730 41403
24791 44578
16668 21031
67883 39262
9823 4245
9039 40409
31007 68388
68525 6677
35397 8787
1518 15825
20454 62432
811 19977
16024 61565
11880 46537
4388 8182
31544 30237
66684 65256
3412 16206
35775 908
436 36339
35837 49646
38983 44249
52006 22429
39463 4490
55582 48708
31479 3329
9100 55492
41117 46733
4211 43920
67885 24672
52868 18334
9969 10551
19569 9543
54063 11644
31678 6269
13408 12299
51307 9768
62639 61116
16985 46620
14388 34725
949 30800
2165 43682
53497 53283
54386 47141
21420 27718
16152 26260
38210 14833
37029 55759
28098 31176
3215 26320
65206 4540
67751 48907
47160 51629
55847 34426
17344 2773
8315 60411
15866 28634
6871 47549
36199 27892
51328 16144
62176 878
53116 29751
42644 65556
14204 57692
17692 20482
51974 49742
33277 53863
14022 22890
13619 150
18881 67009
13256 50151
9961 24389
7070 11640
13051 22020
6538 30413
1107 37127
42109 21442
28475 50806
54461 42876
46942 49763
11934 66385
39764 61962
44620 30534
15521 28253
12557 16737
56749 54929
52427 36277
64058 57494
25551 4517
10578 35686
33540 17063
7511 31427
13067 3139
49955 16204
34268 39694
68094 67205
6130 61022
1523 4064
263 17114
59961 53070
55630 17061
37955 14944
48662 13039
49697 45680
59943 30676
1855 61945
44797 45269
37111 43023
35405 31432
35131 55539
16323 25134
7026 56545
47244 42599
39627 2487
52719 49266
62006 36741
42041 907
43184 18749
20376 49794
56069 20537
19327 53060
20243 63379
13487 3664
13703 65836
45558 33942
64286 22148
31585 6502
3315 42904
68110 12339
10828 17985
55625 11461
2179 31480
29316 25357
16298 8371
61288 16486
3982 43692
34887 35474
22384 21008
64599 48138
58557 52110
23158 34365
19039 33008
10174 21591
27116 40742
41503 63331
60047 66038
62380 37896
56156 33924
11106 15560
13842 16524
23510 32113
5585 14942
4099 5401
41622 17455
4995 60903
2569 928
22817 51895
16873 21447
10378 57257
13101 45874
1167 24970
61562 44235
26275 45837
18476 55439
10295 29192
65352 52707
12305 24367
20154 55106
52323 18602
11434 32019
23853 26063
2285 26066
25415 39298
36652 61582
18426 65552
42621 3361
48084 17673
6815 29638
25864 18009
62053 37229
9173 39330
57685 61478
11351 20805
28676 15535
19166 42326
52562 64072
49468 2303
38911 27352
66530 66732
65065 45531
65530 26020
22537 23822
731 57102
5838 26861
24782 13440
25176 25855
24824 41839
20952 41573
67215 44740
65377 16758
12511 8568
59902 19588
54815 35044
11060 29368
64900 50759
55841 54303
21080 6462
3905 55184
36901 62599
1035 18357
6141 27438
68164 52447
14629 34096
37523 11068
26429 6271
58674 45168
19985 32286
57515 31412
68767 1842
61128 67842
30889 48847
68707 6924
50351 57588
57521 58980
33604 50228
40903 11764
52077 61187
21751 18571
60604 47735
1262 36750
45528 13102
31126 44604
7979 49107
51794 10615
35482 67822
50020 60532
19945 53146
7113 7823
56191 42377
51721 47179
45840 48713
8665 66615
7160 35687
26417 5258
14022 41707
6279 17015
47875 17167
20462 46532
11690 32773
59995 59281
43625 17852
28117 64019
22761 48148
31302 68035
8804 16550
40017 41337
56957 11293
50674 39933
27535 51190
29312 59499
22118 65151
32875 68244
34514 55476
42435 34501
55909 60587
60698 5908
9969 57461
53398 55076
24518 33771
40982 11317
6937 44352
39311 47219
62993 48199
51956 38320
44395 65854
28002 35663
29493 897
50017 47750
65959 41801
14443 18081
33360 20292
38269 23449
16063 11797
39111 27032
53429 11241
36991 32210
43879 44786
4533 63200
14507 46772
7662 18692
7851 36189
45317 64112
12878 9878
21183 17507
38785 204
64842 1964
63940 50823
31024 55492
8520 57255
37987 4761
3176 47423
36193 28653
10921 34088
31567 11234
32964 51594
61075 17185
59804 26532
4732 11945
15258 37156
40766 3035
41920 27347
30154 108
43276 9453
42230 65396
18681 29859
43388 61655
43906 5832
6943 18707
31968 44390
57261 63675
49922 59960
65997 22920
61510 40155
13099 24904
54182 67280
43864 35501
38033 26243
8050 14282
21724 42102
58253 61825
65410 64150
48660 66289
26060 7534
3369 29820
13754 58408
20382 19414
19826 27231
23179 33713
24909 63414
9822 14141
16136 42666
52124 57907
63398 60928
57952 42338
37683 32194
65508 36871
64557 64404
53204 55893
22006 33756
46199 51170
22077 30212
27541 54030
16546 33546
21105 67470
7414 14753
56714 33765
6345 24493
3838 45976
14816 22553
2560 1918
37856 8254
63748 10764
47416 63395
24124 20148
6309 27996
32969 12410
18977 48455
59011 50633
46141 55583
60532 25000
57817 51778
14594 22208
16130 14088
13867 43868
56662 16373
12464 5377
68070 1915
22377 4430
56482 13721
56346 42987
11599 58268
66411 50450
4090 51435
63857 61083
62914 64064
53455 36771
11230 9436
9566 68290
6331 26405
2696 45453
61206 39934
55360 61891
22181 13351
47592 10714
606 19820
10893 56012
15438 45167
25334 43208
57016 293
24435 18042
1474 63249
27484 10198
13455 65168
14906 10044
9637 21854
24756 56910
51340 10541
42881 7342
34625 67557
30428 37772
14541 59310
20481 32259
24699 48363
67249 3973
11837 21581
26766 59102
11343 44746
12887 4325
14651 28058
50880 16782
31809 1077
14083 30536
33423 23917
61172 36411
43046 67183
51097 10665
49572 757
56804 32905
59101 56518
19976 48505
44992 64509
10273 22553
41026 60401
22844 20228
25689 15229
5720 15032
44548 15600
28928 43153
44787 65160
30074 39293
9081 60306
47327 67914
27629 67619
10641 33539
20699 68769
68395 36310
29153 27821
37522 68748
46778 60636
17055 33151
7332 43657
29396 21218
48055 4328
10863 42385
56496 34555
40343 43939
58012 20736
4811 5710
33158 12353
48885 58159
26562 49413
6511 2045
59093 24849
48504 14088
14163 37497
9959 59777
38689 486
27376 41679
5711 46383
57314 15309
66514 2629
66391 45476
54494 4830
60035 16569
45639 32872
20863 52664
53332 43462
66096 29752
50491 3325
47851 62480
341 48958
13865 35263
13249 60926
54157 26951
67869 60841
4355 20717
5781 31846
33479 24412
39685 306
47349 7342
53588 46052
11961 10551
55140 29343
30787 54334
39539 42706
14487 24578
47671 26113
40301 59347
33862 10747
29531 5645
66539 56297
63633 53564
42785 42851
57729 7853
16755 24284
62986 36191
3516 6458
3451 33430
39346 55216
470 42855
42438 2312
48414 52757
59067 31522
8947 42795
19775 43543
44828 22205
44325 3317
46980 2953
16215 16685
27973 52191
31223 45882
22381 22354
38357 56414
51118 31496
62694 27804
26995 35931
8198 1805
16872 67448
53096 1809
33814 50527
30499 18718
11741 6678
21888 50760
18315 27035
20734 59606
12013 62843
24808 21449
28295 44135
21608 49372
43671 41980
20826 51858
26074 68640
60910 38639
41728 65540
67790 7823
64077 34575
30474 41131
45781 67741
40737 30271
29601 21813
53584 43689
50063 11153
19608 18872
33611 24871
1832 47779
11247 54604
24326 52810
44222 33344
1612 32733
10180 50160
17834 13262
12726 5459
10284 16231
59400 63025
45191 54346
40396 13628
50624 52081
49801 56048
47372 44521
57350 24165
65906 34051
12964 66038
13374 23216
62880 49161
37101 22601
56136 58301
8232 11122
59918 8491
68121 28700
53796 48187
6956 25678
2232 2161
15167 51032
16905 50943
29878 30186
5464 45826
10367 10488
42536 43481
53850 56573
52639 45978
33906 65474
34089 66540
48188 3054
64143 9509
3930 65374
35456 48278
15389 50372
32722 48725
59908 29173
19566 4447
29893 23808
61848 2789
63184 44260
41348 34670
48223 379
59107 63670
32520 33501
55549 37258
2495 42357
8643 42021
54837 24140
67241 35748
6491 30769
17320 21659
45784 22603
26188 49133
66291 28734
16152 16430
36494 3255
54742 66443
2227 52729
28946 66423
30837 16224
34111 50579
3556 49826
39676 11820
22711 20399
23502 36282
13709 18506
26719 25051
54894 40018
19954 29789
39129 16362
36165 30583
11276 30369
45891 66462
58865 62913
3392 16158
26166 29132
13927 21457
28311 3252
44037 37562
45686 37182
47880 12748
35988 66822
14507 23659
21124 14769
13555 40409
41643 65733
12470 26291
40338 7594
48873 45745
17703 27964
1143 33114
59719 8668
33141 32123
18757 61753
14421 35529
20320 32804
57976 16654
4918 67108
35212 18661
13183 56551
3685 53599
35950 61192
5473 894
51459 68003
38945 39868
67355 37477
54744 8781
41712 49003
25559 37156
64432 66176
67876 1501
63357 44191
61827 66666
21786 57704
52631 57514
1447 3393
3908 48510
21808 25433
5494 9804
60094 27014
21375 45650
13222 20902
8557 20466
11040 23745
24024 31144
54244 48616
901 8908
62871 815
14715 12482
67468 25703
59283 934
60215 12829
10822 60075
41846 6170
14121 12212
34082 43537
12607 24192
49803 15595
57513 37359
21585 19466
58873 39509
28318 68357
15487 51058
42921 21435
30734 68796
35279 41278
23729 47587
2501 17865
10204 53204
32698 59669
44889 11541
33249 63559
53914 16177
37684 5894
27878 44017
47789 21241
23854 5441
48746 55805
12952 4270
21944 22768
64433 3149
41363 5219
39379 16530
67634 32870
2273 42336
21680 16683
35468 64999
42840 29134
1223 28615
16432 9451
3478 8634
7792 56344
13604 44364
15176 41219
6014 27813
27764 14859
36890 51100
40600 5813
6806 50033
41618 13400
18957 59948
16100 55331
7938 26309
19741 35323
48696 57734
59926 52303
7942 42346
64243 48876
38471 67730
52437 64917
8402 67634
45860 42723
33237 53611
53954 18234
44572 28677
27556 33036
7192 45640
57973 3708
1273 42852
29737 56726
41041 55424
50928 8937
65229 31834
58100 65849
403 2701
925 32914
46677 10304
27396 39337
7367 24332
46598 61635
1323 59335
64751 31694
38199 30752
30165 55749
571 24485
57513 31814
45688 26283
16457 45220
18028 11993
7254 29396
28577 4526
18492 30237
52590 39872
41544 14963
413 17487
45293 27672
3933 41799
34002 64198
46973 57032
9858 2933
59508 7803
35691 46066
33651 9428
45138 29123
49882 3747
60032 27128
22629 45678
44206 58428
6891 50545
28114 40111
8323 900
61396 4875
1140 25162
50360 13662
45618 57317
26846 43583
59737 7847
19080 34240
7311 14939
61594 56674
7161 20045
3581 24711
37102 29642
2392 44341
62553 890
31577 23158
56851 48307
29056 63187
22471 46368
16138 19661
55559 36216
46520 32835
45086 62925
46781 39134
29324 49655
6860 45761
25186 29078
35603 26380
1115 20463
4697 5749
7060 66075
17535 59467
31766 50248
30578 29320
42152 11809
33343 15804
66898 29633
37669 21241
39534 9921
64680 35766
65879 41441
18808 16601
61533 65737
24157 59764
19661 14076
27882 50973
14789 57411
30856 48674
46287 6697
12133 9340
15833 19003
27580 62686
28389 68713
45856 65841
41895 51108
30650 32416
3559 43520
37109 9330
14871 66516
34586 11519
3037 7032
9539 56963
42026 33829
43658 37235
50875 15907
13458 32653
11128 2210
53464 28779
98 42469
5012 64358
27491 3698
30458 17358
67778 51012
59233 56237
24116 3125
68414 10234
56198 53428
16617 54741
57226 5911
46924 52797
37521 3615
44125 18400
27860 26913
49065 48146
24998 10460
6052 53261
17508 36897
43352 51099
46282 47920
6988 57432
17647 54879
9484 2814
41233 17722
17911 13613
54927 64444
29820 22063
48339 55952
28803 4310
45901 56433
130 67793
50921 43867
9696 53987
50515 50635
67893 3187
31082 15621
31811 22731
56723 61326
43740 61882
23150 38163
42211 4596
17807 38441
48411 13811
49581 20712
19983 39293
52255 27827
46729 30376
31026 10732
18596 36522
33201 15056
33522 46732
10506 31212
62935 22055
26603 66349
43879 49074
42883 51712
53214 53520
28823 65815
61643 23274
55771 36086
39354 25618
19943 29294
62767 54350
43180 45062
18342 15144
20606 40835
27221 25673
29254 54003
15614 15642
3137 7386
63862 67391
65370 27358
58478 57380
22931 12598
64581 62011
6521 15932
64792 21135
52584 64214
53560 36236
67558 26036
57445 4265
37189 52853
11246 1935
34167 62892
54357 12800
43416 34403
8131 47491
30221 61485
19833 34211
40129 29382
18518 704
9906 60618
59222 55127
6142 43297
7732 11296
6862 40255
9255 34661
67204 11407
13355 13260
68565 44015
30003 60595
67844 21889
27355 19227
55780 18170
42905 41003
695 63137
56683 58291
45762 45734
14207 54273
65285 24310
33780 65089
38697 35597
22114 59779
21814 60764
37594 25482
58334 22823
54880 68750
67818 28110
51149 63168
922 15096
61160 30955
16221 29907
11367 38857
40865 13921
25452 5462
7454 26301
39881 48291
22764 5667
20850 15898
56637 9083
25808 17784
52478 24121
17497 3512
5299 20080
17970 60452
32847 10236
11105 28541
67376 24349
35384 29765
24568 19337
53267 61628
9457 54330
67972 35166
1676 32927
65815 53764
68027 49956
43682 13523
13932 27395
63461 53543
67616 44858
42609 37595
56188 63399
15054 65202
21675 53362
36256 65914
62350 47788
4926 68354
58682 49
4429 55577
951 64696
54797 55394
21522 21516
45968 41094
20954 28155
38381 16565
56561 61820
68280 68392
65187 27344
61880 37432
4068 48209
49524 63323
10668 11886
16861 13866
67217 6963
46466 3810
62429 31297
46680 8950
68805 35620
33106 43713
21858 40075
56860 32272
31326 18612
35873 52088
9137 66531
47113 62895
55286 34079
10828 4844
28673 25139
44467 26888
20076 36367
65022 62163
973 50755
54362 43264
273 41570
11205 56527
40333 36995
522 61826
26347 35925
31822 3932
28662 44475
26749 10225
49365 66687
51483 60779
55850 58940
33413 37827
23741 38580
56412 44611
32687 62087
65682 64578
18142 5093
18096 30670
26887 53757
40970 1153
40434 52643
52817 3733
33938 19652
14921 43134
36751 39609
55516 64528
65442 35522
61640 19292
51223 58047
7288 56725
52850 61931
59013 9705
37905 59399
16931 45742
3404 6338
3635 26015
66884 12833
27600 67838
47473 33426
16307 39419
47626 64981
1880 55180
63542 34651
57227 37848
58732 25063
7960 52766
9848 26932
42555 65820
37903 52498
54925 6441
13546 24293
39241 43338
42011 42953
43263 7850
25632 57563
33952 59942
22699 49555
26929 20813
35 33400
56011 6978
25967 7613
33568 43811
44021 28643
59752 35478
58545 68481
57358 58692
9038 25262
11281 40250
53521 33882
29550 18795
61417 52773
25587 11751
45555 7435
36486 14510
49247 29086
13258 48394
36949 14532
40930 8771
32348 30190
23511 4979
38449 49466
57081 63574
3584 68305
32756 53272
13493 59146
63087 46990
7236 52519
26712 10268
63575 67659
27616 38225
3412 35431
55056 13004
38376 37309
47746 40133
44714 43898
13930 50208
53796 926
56649 52336
53495 36928
65345 51496
22204 43455
55887 51231
65963 39055
38907 54929
23620 65714
2544 20100
24053 3478
28385 2872
46154 61007
7880 46703
18570 19535
39511 30025
15172 2376
4626 36072
46416 37848
5683 56545
60607 24607
5182 21615
33134 38925
9953 8141
64583 63494
21124 63922
57393 16337
56703 49958
68699 61608
52102 66103
45339 15083
3765 24040
47799 12424
59862 49024
36377 829
52046 30431
53816 40326
57841 21314
10027 36645
50047 22334
61074 65971
46171 35348
945 21270
4484 7698
6378 45104
28579 60368
22872 10051
3802 29473
50700 49460
5210 13429
60530 28089
10989 47478
37960 41067
51434 56756
1301 37821
48205 64454
34465 29930
34849 30649
45636 11125
63811 65671
37355 47551
18830 59231
14371 28191
38312 11561
22404 30305
62122 46303
36460 61662
52878 5596
34289 49118
8912 11474
9941 1829
15989 68501
23118 58766
11146 17813
23834 55108
5772 60884
58013 25217
24781 7463
67357 58165
32064 22673
48405 67623
63970 63874
39773 9654
19122 67566
13645 47506
10835 54701
7803 12349
52676 54135
17624 54256
34920 63702
34024 60998
8503 47414
66474 21783
36424 38720
50451 38860
54641 52404
29271 22751
62407 13654
23161 44138
45952 50597
65705 60675
13108 44543
67920 26235
59073 65718
29143 2536
31527 15209
36794 64871
49682 43334
3296 16083
47236 32890
9144 41695
28624 66417
61932 26168
66489 25422
5214 29933
53175 20197
8952 60284
16932 6034
60680 54693
10890 41002
43780 52516
66043 28111
55034 34993
21020 9961
30933 47325
53759 54363
38751 37149
63800 53852
53621 46881
6942 17200
28761 475
5567 18319
46330 12721
20331 28862
52646 39363
33389 50265
14904 1549
32299 54269
57737 55469
2491 29823
4308 15838
11744 30985
7395 47512
64249 35220
10861 1820
29921 36530
16789 64154
61119 52446
48656 12266
29154 48480
35884 35943
53870 9753
60923 23923
37488 20167
5351 45379
28349 35584
9917 51888
37585 18660
7743 5426
38894 12331
18965 41889
25487 9310
17432 19278
66088 8904
7538 67306
3566 50873
53146 6708
60578 2311
17622 40665
15341 7542
24620 14839
46291 31137
6289 40101
31942 31681
45298 52629
57372 63655
26330 18309
45554 8334
19485 37301
39890 31656
6548 19971
34925 7733
56425 34656
42776 65230
167 26909
50784 18851
2084 24239
44423 64627
47379 62150
49545 26620
44472 30841
37560 4909
12499 47998
30835 35798
38818 11157
59614 10870
52801 44682
4549 11111
46536 57973
17694 38149
26063 42114
43891 5678
28245 45930
22779 16250
46650 62962
529 56822
36956 59246
43865 7809
20990 8812
41077 54999
9311 27340
63876 7525
18500 14771
59428 57602
46429 839
42045 59708
53928 62784
12539 20569
12309 825
67464 41519
63229 27678
60091 35719
26639 35836
37014 57176
44975 63280
46930 8467
51384 31230
27816 29639
16677 37928
61005 15861
49523 42803
27434 39592
12765 31401
49885 38855
26534 557
15261 19534
27227 37913
19677 14106
23552 21831
12020 65795
40975 13025
30874 53086
19303 24889
46912 24107
6256 47583
23416 60164
67018 1885
1435 48379
42194 9755
55075 27148
15993 29595
50700 46191
36812 33688
1399 30920
26723 23623
27695 48278
57666 40348
9860 37119
32131 62209
20849 57254
52674 63078
16744 39325
2075 40274
16548 21856
2121 33847
22328 3024
25749 34515
35573 33840
68248 35084
4405 21281
68197 63334
32016 25424
41712 30618
39233 23854
34949 35417
68620 23118
44203 8252
15703 43947
16853 1166
47792 65649
23473 47513
55024 55077
7729 56341
1691 39255
58631 49226
25206 12780
45661 15316
53089 45332
13876 2149
38747 57737
48521 65599
25372 59981
30899 21234
34881 15405
23699 31162
64729 51646
52339 37885
54167 23823
51569 64803
10386 14035
2128 35909
25751 35421
4253 3096
26128 2785
58130 51700
3493 49339
23781 19049
53298 67946
61702 53302
44224 38766
29401 58480
23250 58655
65273 66636
25057 8719
35776 55648
25568 30494
47329 33402
13580 60109
13980 23318
19394 7208
17071 17366
59962 53155
68764 24582
405 67855
62086 67095
64931 45784
68719 13457
32196 67762
38964 59543
9398 35106
60658 10229
56249 1669
25466 44447
44974 19635
65872 46551
41731 38060
25965 48663
43141 60646
41708 34215
12785 40045
32988 55181
38390 3574
57605 21538
28441 32157
56638 26981
38185 32883
40482 49312
16841 24170
10682 32422
38955 18022
4453 6619
67177 41705
8163 7598
62237 17975
1024 21296
9564 23439
29060 64852
46595 22763
37988 67350
17336 40175
39275 21355
15995 32208
14486 64348
65943 5696
22620 18275
7169 39444
16411 59477
2455 51396
62004 30351
34387 50914
12590 49757
9752 25400
19575 8121
8181 30778
13802 14057
28081 7056
27173 62407
62539 20371
7026 6523
2496 7625
38699 42827
32992 62891
31551 36070
42571 5105
15803 13550
58288 11637
40424 2868
45010 11691
59589 21969
22560 583
6609 61773
68722 1876
31798 11873
50520 36271
16776 50061
41440 9580
6968 3154
18457 66327
53892 57022
11297 56313
2937 46024
26484 7573
17701 48262
25606 68192
42725 2710
4937 34138
11470 67411
9653 9930
44365 23409
55990 17353
14949 21061
68512 20737
68735 3446
66802 58922
25597 8272
12251 15461
41207 61032
42227 49617
62242 19886
1967 52672
51487 25553
8113 11801
53377 12658
19426 66287
44863 56265
36932 50412
46325 43680
58986 29654
11017 53278
28909 19824
5630 31247
21684 1667
40478 49079
51928 28599
67472 29781
60382 25448
23935 59805
17139 3242
64340 6280
52878 2824
66602 48839
29499 20731
35336 57615
20137 30209
789 67373
52604 57527
11854 5377
15272 28689
3528 21897
38133 38599
52078 49745
2757 63162
43439 32766
11817 19189
24460 39557
66688 56861
60129 44690
984 21297
4011 37376
23851 35868
44609 33723
38752 9131
33850 58814
42152 11126
504 3145
12147 24755
23232 68396
14551 51040
46008 66228
41917 27646
20059 20496
8899 66627
66323 50466
21148 36121
53941 12636
51631 48939
9742 13820
27491 11620
36341 19095
45063 8476
22666 59092
56965 18338
54342 554
5802 53346
62077 23576
59541 50743
61273 17703
30754 48961
53493 28621
29058 49757
50896 17499
31640 31381
9213 16048
6917 48428
1718 23925
24536 66650
32124 37593
67197 27903
33467 563
37999 36613
62527 65259
19134 13916
33898 8494
64244 1219
66077 42679
28457 38305
53668 9544
45590 11931
16753 25063
53780 30807
886 46289
34754 27571
47787 45312
28751 3956
42240 12268
62979 48506
6401 61083
42644 17035
25645 40580
25313 38108
24890 53709
49333 13288
66490 27436
25006 33935
28403 25922
43462 6076
5336 31515
22965 62062
10162 40760
13792 59194
24952 51943
49635 2403
18411 32245
26869 20264
57840 43601
20470 1983
30997 24757
53052 21126
22068 56201
13801 31538
18486 1884
59644 63374
11428 54851
65793 6554
15598 24553
24266 37549
6597 24778
919 12905
20839 5753
66385 28200
53406 6145
24469 32945
50235 6260
68736 26223
56355 10208
9667 43904
8308 18729
26948 6602
35774 62193
7346 60051
40381 41139
10865 24359
65622 14812
2947 64177
18935 40189
44761 55307
14514 11340
53171 48907
3854 41777
63213 16927
39445 4518
43257 52752
58842 61205
38874 40910
44870 43240
53285 59161
50679 28123
10631 64091
52618 37698
32277 2635
48707 3504
68286 13986
24920 20193
49445 62719
67129 12841
22590 49247
9855 3799
12168 62537
42755 32938
36222 33866
13697 6189
35557 36920
2499 39252
29127 28397
28710 59607
10948 15046
60972 51586
9256 480
13993 52411
30358 29237
53640 29745
49909 57307
4555 36817
5821 46039
46053 42474
2715 48156
44409 46382
38357 56948
26692 42114
62037 50618
14835 64438
11474 51389
7244 8153
37169 34835
33178 38527
50298 68356
3614 11762
67023 44567
64189 50222
63602 53502
13578 20750
25485 37981
57143 55410
28228 15992
52084 32324
708 37585
38121 49359
13797 11999
29970 31949
61155 4078
24188 62103
8214 16956
15520 12192
49158 36808
17787 25248
24952 48415
22771 30780
52490 7074
27509 15743
68132 27912
15586 42551
2884 37847
26099 4602
30988 687
19956 53219
20163 50742
40544 62533
15087 64658
23673 22376
10737 31521
14735 64804
56887 40276
6142 55576
39949 53402
19477 983
53606 15367
26539 67622
48935 8520
12234 2094
17579 34153
28465 24017
17463 36810
15347 32359
48 19156
25012 11207
6968 5620
49166 44953
46080 41462
35830 9982
20127 59201
30786 45246
7259 54545
20634 68012
6717 32582
29540 36353
24220 3207
6610 6300
7640 8192
64270 63509
60753 66378
7908 6208
24813 42554
38093 63056
51453 6305
26193 46878
31788 29307
51901 67238
60759 33340
58054 65602
60545 1879
38771 28541
66785 42906
62871 61320
42490 3498
16090 3562
9413 63742
10008 2500
24664 6891
7015 66618
49461 21121
67650 3490
13072 64048
45666 17069
45070 61879
47165 60010
10366 18310
2239 40591
39970 51110
5262 40742
43693 37679
43745 38266
23155 32122
66774 5369
39318 44749
10076 36030
16650 9345
67063 29600
29129 17955
61685 32757
43373 47868
55618 45368
3990 37418
36534 56988
3473 50989
44314 48256
64725 5544
33974 33328
42361 11926
40792 19074
44742 18207
9266 19565
25454 42219
7325 5172
6403 60307
49788 42235
26787 51374
68210 63780
50950 26272
57334 33450
13714 29007
8022 38218
47265 6630
25450 55348
17149 1702
25179 29501
7284 26245
53971 24039
52147 52635
59589 30575
10358 15496
30463 40827
9959 6594
35751 52894
14376 26497
20505 37265
35490 66870
8610 20002
59755 1084
57192 25194
24334 66934
17176 4127
1153 53597
26693 63762
48581 50557
1614 55567
9293 44704
34445 6742
62461 10412
22911 606
41640 60132
3815 18971
56470 28355
15038 20528
56140 52832
32075 33582
9756 34234
58021 67778
86 43817
46385 25380
941 10681
64085 6791
49731 64475
52750 51979
690 1217
59674 1341
42349 9856
3078 36269
18083 2452
50201 24331
58228 7094
13137 18099
14518 57747
30984 63883
42597 24152
51594 42516
41854 40276
46857 30045
57304 62816
56347 7959
57586 8133
31579 10802
65388 46415
55520 7969
43413 23746
11779 66357
19159 929
40899 28091
38914 38968
15077 36719
3056 10708
39298 31921
63195 5154
31108 2591
148 41264
25870 31711
47290 45993
44226 35499
35391 42984
25884 44442
13730 61438
62521 41491
39089 38174
34129 19811
60694 53715
36126 62753
45180 53233
19314 46413
57887 27632
18534 35183
50554 9777
23957 34874
8237 43400
47468 36959
59153 68117
32208 18376
53724 7199
23145 1320
37489 37510
44189 23540
32451 40110
33771 10389
30110 6684
19323 59395
11750 9230
29387 28583
10737 53778
9866 42069
33778 38078
62826 40624
8381 61834
48145 37960
25796 52644
4481 13626
4494 55007
31916 24976
39498 51294
7253 31103
37894 57668
48859 44193
35015 14192
27082 67441
64181 35343
1323 59454
7023 53740
57667 38874
38188 47368
49762 22472
135 16944
1676 25326
5317 9506
32528 62240
41304 49023
31724 19358
47153 40017
24517 41560
43398 55541
2413 12713
65387 53444
1132 16515
28760 43846
32910 4667
66622 23902
15928 57604
7332 35460
67602 16226
67169 46523
50572 9682
53346 14928
22917 53963
24827 15294
38382 5642
35362 47929
23008 68343
18355 29109
24664 68352
13345 40937
25142 40718
31308 56192
32086 13119
26172 58862
42149 1765
7159 20834
57959 45248
44614 51278
6606 7269
26083 67375
65046 26373
18471 12239
44009 7439
25545 48925
12153 66487
2235 7285
16849 43733
7590 50808
14773 21108
21612 12528
15611 38105
67490 37769
12816 52112
67578 17832
46819 32825
57879 37167
54329 50584
56009 65229
27378 50202
5273 61964
47443 65759
33361 2938
44163 30626
49456 21479
45725 11304
16831 45466
29240 52901
36403 45005
4972 36108
37398 48847
49356 33095
41063 66171
6970 43213
1919 61786
44604 38564
14493 68801
44953 24388
18003 66059
25578 10546
22244 40271
7536 8415
9350 68117
63228 58301
38938 16885
3863 34613
12024 16064
45588 45748
66561 1809
28518 53747
54334 41815
932 52871
50792 56553
4720 62550
20512 9689
63734 37167
61089 68130
1711 7584
15310 21455
3673 56548
6049 17386
13587 11007
17101 22913
22189 8446
56697 7692
49887 67575
34406 58605
58235 66598
56712 51843
50808 42643
21785 64648
44443 62412
65658 46940
55570 15511
37783 57272
48980 14796
20163 1751
19639 46058
28012 45972
19199 33533
1808 8737
47154 28546
36499 49221
6061 21891
53814 24275
45679 5707
30933 4112
24350 31160
24615 26031
25057 38443
40516 8175
66893 60524
49241 64587
13983 51924
20589 60789
40907 33358
15837 51620
18351 62801
14011 52167
46918 37772
35754 59562
38031 66619
32742 64173
44290 19641
12694 30784
44632 25553
53187 29230
56015 65293
44495 53505
22713 21394
26677 43417
54898 24702
21670 64588
18512 58647
58939 65054
42768 28459
25347 42813
60399 21759
31327 58515
67036 63505
36582 47091
23107 53587
27921 32407
25825 34905
12208 23734
25845 15471
1460 11477
54445 54535
44056 626
25164 52002
58669 58879
15576 61704
5000 56820
55627 25672
38499 29849
9455 27351
66534 43490
39138 42931
718 51455
16463 1972
4947 19000
44961 11457
52979 33335
32349 1450
53089 18879
55862 47172
23043 2912
20645 55937
24263 59076
634 49686
63428 68810
48231 54985
24132 27398
37417 1864
53901 12350
67813 44775
9952 22866
37436 27255
24802 31513
23319 8659
60174 47322
63948 25309
51338 50955
28372 66108
42783 13330
20791 14429
28930 40232
67770 65439
6250 42899
29181 38263
21106 43756
14372 34026
7527 17756
43430 52968
25083 15234
47197 21703
63048 42942
20593 24290
2233 42818
26645 10282
27712 19710
58536 61818
9986 20566
47733 35276
58989 23992
9217 44128
46324 24888
11172 51357
11423 9083
31555 21986
24294 66094
20295 5986
36071 29524
38932 9372
3800 365
57875 51528
33452 52566
36187 7971
63257 17753
35518 63067
66758 38754
67101 27160
53435 30978
8008 53599
43271 48816
11227 55974
25178 61826
40560 3741
56571 48077
9445 61709
24719 52215
17765 53928
23904 42314
14706 37128
20817 35524
29875 2458
38696 35773
67569 64490
31684 29632
4617 47294
47106 49103
68224 62202
62276 15030
53193 63618
5556 60045
47455 43784
14623 27635
63971 36243
66157 65446
21429 46527
61138 10378
67065 17833
55133 40224
4434 59667
38406 54050
60098 60464
23527 34982
39483 37383
36815 18370
55114 7674
50804 36443
14003 43048
36191 54672
30661 52559
39083 8212
2314 46481
11204 18521
67556 50466
62002 2270
52063 45805
64299 5219
57052 40573
5023 5245
42239 56263
63328 14551
46332 10158
38109 917
39459 2658
45939 10088
41383 22172
28886 13032
61431 34003
65457 44276
60655 33210
787 1469
64946 19002
23278 11852
52597 37890
41688 2666
30622 40787
2927 3224
17844 61395
3612 34569
47026 34317
1523 31129
7737 21273
64350 34840
56615 23762
15997 42847
50890 46554
6138 30557
55592 19906
22685 26722
30427 60069
50943 24110
60090 43767
30985 7913
9954 40100
32326 59057
65706 15042
46354 57150
27846 13730
21116 23420
48305 34242
40934 36901
5661 5479
9520 46340
44007 34297
33603 56618
46668 13441
44205 47926
32484 758
2092 39107
65766 19195
37618 10565
13312 57382
61066 47800
10978 48601
65034 25649
37823 49359
40941 24420
55730 7143
23755 55865
25049 22636
48667 23095
55953 53930
48373 40250
22596 785
34020 29082
39402 7978
68798 61499
3742 65610
67981 810
7690 20225
9781 29788
11229 45488
48341 25210
48860 36610
37625 57249
7773 24501
27951 48066
11733 20841
2196 10860
11089 21199
52847 21896
61313 24996
25276 14593
10700 47035
18177 59457
57251 11049
23233 47015
68174 56592
59540 55440
23461 13801
46628 47629
47386 27810
3259 46788
5902 9915
9540 46363
45686 8261
29747 40800
45551 30161
65941 63484
39192 60087
47038 62693
5170 16856
2814 18284
36714 7280
16395 54454
52200 9831
9812 28433
9642 66451
40894 16916
41085 57766
22841 10824
23354 58506
28822 22615
41317 24499
6408 32651
24628 18711
48568 25827
24816 27837
42214 38038
48530 52116
44338 65310
32865 5735
25951 41360
42979 44612
43235 39533
33752 10709
30680 8401
13958 23572
1392 5043
27547 18080
24262 9629
7582 51097
65750 7949
15308 10385
47774 21112
13390 20089
67922 57909
21848 22384
45360 44640
12474 36632
45284 21894
32586 54000
60092 63752
51895 65136
38072 42970
22698 36370
35412 40596
68188 47508
16309 63938
59250 42154
20727 66095
11924 68130
19768 12282
54479 62902
65871 21402
64237 48355
39696 25514
57303 34375
6835 27796
7775 11539
26741 50978
6118 10954
23998 15304
61982 4838
5567 51146
37816 58075
2745 25203
34344 67721
39297 28992
62447 4315
38379 34808
54701 30799
48532 63916
54705 45636
44723 42013
23798 42542
58407 2706
8704 51555
48242 60186
31955 43214
39021 50231
60261 66388
52117 8773
25129 68234
24811 28859
32999 58373
27120 8378
55196 6474
45403 52737
13338 48266
8399 57414
53392 1057
27180 16069
4567 5783
15094 47956
29446 17736
31005 28029
32042 66493
24041 14503
31424 22447
5835 31603
46303 17038
22574 7710
31083 16450
54370 65610
9312 66969
23745 67894
4811 5153
40878 23661
68431 26692
23440 11154
65318 43769
6696 26879
40681 38894
68262 28309
47119 57675
7636 47280
52080 2660
46905 47092
44258 58071
48520 56434
1172 2541
24083 66976
31307 29417
37304 14300
40624 59795
22556 34229
49499 60464
14985 10871
62710 16094
32006 19026
61933 41846
55023 59614
35204 31879
52855 46019
51746 2386
58077 38069
6846 22600
31270 15092
178 46368
41288 25911
51603 50558
9992 27944
49686 6122
65475 6540
19094 10436
65213 36770
51278 15907
61987 23224
13477 3600
46689 51734
7161 30605
40783 25685
12639 44623
23195 1769
54606 1621
31346 3533
36367 21902
56682 54574
56385 28719
56718 58431
41816 47304
7086 28678
56155 66586
61601 54502
59232 678
15587 56591
35243 57470
59014 54447
38994 38104
18375 54803
50808 6035
13970 33983
60496 11035
65087 57642
19402 18325
34252 37616
55987 55362
54566 557
19258 65164
43832 66027
12694 15717
48888 43841
51309 12543
64212 26571
54543 12488
43738 29537
21078 28200
2025 35092
54251 28507
54346 9389
15399 22128
58195 40498
4818 32480
68542 9893
68555 28911
64359 62647
16975 4174
64703 19830
63402 46635
45039 171
22402 41968
12534 20524
33741 59314
28254 5259
4271 17757
8784 24533
33088 2563
38080 20353
21178 3025
53769 52327
54117 59939
27146 44453
23219 61149
17080 30637
10128 3506
8498 27136
24557 46064
30961 33445
48677 51796
43018 10147
7566 56592
38368 55412
44501 55654
57689 1969
20364 67081
64705 11991
18860 30313
29957 62944
50686 27177
22867 48251
21786 56997
27293 3874
9089 34300
49831 60670
37581 61241
65490 24218
13815 13814
51338 26833
25924 30598
27416 19426
63103 37718
31920 51489
44512 46765
36137 57261
58992 21366
47324 34536
23109 8623
13110 7759
35665 38164
41088 7798
6323 23678
22130 49437
44230 54062
6284 48513
61889 32602
41205 19815
56744 68065
62830 17374
38782 47736
24492 50063
46561 22975
24498 41835
119 27160
55742 54553
33889 14535
60473 59865
30978 29560
28150 36329
30084 8081
16774 8730
36520 51908
5868 56728
1312 45926
16137 49024
50301 49754
11544 11535
43747 34561
64441 40635
63333 13411
37304 64034
27232 18358
29137 12052
18930 54584
23518 11441
2863 31382
14885 66847
59066 33079
39211 66249
56401 60005
53888 56973
14559 3133
39697 40525
25333 36906
59300 53581
3979 7608
5346 34425
36653 7910
49466 41091
66179 32315
54050 23646
12124 22951
56411 43911
25172 39936
47301 59294
58403 20010
15342 31411
28257 61033
63085 37375
25695 44856
2803 60557
44484 1404
28857 39068
33663 62224
40269 27972
32373 26069
34076 63997
45719 30410
48134 35055
60926 50110
51501 39796
9768 11648
65789 24109
35734 33298
51365 43484
37648 58708
28476 14312
820 63095
40016 40538
37894 23068
48349 26744
57173 7321
14080 10648
50657 8329
3737 33911
47572 59801
50259 29817
51828 1495
64017 11014
16999 22884
51944 40946
40261 10686
5288 42463
4340 26244
8696 40966
25558 2637
35621 46072
58970 25495
66615 25865
63654 54144
27729 30176
63269 10969
3745 66271
25709 51636
64281 23247
60051 9394
60815 45447
54053 45430
30129 25251
29905 41933
60397 28335
15102 15963
29998 14537
45159 56007
63911 44803
32996 56555
29525 61279
48722 50822
28800 37860
34928 40640
11408 47495
16608 18373
2526 39632
34213 60242
30620 16806
4785 3520
36971 26431
48507 15979
53501 56235
14948 54297
66541 3777
28858 20729
50391 65264
50213 967
11204 25866
9091 13468
20186 55668
39509 28281
48053 59268
56218 23391
10888 3392
16559 63668
26247 36315
62551 54413
53412 68128
10470 49610
42767 65542
59229 4252
17112 64547
5585 37745
62269 14156
43419 61660
23106 33673
56603 29450
23390 60387
51226 16266
48191 45128
65006 41301
61696 62920
11267 61842
48192 3551
211 28470
24992 29437
35540 65598
26452 22005
57836 6674
27849 22908
764 38762
454 40136
8237 15954
11006 43853
891 45031
56059 52297
15354 62927
14691 48375
3082 68157
20381 63454
50582 22632
28733 64144
19484 52043
12476 37172
2316 4488
56275 4231
18776 41923
47672 63403
65555 27365
33372 49799
47154 50365
30897 50553
27853 6168
60405 9485
46090 15924
9364 23936
26166 5381
15140 18254
11346 22833
58433 4886
46013 8266
56216 15508
19583 50706
15316 22197
15697 50148
29228 57917
15769 4873
31416 68487
54799 4817
63795 55293
44536 46030
386 18733
52292 22215
44990 10551
38869 31275
68498 8458
351 18444
30817 68367
46329 41658
59601 51370
8619 61739
41783 29659
40098 43746
33742 47405
38976 11165
55892 37579
18312 55529
25190 68057
33857 27250
67399 12258
29702 40497
58716 42533
59585 37623
65130 8879
1135 26744
34045 45367
48310 42866
65962 40676
32261 10787
65112 15703
31639 61948
50695 19006
20499 58817
44383 42800
51140 66445
22627 42762
24665 45696
36968 67917
56229 33828
5490 36036
34973 32982
18643 34138
6507 30644
15862 30181
46902 24543
43262 20625
16968 64141
58412 61691
9939 12778
10655 39936
6515 43640
29697 64752
44491 26163
62883 42050
28584 21006
33971 60100
1424 26383
60142 26120
42934 44203
34444 48789
36664 47668
36851 42597
47447 61288
49575 37256
42686 63204
34318 45917
44702 58349
35008 25917
44499 33009
54540 13862
7184 1542
66387 55055
31249 67344
13140 24305
31012 48426
32989 27492
23597 20164
68523 30284
13346 60518
48225 17683
59597 24362
10941 58121
31080 3742
24984 67076
55640 159
45072 26945
6642 34797
47401 42384
26559 49098
55795 19580
51335 18079
9940 27743
30919 32089
64662 26966
53530 20766
46949 19790
48821 14848
46192 57808
46566 42732
19141 4779
3190 27776
26106 2196
46023 2969
52008 36507
23590 59694
53091 9814
19417 30475
53020 48052
6209 35919
993 21768
30641 35536
34321 43617
9113 10399
37081 53780
10295 2220
27436 58896
47533 10673
65469 32178
36415 42392
257 65857
61795 64442
37799 24357
38791 43796
34524 33936
47076 22476
14796 58677
39365 20443
13132 23908
49829 9697
3817 44470
58905 24122
33476 32834
47350 5368
60862 54136
34308 21455
31959 31857
29778 38768
24939 44069
59376 62037
39877 21984
48218 37358
3312 4954
8790 18668
38585 34477
3314 21298
23206 30581
35576 38965
60749 62650
12136 41357
48107 22866
32687 20036
32032 59320
56042 37247
14937 58584
29794 50714
29527 15428
54784 6834
62814 26760
66415 41518
56328 27116
8206 543
63768 64732
67159 63328
41851 39359
46909 14109
37501 51596
36867 3223
39778 4851
22762 45121
56414 49293
53639 8282
53901 21816
22408 4914
11837 59493
19986 4283
19695 6999
9948 41714
55867 21566
40460 34064
53648 12498
48465 63807
17032 54727
45677 28492
11251 39355
47102 45045
31942 40121
39101 2185
25278 38125
29209 40952
2692 27110
49519 2881
33844 15629
53800 62856
58109 54714
53664 57986
47023 27351
63998 53951
67889 55259
4454 36724
54865 63962
67455 50997
19455 68046
32112 63783
59910 64349
38725 27366
64875 15948
61003 13788
23130 27755
49885 15404
44770 34315
68114 66290
3033 36765
1706 18416
17795 57139
21405 8717
24370 7536
15603 816
2387 27005
54442 55471
44350 39589
43937 60426
56708 46213
62742 24003
48193 1588
17404 13005
48828 30218
18882 18998
46389 728
54359 14914
65179 45410
50605 1019
65669 40609
7888 15896
44919 28147
67375 54048
46742 63502
41208 64747
56559 13878
61739 66300
53618 49505
32356 37320
26522 52398
58796 27714
44419 36997
56156 2053
42000 32096
25373 62356
37230 7164
57031 50541
54681 3130
65907 35071
6480 21583
60602 26266
47945 35261
33681 51707
27457 45712
56005 60105
31898 24983
11782 46031
23613 621
68438 64413
68087 42595
53123 41668
26316 55809
47833 7697
46860 49935
68201 21571
7722 2898
14286 65975
5016 16659
42513 62535
50217 59230
4101 23406
15412 17280
19902 2024
25755 5070
38180 22662
23903 31755
31590 15417
30774 60609
41294 14685
38057 11763
52188 17989
57780 10678
43837 2409
6423 6319
8687 28259
35442 41493
41449 42657
1115 57476
42774 45554
39518 56698
54367 53241
12810 15873
19543 28953
60648 42216
28241 41716
67350 50079
46188 5826
44971 19678
54850 63139
61374 25328
62265 23388
37034 33572
64562 13841
23474 16200
45434 25483
58039 10111
23360 261
29004 38701
42863 5793
65477 22762
259 37552
54625 59876
58945 6555
29217 65888
1658 19255
65592 36458
6406 7963
53795 51574
5893 2619
16842 3582
33728 49093
43779 19407
23134 55213
27268 13522
49108 11863
40371 37347
7135 17553
37722 39515
43178 18508
8890 30355
29361 35760
4531 34857
61197 66962
18556 50113
32329 1333
4908 64474
24065 9279
18911 16171
15098 29800
48647 67515
11054 39254
38574 44826
4594 49315
14304 27645
63913 26569
32052 27761
65935 60904
27351 55038
11946 43203
63793 50900
20471 8982
59069 31607
23643 11755
31335 38896
16427 3608
29539 16173
9707 31951
124 68816
7997 60131
10435 63550
54584 48838
31539 15733
59446 59549
3260 40838
65936 39141
47946 31994
45378 50076
65339 66486
3480 9986
34005 62550
28411 26885
2453 39127
40169 55875
7572 24601
17232 40175
8935 37669
6835 59221
4083 34599
23419 61790
41546 40215
5565 60979
44146 14546
12047 10840
5099 45058
68597 53856
61559 35479
2703 29995
3011 53312
41798 44212
34713 57525
9573 17431
12076 11451
41128 36862
45971 21066
2147 29813
55029 11305
46685 41442
67849 176
66146 15622
38588 15517
7549 6460
21449 41599
22857 63547
27955 34129
6655 15833
66135 19144
2424 26972
20018 30644
46337 38903
23536 16664
20297 12232
23271 16429
65356 62741
61460 34107
42782 43312
67283 63500
50555 67263
45053 10461
68352 56154
40511 64044
55728 6054
66199 52981
38836 63535
2110 29299
40041 36996
50229 38396
8500 24781
2441 32676
50244 37042
66971 19009
19816 9145
15382 66018
25568 48793
66270 18780
32547 38095
7812 62800
63709 45119
33344 33599
17459 32053
49497 37697
19050 25346
35224 60590
14629 13660
56048 64657
41556 25625
34354 28817
36590 1196
63975 3987
56316 68314
60630 65308
14132 60432
13358 52152
37972 6896
9046 48917
37666 18025
33253 24096
8200 31683
28077 5348
18675 13272
61222 17948
18537 45205
33595 58450
50570 37363
44206 51678
57639 27233
12824 55858
38358 60801
67239 6490
44776 21028
28098 11787
22622 27168
44987 15329
7705 50289
65002 39212
29739 65071
12063 16818
65942 60875
25624 56088
61779 28449
22681 39322
32439 13199
53498 28727
40956 64499
6035 12213
6055 60342
19818 24045
10664 68716
16784 55963
3016 56171
37942 24991
42004 50636
17767 66542
37910 28571
49475 51709
30072 21017
15535 6478
45175 56406
24540 55381
55184 59363
68425 20001
21877 2389
8436 49072
28425 49116
33790 31892
22806 4070
34273 64368
67800 16700
7113 65739
23911 36078
56982 4009
28221 61477
28747 9591
44118 43828
21969 13800
8953 36933
53056 5731
27807 23398
45580 17222
40278 46784
60993 45344
56987 15385
31542 11520
45643 6258
58344 27991
5681 34687
8815 15212
45584 39232
34787 59958
63133 33327
45806 15669
34324 32080
39026 27413
51177 36295
17887 56842
23828 48863
16359 35030
4308 14460
67168 29207
49847 1266
1439 25656
11781 21930
38348 19641
42569 24893
34339 57910
49438 49968
53903 28248
57819 22168
59709 58410
56452 60249
47418 26622
2071 5824
33987 38817
3883 19273
62664 55809
13655 29858
42714 18606
43656 45278
27304 63261
21860 59544
28825 38192
37622 422
61136 6837
29667 47747
15687 8619
58749 44053
34854 18271
18172 40437
67105 28965
54283 36529
23733 54296
55537 39731
49909 4253
47685 59574
64860 25617
35969 60738
63231 50188
29952 51284
31128 3555
68162 15048
24170 3185
43084 7822
17465 62455
65194 37520
47678 42297
37527 28773
19369 9271
6336 2295
15851 17223
4282 43297
29970 40985
46055 48771
11737 43322
67721 37324
57346 7590
5705 17779
30421 40207
4041 67158
49492 2717
29458 64325
36832 47121
60153 29558
22785 65821
61959 48709
54829 68777
31676 67052
65880 66091
5461 16466
157 63997
25475 62114
49630 43433
2524 66386
66250 30151
23379 450
58567 29734
60054 44836
39784 44743
6593 54228
61390 3666
49455 39360
35641 28113
57211 31495
68659 1594
15236 58501
40555 58179
17369 21254
62950 34586
13144 5491
6548 42913
51892 39512
32880 65325
15185 61982
11470 61335
11138 61897
9179 17994
66900 25699
46216 53675
16324 24185
6425 34172
21338 50763
23267 20820
14993 52033
27231 32088
9886 60424
54947 37179
2725 59561
9484 64329
33494 15299
52273 58957
57646 25802
58094 27093
11883 44666
17297 9767
55953 22953
47934 39883
28694 11736
40066 37111
8482 20351
26169 44969
61558 59526
57903 57771
1458 22662
39567 31019
39131 68644
3390 17847
52598 50694
58573 8832
50010 1210
43154 4137
35966 6102
8774 24471
41305 36460
31746 21039
63707 56934
54049 28519
66427 11243
7713 4991
5234 12111
57357 6216
12892 27905
61612 23643
37064 42489
15626 21558
36931 54812
6922 27147
1698 43151
42810 43250
44662 14905
49276 47670
64827 8771
62367 38089
10785 28046
45192 53121
30801 10700
27639 32595
42262 26075
21131 50921
24054 51332
2432 7675
52657 11826
5682 49751
2187 35502
15524 42089
38624 50827
42280 49600
19031 12465
6892 23558
21707 5533
63924 19308
30149 40110
38804 62279
49970 57027
65356 45271
43208 14364
12737 65713
64088 4636
39038 26196
9443 32195
56270 28819
6552 36906
33960 43219
54145 53946
45141 54378
20555 64675
36977 43033
68654 56226
43483 56684
53864 58243
49132 54457
52239 56031
45969 61944
63341 35297
33706 58630
37680 45504
18478 4335
30215 28286
17085 19317
68547 43793
66039 8292
40028 55258
57007 58066
7832 54973
36562 37991
35511 17472
37947 30707
28800 51761
46419 35640
53645 47199
26897 57030
44254 62341
2177 66261
11874 53789
35310 2081
55269 36313
35421 22935
11883 42050
68520 52036
8145 39553
22065 1958
43999 16830
33894 998
35087 5971
49567 7554
18984 10202
48441 5613
40659 56778
38351 4508
33884 67794
4315 32843
2602 14842
4643 19673
25414 21070
68437 8809
23127 16253
8199 20158
10579 64871
42642 45104
1361 6696
56035 36032
55366 8846
47477 29302
38711 14341
46020 31098
63771 18209
31828 39223
28592 49024
4216 62961
15607 51423
23974 32635
59338 34955
63521 23347
2702 16965
13115 10399
62335 26143
54593 37661
11918 6646
32493 47990
48111 2935
63285 68429
33031 67380
20224 51271
40739 17387
18631 39528
55629 37906
60445 61673
14005 8547
32853 28916
13336 20916
15448 52118
55485 26979
15442 49394
29414 30730
54097 67943
48868 43932
54931 9683
14148 10201
1981 64106
68100 15050
7324 60701
25871 44594
19663 59797
61165 28753
49668 22273
26753 2408
56223 33683
1386 23790
13996 5379
39251 1247
61088 57542
44463 41667
14458 55975
5584 43489
54128 54653
66640 7023
19190 25478
44516 48722
2107 60897
65536 56660
2784 7975
511 28469
53583 47148
7947 60939
15500 24838
45620 67837
10111 64210
8987 34600
65801 6463
29884 24419
43230 53949
38583 53721
6036 47683
15516 36527
36821 36334
66783 1110
51392 47119
62952 57067
41868 60445
49550 59084
13890 46316
28088 62412
59054 53874
37540 56521
61263 45451
21831 37575
39648 40072
64193 17776
54315 5159
58035 55799
30408 65531
50643 36882
40545 34879
27924 56247
36823 14201
1279 59245
17705 34689
31149 57118
31625 1479
388 776
35873 34327
24347 36293
47024 39178
676 37352
48476 66403
844 49911
59429 12316
15358 15653
67535 62071
12308 13760
28095 25479
7061 6953
46155 16051
60599 34282
62419 28402
4775 1262
55305 39866
927 12491
21179 61916
32778 1476
58837 65881
9449 41353
14402 54870
44065 20558
43774 7205
55743 64116
53038 41651
1729 31807
53035 39123
36655 22602
48175 6930
37504 41395
38652 22675
29060 63034
16927 15335
54178 12483
41562 23469
45436 64863
56684 22187
7100 67552
50058 36377
57385 47991
57069 30365
14838 29106
33820 37995
12336 34872
33184 46957
8967 19599
53288 49294
20500 64285
27951 15672
380 56508
14999 11339
13690 19322
43568 45407
21095 53046
42228 68808
6104 37787
57631 58956
20868 36226
52350 34318
55350 29981
33444 18657
24542 39729
11161 64420
64903 44056
16687 62980
1194 11572
9975 47538
14023 29459
23565 4598
55860 31505
58270 10736
54883 56531
67068 40369
31739 50673
56602 20746
21439 37500
43769 48989
50188 37067
33840 47497
40152 17542
8178 34512
773 44892
29914 23557
11490 24451
41216 20817
49782 21823
36659 16146
4353 44613
3033 459
37227 50235
52076 49864
51788 41228
7 16663
45898 19293
310 31473
60334 23114
58176 54092
47882 32680
55066 36453
44570 43149
62398 4801
3170 37324
387 20786
15375 4602
20348 5973
20569 41210
13372 27236
40584 48095
19616 13965
20306 39641
62345 38468
27536 17860
39263 48564
46657 60212
40062 7664
422 35723
14880 52650
40199 55476
12258 61537
67121 59058
61801 51750
32353 27461
36386 50131
55988 51400
22013 54819
5973 7826
54107 8341
46027 2716
24945 20013
22019 61302
55721 58793
45223 49445
51747 43543
66005 45366
28157 11904
30076 45517
9665 32620
16194 65731
38065 39371
44353 33647
33680 21512
58958 4103
16165 51752
42580 63471
52854 416
704 23768
10269 5355
4669 41254
43735 61451
1348 55336
23809 54898
24152 64792
29435 31611
27886 58294
62120 39823
65875 3809
12135 49472
37823 17869
34577 46283
25281 18628
13288 34177
13940 9547
47942 30171
68352 49183
44164 57086
58266 23722
55381 30829
12017 38270
34368 65098
27887 44865
4096 15543
8286 4620
62502 5360
37447 46847
9027 60328
47965 572
47307 46741
1526 45123
60907 7401
40923 36294
27171 43904
48474 29664
59180 7721
40476 40142
16367 5054
67191 10754
12243 53846
53919 41400
59100 45522
40527 44934
13242 2056
20405 15952
48412 33366
3462 61387
29301 10780
24923 14059
12332 35193
50719 12292
41936 62963
61181 38578
43212 54533
29813 51705
59270 36101
9126 57122
48207 68092
58245 7596
48584 52134
38430 25836
67598 40428
68678 61002
60674 24475
29477 40919
58116 49938
34668 45037
64193 54463
55754 2126
4835 59651
34213 57042
19034 29205
63680 13949
24397 60128
41742 45604
39190 15665
41736 33953
58765 35027
28706 32587
31678 17420
28326 27601
29084 36933
59968 51791
50673 51957
40795 60989
12225 5967
61419 26103
6812 8646
51715 24202
44352 64635
47282 5234
20971 1724
13813 49803
30173 2144
7232 13375
14341 36439
13102 10226
62541 44127
22589 2624
22258 8827
54791 19980
46084 14941
13342 2575
63001 19033
65051 65301
5428 41868
33478 53028
40941 65062
26545 29238
43693 45202
17716 45152
39521 14721
33676 64877
45595 62145
40605 12328
22087 42347
15004 45397
56997 37742
6267 25101
17933 41526
58628 4592
17468 23447
12674 4410
33947 59067
4428 38410
24363 6700
21077 58786
23437 15032
62569 61787
38626 20016
21001 42078
57932 29919
31856 54882
10703 16672
38142 33945
27094 42422
16028 36294
35580 51915
26057 2227
42854 44038
26190 20376
13587 39833
8226 65424
16436 4710
21637 23267
36007 62123
60627 60437
25891 39996
25872 49721
45166 41891
7363 47838
36649 29408
20698 47239
31031 67450
47528 30049
31337 66029
38194 28692
20578 59479
26952 65297
26681 7751
17378 13112
62691 39871
23342 57961
16058 1634
31731 67838
39272 50919
47796 52742
45867 6780
60779 49311
55746 26240
57348 61185
6461 14615
9 62563
21532 57262
67395 7501
51571 43047
48608 36630
45297 33080
48578 35299
65155 59315
17137 65232
28220 41826
54928 54793
28839 51614
26749 27405
13307 43150
1428 27193
59294 11434
20626 29683
60549 7056
46062 26624
63737 46376
5168 29951
35658 64234
59172 55349
32509 44765
18820 50912
19241 36654
38337 48107
54736 65447
28189 40965
40283 19162
49771 52535
54284 8442
45337 21946
25610 5869
45860 54550
30094 39113
37419 43003
20290 22
61656 10319
31804 62405
19701 2001
57893 34022
14570 7454
47173 52969
27302 15465
38310 5245
26516 11269
37968 48030
52051 55520
52300 51264
3689 1367
31169 29345
6531 67217
9523 41371
64203 9945
5675 9042
33341 62330
52958 11153
39395 29281
5441 27858
44658 56043
58585 44667
163 25356
31525 55714
66603 37649
58214 9106
12578 60767
37821 46535
4778 21327
51638 67908
55452 31155
42228 11752
25792 60772
61933 6842
25992 22750
46335 5203
31721 31365
10273 33817
18261 15748
62768 7138
4533 35066
44176 29198
5667 28523
15346 56872
64207 8100
18989 42197
5976 16266
51607 3993
2568 897
14738 11341
35387 43484
58882 47183
60252 54104
30752 38304
30261 63550
37348 42453
10533 18617
17145 23589
47007 21142
2818 27814
48159 35346
17587 28536
35040 44025
35915 22846
63405 2561
59800 58781
5451 45159
10214 52333
32615 34521
28499 66877
47245 52940
19724 1160
44363 40747
16225 62220
54130 17646
47809 40492
49023 54920
4774 30141
27754 18320
48864 47823
63913 9842
3193 23821
32230 63878
51704 2948
60173 64194
2674 8404
5131 21561
19236 20739
1275 45261
37002 28933
56895 14281
67076 14943
7344 63832
64078 67529
46533 34181
5506 15383
28380 14672
35953 11756
19584 1772
8321 34890
165 65192
66722 17747
43171 10607
46888 29749
17545 54619
18543 20560
7780 66954
31935 48063
37335 45489
34665 6698
23578 60979
10258 1606
3947 36836
13842 56252
47483 24080
15835 15441
44411 65686
66670 31527
43504 52506
16557 48270
14885 7524
30422 12388
62326 51126
49358 40344
41870 10424
45752 36972
27799 14305
15301 49259
25157 5385
31284 67139
40335 8785
59477 55579
9733 7286
38110 44248
21564 53387
15213 20592
18836 24735
42130 30897
55925 55980
67315 19731
46884 3462
24342 43977
5718 2115
55836 53448
16517 35704
57343 53057
49305 64029
54979 61449
48247 31923
24015 57021
66463 13342
10611 60074
61602 39769
39199 59267
67542 64114
11633 32284
20784 302
23870 60020
64521 3484
42066 39421
16146 23705
35088 60443
14809 44546
52501 44920
41134 41583
23021 32392
32043 52284
5264 15954
3634 66322
5220 26949
50962 65113
763 43721
11834 43985
20570 21952
6574 14717
58564 15807
64398 51868
1386 63062
2004 37017
17563 58369
45819 46944
39467 57647
52322 53334
51439 45476
10852 20737
30175 27154
2512 37394
65001 35745
19982 66546
12825 20591
67487 32639
38173 48978
19676 9375
67337 1277
40254 6838
40694 40451
42551 3117
48546 54351
44870 20921
36142 56246
22008 4832
5805 66757
20107 43411
11926 60523
2764 4548
43065 68081
57343 7167
64604 47605
38401 26962
29979 45391
54118 37111
918 2632
45656 62354
44909 62004
45471 8157
21395 35110
578 60880
3884 67358
51670 15685
25595 17271
15425 54608
11613 2691
60406 14449
45841 4578
43937 40154
41294 42206
55985 54563
15358 18458
46014 5816
31532 9607
66206 61615
49540 62474
10051 49599
42678 48304
1477 41163
25067 4841
42373 65607
8385 48391
61444 54537
46767 26988
18787 67875
57453 1653
53721 53321
31956 2384
13095 28806
1590 7571
54150 55396
56562 21597
48249 24552
66923 63756
67281 24532
33634 56831
29476 11918
43431 45024
55815 14822
2477 12917
50935 65382
27937 60178
33653 36335
22890 5641
39029 34316
21157 55885
29853 51132
37361 53258
67274 59962
44890 62221
7183 8428
22465 33723
25701 3153
6399 2983
29258 25603
28440 46614
34119 9988
58530 21954
60881 40009
49374 19152
10449 38381
32603 56490
45085 64646
28887 14564
46423 55855
31805 39039
42347 52875
44266 66518
17735 40561
1008 50662
12302 54490
46353 55797
41050 41306
34109 49167
2865 61317
58530 61458
6414 54226
14050 62197
34819 64438
29982 28340
66516 18238
46269 51564
26844 17664
48217 21328
8493 55705
6788 39115
13886 58311
60262 65590
32621 59334
14308 65322
20653 32971
12938 30179
52280 21230
41285 60220
2916 66796
64541 68744
48708 8966
2651 51166
68548 31810
16023 32589
56361 6863
65609 43395
32996 24236
49793 35109
8593 59703
5325 1650
14957 33171
11159 1086
58680 22788
37328 29704
59973 34929
25493 65944
41480 25004
36567 32176
49952 904
4982 12753
58684 21319
42871 1278
13635 42664
29546 22805
66566 68742
14042 18248
63301 32558
67794 65258
59109 43926
46445 29506
67720 42013
5804 27658
9966 62363
65449 68643
4728 22901
50354 42107
16676 42059
44312 67745
17730 4083
56694 27515
20567 46995
42033 2810
66613 32449
28537 37947
29864 52244
27227 344
6600 17641
37330 9871
21451 853
41033 2081
10729 62329
46488 46182
936 47339
6845 16948
65210 57190
61155 68691
22623 25672
49671 20318
45148 46296
25024 15803
52143 61841
5349 19502
17782 55623
755 57396
24928 19500
16253 543
6540 36715
16575 41893
55467 29082
23045 28584
56044 12130
45183 44665
42523 62143
37297 46586
34779 35750
27802 62736
28032 26346
6036 31048
21309 62854
56869 37199
47022 61214
26211 60402
36055 2080
35154 42283
1611 37255
40266 12386
66781 27569
60160 68528
3047 6913
990 64823
68347 3383
39913 20488
67369 56705
25410 55496
3947 35161
65691 63591
56329 59884
19344 14395
34561 21774
39173 14626
47022 9193
12658 56306
42050 46714
64783 18958
11117 50506
26861 46737
57657 32414
30676 44402
40837 39588
50091 68293
19104 49614
36985 67956
30574 57574
22074 485
26263 9087
39102 40175
67606 64654
28990 47003
15247 3333
40861 10918
24003 55137
26328 45295
30675 39944
20291 19329
55593 51526
19069 7864
19764 26323
58544 13441
44542 62534
4407 39129
60782 21295
4600 37529
61764 55799
52421 59613
21806 31748
47371 9031
46736 26509
41684 36168
26159 58251
33767 49160
43769 55021
22921 4425
34734 63893
48646 38527
37685 33660
44789 1028
9838 6307
10487 43764
37078 26669
33645 6154
41504 49011
17223 33968
56018 11555
50806 12105
29582 1750
54510 58065
35070 53922
22739 12900
56918 49663
22199 39475
28135 13301
42910 59207
2866 11964
34191 49875
38966 23305
38680 60467
53359 32368
43966 33302
31977 67602
22711 18786
51915 9772
53253 49652
50398 47278
19642 1202
44374 1443
12580 52587
10183 19690
31321 10746
36687 13140
7257 5402
62130 25492
5113 62232
63751 58762
39905 58640
28111 43742
52417 15588
48861 23895
53332 35349
50147 21818
56327 43974
167 53504
44246 44824
11679 65896
19089 12496
26682 46470
42442 18691
47789 37804
20058 54758
62862 61793
16522 61996
61883 67901
5579 37556
17642 41212
29283 8872
61545 7135
62439 11236
52479 23021
17752 27099
4175 57632
2888 53995
1639 33616
56439 2848
47834 67304
60253 18829
56788 50244
43983 36236
25771 64011
48214 53630
5687 56467
15803 28463
53417 61666
57820 65990
31377 59369
6534 65962
33679 21614
32268 21810
67534 13511
33275 43454
19268 6056
51095 458
44521 9548
35227 56544
58263 64523
62144 50297
11483 51831
50340 57151
28005 68039
19422 35699
54913 44112
25956 40149
9412 68285
66721 13875
1542 59015
48087 57
25809 17114
6222 45944
40359 14048
31868 29942
27157 46738
64469 37758
20136 2779
60456 16973
61881 59575
28565 39157
20891 50289
15256 54974
54343 47901
55556 20539
36180 19698
5794 11449
23352 39028
63410 5826
37123 44650
33248 53605
19450 39101
44680 66025
1679 4014
38564 40802
16909 60810
30571 62482
64697 40266
33411 20508
10165 51903
17075 20972
60843 10275
13581 65633
33524 39375
14132 21925
28787 65686
49942 37247
39649 40793
41281 23761
55981 63761
35351 7556
17207 6941
40724 43932
48648 32349
22504 63905
38517 54633
36776 22383
7204 9224
19011 19842
31314 18490
38237 54778
29338 6346
36628 44275
27456 35191
56340 68336
50269 928
20015 65197
47685 10244
15838 53811
15945 66021
15168 17255
16304 37939
17782 61749
56741 24935
29783 18877
46029 34675
59033 25463
52373 35534
4128 26388
43340 5383
46361 33459
9941 44730
64888 937
61434 22338
50972 39753
43534 11495
4533 4781
13854 54598
39273 22083
8109 39267
23568 35511
38353 37470
15001 898
39484 51067
54877 51054
45299 7917
17594 36740
67891 16332
30683 31006
52785 10647
46314 40578
6900 37744
48082 51699
17814 20460
50128 59499
27808 54318
61224 57578
42398 3606
10570 64114
18626 50945
44193 3084
43073 34093
51667 24253
41275 19380
63573 50668
38388 2145
35318 53370
9581 5580
58156 19562
38334 54116
5452 21754
2819 4078
59223 38660
52520 32912
44781 10906
60691 10456
62886 54932
4330 33428
3173 35616
58701 62772
17086 6447
56386 16296
64804 52295
10025 24967
37773 2671
46704 50201
65244 32736
45350 3110
32885 4665
27310 44544
63075 3034
16700 5251
56208 19934
43283 2228
47122 28023
43069 31598
44920 41447
60362 41042
12058 53167
9405 16444
23638 12377
14132 17095
56964 21457
34730 105
16213 4786
38509 13491
45201 2839
22388 713
38181 24296
55265 22742
34539 57276
5195 48427
9275 48740
59973 31851
66863 34120
7810 28502
51970 42276
66580 62100
1700 52180
11586 4554
59080 51427
42101 40656
64619 60709
61254 50185
55547 7935
48113 47421
60151 28663
19819 35189
7148 22933
25079 19968
11701 29813
61578 11574
51070 5263
15750 31219
59688 36920
46482 41945
56720 55474
26974 46744
53224 37890
35940 25903
67496 44121
57953 4183
58115 50947
51206 53779
57128 52845
42924 28025
29568 33797
12525 3472
19124 34669
58015 21924
41342 50449
831 55387
51639 45029
68087 41396
61090 41107
40420 28549
58704 11924
23346 43546
21407 41380
1826 35598
29864 14488
47250 62178
17158 3897
60833 64080
45297 42056
57674 2662
61063 58163
55871 44964
23659 11800
15062 6605
24559 17648
18832 63115
64848 42372
50613 45715
22794 44561
43737 56710
10139 56461
11538 58511
53346 56939
55208 67550
32909 65082
67300 24750
41260 54845
37997 11980
433 22109
57601 18651
32032 24055
1093 63564
25082 54392
27132 38459
16144 45955
50580 57179
59400 5084
38655 53351
2525 2197
17535 60920
24923 68368
57273 24604
44558 9729
7551 37979
29503 24912
66817 40172
27 59599
42241 10902
59813 21753
52105 40586
52871 30955
901 43300
28072 53447
11249 16403
62055 20643
40426 24929
8371 37340
21125 47640
51960 59039
53260 1141
49860 35622
13239 17438
52955 52743
59783 43806
4159 24449
65996 67292
202 57325
59688 37336
54278 55917
6817 68787
41833 38389
2368 9102
24631 31197
22719 60858
29531 13894
16794 57398
22792 7332
4 23796
19183 40147
13700 68250
59878 6324
35646 36757
4996 29427
15810 46233
41930 21885
9262 25358
24636 10621
19740 64423
60621 31619
26357 61908
20992 62959
53327 34934
48528 46162
14426 63306
50431 7115
60827 3395
11449 11915
31378 43044
21519 64142
40316 12570
29676 67106
4975 40332
13985 32355
39754 11226
44856 1222
63978 43842
45302 26263
20890 18666
67749 32525
20753 11554
44065 41897
13521 39483
67177 31599
9565 26160
38985 2512
21797 31589
30313 57541
32115 38802
21616 58122
62569 29047
32428 29176
47578 24217
17196 10959
6198 60929
23890 17183
40056 17881
42433 49022
13581 51368
43951 46452
43907 30001
63530 20451
20949 41983
65271 47941
36264 66825
20925 8291
28874 8427
10977 33394
12300 17276
986 53803
48356 67251
65333 18055
16780 51697
65687 25803
55666 32204
16673 4493
16266 27808
59422 3272
58840 9661
19743 30794
13992 46261
12036 57115
23103 66313
39646 43619
39188 43569
14025 4088
52738 23932
11136 9468
2193 19064
12619 29452
8834 39227
35143 43110
36637 32562
42122 65463
17534 11085
14961 59704
25569 15676
10008 43817
56983 16491
33963 52336
52599 59679
27000 37950
40583 26080
4608 30978
61745 56289
48388 50004
30393 7665
28535 35206
65430 35460
23356 4603
54541 34205
17589 58928
40269 41343
54266 20621
18276 42572
23564 40497
27257 36600
980 44055
63352 27329
6689 3191
40883 57261
29839 31641
54848 32325
26745 67513
27128 49523
14627 46657
16390 9377
38949 21339
67691 24107
15671 4547
55480 26825
4923 65862
26233 59707
54109 67121
29735 6967
4508 46099
38790 22529
16479 66293
52728 64629
50286 9145
52136 22623
37667 57251
46350 33409
29992 599
23089 268
48078 33553
27311 30366
14229 55964
18667 13294
197 3068
58986 17124
38267 63498
63685 47200
65896 29004
68072 50344
7904 52092
30037 57973
35312 67169
43274 56795
47424 22848
19219 6699
44607 36997
17307 47463
62809 40504
54571 45822
62009 16739
52524 35457
41871 22843
47103 42833
47008 43474
29849 59937
12637 66689
35508 8143
57170 16505
42348 16726
16095 17759
51450 65203
20221 28157
19530 51663
24533 65676
12746 17195
51930 8336
46492 21673
63072 49177
62766 25905
11444 58752
30659 13030
38360 67228
9457 51258
48731 37580
60307 46016
46077 61726
5998 21253
24138 66920
55757 9563
20768 41280
51452 47754
48273 18892
40598 28822
23310 58763
31005 61428
27067 21948
35097 52774
54026 62691
4449 26000
66603 19497
29067 21511
60581 60837
64039 32264
51937 38373
67081 45751
46387 11409
66370 47742
49120 29865
4925 15140
43003 29813
9824 27614
17567 771
11659 66574
9123 14382
19500 63601
16080 28755
63957 2249
21384 38228
11127 47363
47590 10358
63972 37418
65616 64953
1047 64326
19367 41446
29034 23781
10415 4502
59878 57412
49727 56780
63028 25256
51060 28520
12105 45616
34769 57119
25603 42345
26538 60126
41953 49031
67775 61471
42162 33306
4337 24481
32867 46094
44824 13240
47389 20959
23770 44690
25697 12454
27621 64745
3414 13057
2993 23556
28083 38979
17016 4820
65605 26339
46107 35397
31 12101
51228 10344
16792 33193
12211 9396
39774 30548
61387 67614
10551 45997
13472 28049
52811 26049
31125 9843
29480 42815
68389 8354
44579 19282
21271 50130
8647 65879
16890 19317
43372 661
25673 4155
47003 11217
65629 38777
46648 34106
63217 51985
41257 58922
63727 17743
5376 27151
16417 32286
39830 14663
47848 58204
26544 27596
45829 54402
35500 8472
28533 18266
6335 38666
27925 21032
873 62722
61188 42923
30602 19370
7291 38784
13266 15645
30766 16320
29026 16695
62372 29313
65565 67102
17644 9189
2159 60389
22674 48389
34672 60128
58897 13382
59524 14622
4025 35859
23263 53665
4223 65779
49238 45395
61262 23350
11775 7185
40696 3888
61673 33760
21725 10327
39876 19975
37873 63567
40027 14223
66300 60282
36692 17972
25184 20754
35649 7875
47450 18040
13200 21010
47488 22704
36379 43933
5368 3140
53465 65373
40639 67859
29675 62891
58424 20172
30053 65670
5375 9517
41863 37043
15006 61185
61985 2840
63548 22182
52176 42298
30808 29942
55910 12691
58949 22884
10654 68397
63224 16201
62942 10370
48706 21094
32449 10896
19953 4733
61781 68242
58377 2921
20828 49592
22843 38333
30108 25990
48391 3157
40444 52294
26551 14875
36153 53876
62274 14666
25898 47240
55052 35747
16964 40918
58399 65193
42161 20454
45418 9756
61705 13269
45424 32226
54370 49565
12356 6236
52791 25338
14268 48531
11687 42845
60781 26207
43791 56829
12222 43911
21506 14044
979 43343
62416 35509
56909 52681
26581 14844
15315 27675
6607 41496
41264 33562
39512 22474
62749 37969
66147 4834
31488 1782
31895 12754
49485 50032
40529 57197
26984 62771
58160 61474
59998 17168
32117 63750
21490 13055
33045 60974
519 35928
3144 15324
24911 9946
44676 15967
30651 6895
47541 26528
48749 55002
59206 4431
3942 47679
52783 18967
56605 470
26967 49862
29598 20251
27783 62410
65015 57917
57854 43843
45732 35677
38306 38302
7457 19340
65096 27845
24032 66767
11681 14919
42580 30793
25844 32904
50048 21389
61864 26435
17856 36957
18762 6976
32362 25866
17962 16138
57172 21061
15732 48848
15832 6025
67686 41637
36908 50834
6826 17524
11556 31395
18428 17551
48287 14681
59520 45373
27964 7999
10800 663
29104 34616
29845 496
63245 25011
18910 9124
23061 40952
52248 59762
38554 43656
35363 40648
46130 31370
50748 30229
19496 11143
50226 40884
27284 36674
4341 68014
68540 49064
33774 42960
52490 17478
13541 36115
31788 33053
30222 44170
23245 14260
47473 5059
67362 16133
68320 22244
25202 64651
50190 53532
58600 64249
864 37266
39621 56808
52269 49517
51875 44882
48148 16083
56912 66971
18503 42054
36390 17781
62643 53160
3226 42276
14520 16012
47473 865
34700 33870
39561 55798
7791 21145
27849 50477
59794 63412
61262 26786
62701 1907
24853 52543
35062 54937
26281 61408
47158 5860
9592 23881
5080 13045
1595 9368
60636 4945
24638 6524
52419 337
15504 1819
20415 41847
61891 54951
60056 34641
52872 30623
17656 6659
28233 52166
50883 29172
1192 12908
36812 35235
24547 12978
6250 38553
26867 68634
39826 64635
10497 13844
64244 26226
40442 43171
2925 4231
47908 22222
17280 53065
21899 10552
42770 9527
40173 38983
25571 25822
16033 52521
42196 65599
38622 9173
54352 62358
20101 28495
7180 34868
40657 43070
15129 11313
20939 32183
47213 61331
7980 53510
45266 17786
17238 34635
60929 22027
46547 31648
39035 38100
4407 15128
43850 55482
51406 64826
41140 56963
23379 54999
25606 7323
7335 33946
11981 40459
50528 21454
32774 13612
31034 37217
67546 37806
51843 29635
37786 13977
56043 68686
992 62822
53568 13429
30924 45548
64206 34699
18553 5641
59863 8288
28291 7220
28828 45331
50977 29439
8817 6724
38363 16445
23038 29096
66555 51548
62917 53253
53408 39452
38195 13310
20776 59653
40996 55746
63892 63484
4910 54133
8678 19798
64931 53524
27128 982
44222 18629
16770 17841
53967 49343
10863 59429
63132 63733
60624 41016
44172 17524
49605 20427
37396 40958
12034 64130
16234 63647
19547 20537
237 53875
29338 18393
51387 40857
21533 41920
27375 65736
63133 24895
54420 41286
1350 8444
44205 40037
9203 55216
47253 41606
29727 37970
11636 60635
56425 45970
62726 12640
5907 31059
9834 56824
20342 6760
12626 67410
52893 31532
14018 40700
52194 34978
12406 22195
29576 48296
62022 18295
65282 34575
2750 25823
18370 52039
39251 67802
23472 48829
52460 38657
11928 62999
62203 65461
64151 22945
15137 47555
27331 19614
5723 30375
44944 821
37855 28073
36526 50267
43318 59675
38333 15900
19966 3151
26068 3506
42800 7122
1425 32832
3520 16875
21670 2478
64273 19382
33707 46121
32515 33101
12541 49814
48057 49928
51678 34846
19185 67722
62834 49476
4870 28584
16584 38393
7775 48720
33603 1730
11656 60673
62869 67234
41401 29766
41556 60759
49853 35643
49141 49562
17026 15436
50951 40004
68323 55770
30208 16386
33939 47090
21938 50345
25984 42944
13311 68494
13589 35034
45734 50693
11372 45846
10256 29364
43097 66889
64462 3671
21050 24938
49968 16547
8247 43770
67478 46880
44160 12900
34285 48884
28194 64970
59276 52747
20773 33262
52950 40761
8 25989
16079 34629
60281 23730
163 33154
49733 12589
2974 12408
67511 29532
67 67218
67628 40867
64495 36977
4634 42616
1807 27025
19392 61488
5298 21329
50463 56150
3480 57745
38399 51296
67363 55647
41463 12212
56215 67950
39274 67342
27446 10520
61039 17629
20662 43563
35347 50309
45558 42574
15177 53985
19009 16433
19722 18612
40118 17538
6919 47530
58287 39479
14124 29238
10283 25500
17342 47116
65910 23167
14282 65966
52814 2390
54063 15832
20189 2214
55031 43004
9998 32792
16707 13592
6559 17205
13085 27037
43256 518
65625 33866
54137 17844
31001 3165
52940 51484
33666 26225
55358 63903
67306 9200
11495 41825
51140 1850
45418 6722
64693 1340
66124 54888
7733 25616
6352 18329
20327 67462
65510 26306
55388 66167
37004 15496
38426 53423
11297 38809
58191 21226
53369 55877
23089 51863
9739 36624
25599 20096
20858 64166
52237 14413
43987 26754
18195 67874
61039 18167
42415 66471
60438 40354
30510 28618
58956 21022
18303 26124
9263 44395
7938 32878
68063 62336
41029 46014
11245 54462
19187 42749
994 44273
13175 624
38289 20195
47879 43225
65846 3326
35613 20825
9238 66748
1692 9327
65203 19897
40237 14215
46711 32215
1973 1539
15126 1040
53497 52733
6974 48015
64686 22630
29273 36410
46367 60010
42688 53887
67694 2847
17045 17257
9754 11046
60189 49478
1475 58046
24792 14921
25371 30329
41653 47143
13326 31231
43896 32036
22056 44265
57975 44970
59132 24007
16584 26822
54668 62160
1033 66984
65083 65869
10444 28645
14532 11795
23920 68571
64690 60464
24071 60371
16970 22857
3009 34502
6717 2382
46528 49732
42982 66895
3022 30443
34354 58293
45674 61749
44275 63214
39197 42084
24353 35357
1996 56830
21405 48713
43675 22256
324 50617
33156 32749
6940 62479
17545 29637
22974 3775
9159 31348
20004 60053
27870 51784
51724 55655
33515 15265
41006 64681
22161 8698
29851 33795
29674 47912
34811 21037
9583 63844
17096 65654
28082 6951
19181 1643
64181 53773
1252 16724
67224 55996
1288 11333
53495 38427
10116 5254
25198 56410
1056 44922
65978 42103
34760 52026
5840 14365
39573 31722
53285 59097
32042 24102
9010 56384
10469 15789
38317 51876
21124 60664
15910 7344
68424 67770
39594 45053
37877 34521
54480 961
67827 63663
30246 68181
30003 62682
47456 3385
5352 47222
62543 47212
26889 38040
65349 15150
21236 20844
25207 31451
48070 53925
9628 62126
20111 19051
15512 30103
67375 53095
47285 14123
6221 57126
21535 18707
62813 65029
35938 4953
28444 30635
18618 4236
54604 24677
51139 34248
66663 16450
139 3759
52244 37808
15936 55161
54889 60491
52578 18365
39284 32932
45844 20102
18365 40667
58138 22804
19283 59010
61182 28254
61130 42256
58305 22279
58437 697
59185 10713
35524 13058
25320 45296
29028 57146
38491 48539
55073 38865
5679 54665
31240 12739
60831 5790
17616 861
36884 55020
15982 44189
68084 5532
68237 25783
56344 62785
2446 64905
11301 15712
5124 1873
28360 30136
12739 7741
29396 48685
24522 11602
38405 47815
22407 37852
15349 64836
11237 32106
50081 26778
34750 68813
18023 34476
55250 15843
24663 13094
29124 57704
65484 56284
23766 51271
43888 16557
28985 18967
53748 15670
43851 52886
23238 377
46873 25341
24081 63866
11293 30770
43346 19715
22133 65659
25175 38580
26527 43612
19646 39436
12003 35843
31345 59
29333 11566
30107 40320
10240 59632
3622 26542
35720 5999
22722 27829
2423 16848
38444 41831
29829 65743
22477 3419
64564 18315
15749 30573
56822 33775
33268 13303
2292 8505
600 66770
40932 30510
19381 67273
42284 6797
34287 18434
22865 49941
58329 10845
42820 37216
30264 54946
65735 51403
54178 60397
45366 27427
57593 26097
18180 67919
14370 49907
24175 29570
5888 50969
55800 60716
64309 65370
29968 48810
13730 30696
49911 37009
22009 44904
54224 37031
7977 61544
62548 8781
3491 60504
50556 5278
52205 50167
37547 48743
11290 45607
1748 8586
67313 16782
8565 20883
37809 28345
46774 51486
59462 39374
15177 33326
65457 2854
61324 46516
4810 23124
36143 65134
29741 10310
24014 35025
7274 44178
9957 66577
36737 34396
7247 61566
29263 40426
22119 7105
47625 18043
65058 33389
5926 60031
16342 54239
57092 14191
3382 43381
59247 24516
49904 31445
50675 66178
16170 28869
1876 64166
33620 5369
63705 13399
28331 13295
15431 28749
33500 21745
8835 60895
4055 1947
24214 48713
58959 26942
13157 16202
54720 68704
8628 40730
66454 50446
41444 9508
43929 17457
5757 1020
26515 60833
13649 45313
34541 53574
37020 47933
38159 56902
26433 52975
46167 34789
66408 56193
43046 12861
59617 37403
39099 20042
38483 65416
36440 16470
40716 58540
58346 55999
47184 64225
43678 13000
33271 20976
59946 16822
31209 68375
50550 16803
17511 48798
64756 35789
30420 27651
34575 14988
45478 47192
14852 37656
29695 45974
23755 47904
34897 17290
33062 7467
28442 49333
12826 37682
44447 16362
21836 61926
58851 5395
22544 3994
17234 68649
9312 27054
44494 3390
7568 17632
54295 51070
9961 54055
7739 27023
15130 30985
4744 59175
38925 12241
45250 64974
16298 11016
18568 18436
44036 59189
59817 38214
3159 66641
14167 6313
187 68682
35488 62654
17712 18994
66537 54149
38201 41742
61667 22096
44365 37216
11688 33733
11295 34287
8392 10158
10260 62703
15302 43396
67437 52846
39228 36814
26792 46142
31251 64968
54584 25301
49845 49173
17683 68641
68440 36266
25225 14803
11624 65984
46567 57866
6136 52038
19551 23078
18450 67378
654 15665
17507 68460
34956 12738
20078 22923
56482 40638
40836 3503
19884 59960
42977 28079
21154 8211
26129 167
47342 51468
1003 51376
62206 46956
55513 40992
26498 45594
55228 52685
5152 65148
9108 59195
30398 35069
26633 29860
16692 39906
64448 23200
25843 40114
30686 18736
55207 65080
34886 36371
33852 11989
55962 13134
48200 56769
28349 38039
33205 27976
65120 48825
1104 14434
16661 8592
40993 49821
65829 40799
36476 13564
58217 46003
39153 55327
13010 8405
37091 7678
17991 52310
52427 60341
16978 36863
28941 21555
45559 24038
5406 43666
32641 48185
46546 67022
55575 13302
5483 63141
52742 66482
65468 8916
32440 55479
23721 5579
8461 56264
15255 5495
61624 63322
19277 21417
15509 47251
44853 33508
33696 28533
24069 30811
14194 26885
287 40747
14789 29876
32424 39001
56412 25425
45489 15586
54042 64986
50378 5492
41844 6627
60138 1743
64908 15652
57599 50098
23197 10759
3359 42802
52105 68088
62956 41466
24413 54796
194 30402
48731 24821
9841 28346
47817 65412
3483 32247
21760 32189
22467 43967
14732 21309
64565 21677
21197 59260
51594 1105
37543 23223
58508 30983
57980 40687
13550 56169
48928 38046
23276 9329
43895 13833
60229 29264
25802 20941
32102 57087
581 53675
50399 17598
47031 11029
68260 10984
62338 35811
45894 977
1356 16074
1348 19413
51930 51948
11612 41329
51524 57093
46568 7028
36456 19599
13328 18025
61522 50766
19908 20558
15939 46091
56963 49192
47203 68122
16560 4427
23816 26597
12038 43859
38343 47859
24754 49287
37738 5788
13846 42231
9180 17744
29459 19688
49595 34387
28832 54771
63427 42497
20239 64031
16113 12486
18530 28688
6049 5154
53126 41968
25050 56491
10015 27808
50041 23314
51729 55321
44756 56032
12149 19827
10697 60321
43708 57923
51130 60100
6811 21626
13078 16443
61650 61972
2003 1533
20006 15638
35353 2088
48299 50364
39122 14228
45369 20624
30953 21643
38370 23613
10222 33097
38053 57333
2657 40060
25719 42222
11673 50207
23096 46370
66038 67210
50716 48288
9530 60834
33720 1502
68126 16567
58264 58751
26894 20291
58807 60135
43470 20039
36586 54930
66665 20885
41555 25576
2234 46469
49120 43349
47099 44874
34543 54351
31281 21895
10140 42867
20008 37249
68292 67421
27722 35948
46183 36423
28529 34895
56928 21635
32673 41388
58959 46860
47219 68084
46930 61642
66748 36390
64104 35281
50080 10486
11427 45683
12829 55976
64811 47614
67285 4557
28388 30455
22936 30746
67985 11154
20784 42081
61975 32414
26281 62295
31698 18322
50803 53465
31772 18851
67458 16329
2749 37515
57654 41566
15934 59685
34374 367
24330 9784
27434 3714
5895 32599
17283 38972
1406 67302
41164 12819
64501 65324
42198 51742
7949 57326
27851 64078
54321 42593
10190 62067
2327 29290
63082 60360
58246 35410
3646 3957
824 7814
25806 27045
37653 29191
64242 4831
61084 2560
52884 33264
32477 68477
29295 747
27411 3237
26013 58463
53683 61144
27609 29891
38900 62973
12740 64015
62385 11933
67723 66645
52112 21412
35698 38683
19243 53057
35130 16906
6282 65121
63741 9414
9929 34618
42672 59364
67044 35778
65466 34731
61439 51430
44081 24226
11602 53046
13737 10325
50540 9230
40335 47135
18151 46298
46501 20881
49032 65930
56121 56832
43110 22109
26466 49522
57331 51259
19524 3569
18978 23603
51779 36939
56335 52708
19787 32816
30399 16133
16399 12718
20406 20939
13576 26486
65317 43926
64156 63740
65351 25787
1975 57542
6674 47581
45011 60777
62705 23583
1467 6766
10590 19914
54397 29057
53923 33292
20313 31492
53929 47773
51085 33862
10024 12323
51723 13661
25073 2655
46675 35325
57998 51269
64438 57419
32708 59072
41309 20636
22451 41604
66289 13370
22047 8581
33911 58521
44156 11322
14631 26802
48213 25401
20142 21188
25174 28628
35797 30306
20791 4663
23848 45725
14424 27666
65080 27805
254 7600
52409 38535
11831 3457
42693 25747
43126 13290
56553 3615
4680 34011
38251 58400
51724 47019
38706 18581
20937 882
36113 31876
39669 62923
68064 8087
12248 63253
47043 55460
62560 68755
9343 62178
52367 15790
5282 60287
18227 10854
745 47786
36431 66466
15962 29180
18722 30237
30477 4189
31741 36624
8464 41238
4762 50664
8213 38856
61828 23296
38047 33236
19241 45215
8621 37817
24587 35900
37511 48895
10205 32270
20669 61849
18708 24707
25699 49303
45218 21844
55368 10790
26521 40420
54584 2225
27153 5811
59399 14506
43113 38549
426 7979
30692 15953
1890 55090
45386 19934
5593 13049
49603 43554
12065 67520
23416 34311
2147 65578
9315 38296
29806 31976
33589 65197
6477 37269
66935 34644
14543 42313
49598 29645
4259 3809
26326 12971
63447 6378
43596 24148
22558 33501
49073 65898
68261 321
20205 7421
18370 12232
56525 34746
46005 20618
8520 36642
12723 35585
47801 20069
40812 20184
28935 41803
21906 54323
29180 8600
3498 5714
44691 17639
35219 54556
19704 35613
21137 21064
60375 20404
44454 51626
46149 18955
56127 13685
43540 52358
10744 50068
42534 9987
49991 52747
40000 25637
39503 22089
55278 46339
36449 52782
66003 14985
18880 52258
20915 22254
66856 17709
32001 29325
4090 59257
31171 4343
10102 51831
53170 43462
6929 62300
3510 1008
4870 51237
31959 12044
10426 310
32367 49608
36697 1090
34324 22762
15964 56912
44292 40927
13836 19634
32604 41237
48664 24852
10954 1815
36428 17331
24657 57022
50274 23300
67432 44783
50812 61487
28403 57797
46303 10493
15988 38577
37117 8820
15148 41841
41615 13918
32665 30064
67286 43827
572 18640
1202 9770
8632 64730
46649 40814
54976 54826
55230 37389
20679 14091
5265 29821
57860 34004
13693 47394
5805 36753
51601 11262
51087 4021
9024 26716
15078 26896
68821 31693
48973 17959
21879 34037
972 61920
53760 66169
23018 2773
33458 33330
37734 44482
64107 47530
29616 26174
6607 5363
62220 56252
44807 35005
58258 59432
53061 7022
49702 30507
20460 68290
10831 20845
21077 49821
14712 68742
56159 11778
43946 62793
34856 64515
23097 67578
644 49044
13222 49495
66376 60530
49409 4263
65476 28270
24811 55776
42721 63060
5309 21029
10320 55407
5746 60756
6918 67892
38418 41635
12497 1573
57921 29103
56841 60508
25699 33293
49267 35289
39506 3601
13646 36286
12188 67581
357 35079
63910 40904
60441 3236
34978 37743
28309 57625
52764 57055
21666 31789
55482 14508
38827 38989
49937 14135
50563 33624
53085 13924
44441 1853
20046 54444
13706 21456
7816 14444
24081 42342
11400 39978
66701 47241
22651 15102
24037 45986
60358 7965
891 29625
6800 67616
30386 26689
38278 29070
16095 42927
47787 15229
31484 52073
56153 17921
62580 67743
8511 16405
18914 40095
4921 7595
39213 51535
31065 447
14243 49297
5540 4265
43028 23202
20774 32663
58517 21773
7307 8747
5546 476
16273 11150
32561 48850
56750 16938
33056 30905
41495 17811
8005 44647
61232 54215
12000 23716
17175 61798
65565 53113
63118 61330
2708 1595
14532 5663
41640 44523
11845 65278
37190 42483
47721 47202
59131 8536
66145 9201
14366 34295
17313 12463
10709 24063
16984 61976
12358 8918
58654 644
62922 16158
4266 6547
45180 26200
49441 67893
5416 50117
45754 5318
46936 68094
40015 48538
22021 56594
23912 42289
23873 44731
45398 41617
49363 59126
13497 39235
42086 10233
59514 28708
64000 59846
47524 23775
32470 22641
4360 51016
62575 4325
21130 49239
53087 45006
14521 23977
46759 58958
31368 19234
408 37187
43811 35213
8820 50494
29801 47883
49898 25633
39478 29463
45979 59610
6319 17041
40173 4467
68805 29349
12164 36172
27866 11367
26717 21225
29057 29996
47799 28967
63579 42530
62150 37479
42796 10294
28059 39299
25457 9889
33210 24403
15189 51897
20949 3931
22071 68150
54651 31019
62120 29990
52837 38630
20362 4631
66089 57034
39854 4963
6294 46349
63324 2770
42444 55507
38798 44232
60353 37668
45706 6906
59086 54017
39013 27893
11284 22742
67459 57763
38791 9679
7687 48950
4518 3431
22031 35556
53686 59544
50720 62480
33512 15617
58331 2089
42545 5882
27877 24473
482 44437
34450 50093
41014 49994
53702 1431
59081 4469
19264 6264
9358 20438
54747 1912
62122 39250
57930 43356
45506 51664
54389 3060
60198 11256
18032 29138
2896 48365
23208 31558
62654 28287
25567 46873
31644 10108
35946 14754
46287 9938
16626 37046
66575 14608
53803 32445
63821 51841
47632 62332
34647 61979
44259 55301
36787 42613
44737 2521
18434 33613
27248 20887
13895 56885
17445 45570
66394 55673
6217 60028
35129 27023
11730 49713
14897 48719
40823 54701
2029 60080
23569 63189
43368 16377
10751 6392
17972 51414
10130 40781
66090 39565
18891 38670
33794 18166
9072 24771
64434 7495
8391 64972
12160 32539
36503 35462
58142 45202
4014 53254
3769 13945
23712 22363
4082 52542
57095 20442
10456 67651
37063 8148
27306 44668
39931 52103
65737 10479
24600 8225
17077 28730
20043 2236
58122 35062
31991 51375
59240 5132
64140 10545
61512 16094
41480 39357
62750 53353
39190 66036
34897 8444
33967 32492
35430 34086
68617 55
38832 49841
60692 59181
55957 42308
17783 37171
58728 29240
28587 34008
24590 29252
5387 38339
35107 23944
23015 15885
51710 42678
46904 68816
6757 62832
48610 870
57669 50892
12277 54100
38577 64625
43905 47249
10270 35639
38921 68643
30958 5730
64622 8871
4 52425
27374 62397
4318 47401
29604 25144
22958 60880
19535 41051
33093 16765
60748 57650
14466 3427
55506 54085
45977 31064
27661 45928
807 15704
15545 3286
12656 46123
54661 7811
7707 14343
36073 47969
64721 13706
58667 28248
67848 10779
3275 40398
64773 6068
64800 66571
52225 31680
30825 42163
8714 66376
51687 50274
15646 20391
7967 40616
6887 46026
13296 23660
19103 5537
34719 34732
51191 50726
43880 44168
53139 68804
65411 54944
20685 8693
41978 35838
33905 66664
22735 25912
42070 19428
27170 28119
36562 67685
7480 67462
18889 37079
48099 15925
31146 50833
66932 10567
35425 13858
44237 17521
23033 34154
55859 23284
6298 55791
46082 45040
61527 22029
61690 41331
63347 2595
41239 43366
47836 34387
34171 44512
6777 21797
24191 3340
64863 56606
24666 64110
66064 43406
2331 41929
2670 46747
60980 19609
68591 19200
42957 7386
11931 30767
8502 20783
37057 29945
43256 51770
58526 14083
4947 40913
30250 47011
61054 1214
568 17827
58328 42567
12995 63469
378 14188
52757 15716
42860 26283
62830 9993
9645 21822
34077 60525
24545 34334
59443 27118
40283 28200
50576 22885
58698 68104
25081 58003
31987 199
19788 17834
13064 53573
25164 9465
66501 15046
40898 45580
65240 61296
28218 2479
37475 4649
38436 38329
4216 65021
61699 2061
56047 880
48872 25052
5508 41320
14181 36401
67818 14195
68366 36317
13743 46239
3304 31829
34587 54562
38251 14891
36542 31190
42500 52076
39261 21705
28982 3648
35814 36324
10879 60626
45919 50490
24431 68054
64916 26169
52270 45580
4887 62010
57367 7355
1814 14042
28021 53639
68173 51378
5190 39920
55050 27447
59141 4044
16720 63435
18288 38792
53181 18114
46871 49880
24205 64483
29968 63469
53379 65008
17869 21384
22219 31585
36444 9859
57597 18738
58234 60954
66343 3221
23184 42839
39473 45337
38148 55237
6600 33153
50533 27976
26991 23409
48697 9210
8638 58714
56097 20899
8967 27806
45189 5660
39757 16552
13214 60161
57899 45182
46045 36632
3720 24019
28581 60225
63424 3450
25507 27053
12643 61292
40051 63053
37842 49915
52630 59915
38573 65857
30090 4618
4003 57401
18789 40802
46030 7414
39204 54501
26655 28701
49319 21795
18016 7187
34914 8975
30541 29711
66942 19029
12751 32887
45064 46886
53179 50528
35958 47899
38475 43906
44798 65193
60441 53300
38242 22546
45665 5795
13474 48628
14812 19762
26629 1940
14746 45317
40178 16705
22921 18469
66262 57554
65112 13657
39033 48851
9124 13698
19369 26090
62075 1935
2672 56719
12024 17210
53484 29912
17412 3465
21101 3425
65444 22531
8676 59979
20777 21962
38718 947
31206 58360
9339 39690
65682 3849
52648 24373
53431 14174
10562 60977
39684 50491
61033 62780
36512 23076
59127 54482
59385 6073
50321 59334
18110 44802
63242 53283
50474 30724
47791 64552
54654 22985
21390 42094
44166 61238
6961 50969
34198 41535
19150 10926
32258 18998
33290 63731
36289 26672
59495 22565
44577 39541
45166 24101
37193 9285
6539 20051
11486 1564
61496 4888
16383 8637
59516 47757
60841 33075
47928 46501
40521 3442
60189 35538
43518 6746
55283 31653
42556 7432
31474 19652
52125 484
25982 48299
14031 13585
48321 36220
38247 57864
27949 23002
1715 31866
36741 10857
63558 68377
13379 48942
38496 12482
35936 19527
39919 53705
23464 15720
17991 51260
27835 10077
5837 18888
52652 14519
12757 12196
8024 60200
25712 37180
44542 61954
39217 55496
1566 3480
39963 20835
39019 64351
24321 20783
40075 55489
45345 17179
31769 52858
60958 21101
48155 44948
5532 38582
35459 44360
43415 45503
1159 1104
37005 16827
49033 30543
35168 14808
28208 34443
65637 27843
48023 10395
65689 16222
1783 31870
9616 54947
64552 64668
47873 39361
21678 2527
43415 14246
4824 16171
25070 36696
1054 9001
60299 27074
49415 14450
29655 31806
55217 67762
27760 31
40387 10206
41135 34338
21870 19136
823 37238
55158 17760
52457 38745
60616 25216
62558 28417
31549 4904
26983 17986
60927 38098
29950 64196
41644 52737
41952 39454
11652 35036
13803 7099
65198 15052
59286 45275
62867 63018
67343 47286
57110 13183
34836 16521
64172 40034
49527 16051
7031 51616
16338 35473
23287 32451
63896 38676
18481 27910
56520 2007
44274 51128
17388 11575
49733 47518
21927 26251
46093 14552
53519 52736
53816 49962
41297 64836
15279 60961
60790 68551
7178 14578
65582 24182
35418 33156
45788 56607
39359 42731
66320 35627
37262 51768
15456 63830
35298 17289
44799 19288
44658 12700
26342 17088
56722 9771
26477 49672
62800 34918
17797 54202
15364 19248
67354 42931
15395 4134
17126 54136
64548 11672
66247 27977
40018 14401
29800 56535
58742 2514
15251 48260
9308 53533
59306 3172
51549 47914
54887 64191
19030 24481
35019 68385
26282 55016
573 46293
28679 18221
66717 29486
1534 40615
63936 2877
13785 12057
5675 50239
48664 14836
20475 354
54614 63878
18335 34193
39225 58129
50034 22873
44881 59611
37789 63708
32523 61876
33221 49070
7562 28162
68127 415
54442 13253
32077 989
10645 47456
46222 25001
45401 26052
10787 61035
39948 62100
30737 10099
27668 38352
32058 22076
4782 56788
45725 50281
19138 56794
25975 63313
45501 28049
19834 36315
19253 38658
59364 30700
42844 63883
38735 53223
35701 54302
55665 61846
40420 29834
55318 28347
67330 23453
33710 38687
9376 14834
53007 35312
11395 43896
1045 28789
31944 55904
54624 53180
7114 27199
22094 19175
51347 20135
60471 17361
2324 17557
16693 4536
40036 60960
33470 47961
41439 48098
22878 24548
68109 18608
7127 40011
23129 23734
56382 28036
39071 27309
59950 44753
36444 6657
48491 24906
34834 33378
26132 1619
63872 28556
55950 31057
15170 22190
54095 32602
48121 16317
16513 7095
56346 60829
8796 15745
23583 49891
53707 50615
43999 46078
15704 25317
6655 32179
68131 24347
15697 12904
26153 10075
53550 36889
1837 39100
14117 60825
51778 67968
30951 53067
58362 62289
37918 7401
2022 1009
15769 39960
33593 7965
8563 50158
65562 39403
11548 43342
46058 17597
16779 4764
46721 63542
46081 9333
5820 6078
48279 66993
67381 3598
52857 47232
42287 39776
40827 945
26587 68734
27966 65775
11109 14206
7334 27734
12851 33161
39185 41729
17284 45171
16014 30272
19807 35753
59607 4487
8431 29456
19206 31619
24655 34522
16073 15370
59038 25122
56050 34959
25616 41650
17392 27774
48911 53520
41123 64302
1168 62889
20068 7410
4086 37356
47998 19989
38292 21469
11102 65003
35879 43120
12524 36747
12528 9349
31837 63565
61757 65159
17262 66941
35884 12209
44371 48244
2494 64533
66621 39088
19285 8114
37087 59157
5193 50755
332 58093
6655 4957
12116 29939
5744 38421
60349 35107
28799 31760
13487 19439
59774 44186
67011 58047
64938 14401
63013 34282
15612 47454
51662 34970
37568 3114
30308 33996
53217 61253
51307 15827
19455 46740
33574 35521
37506 36945
34231 658
29767 15180
65316 9141
55741 32120
35779 9886
12635 36666
40524 36274
24676 17327
19693 27348
4430 46805
6459 9916
17979 25532
39853 68217
60938 49663
24534 57075
58107 39676
13669 42515
43451 12902
21448 68744
10310 47288
22612 6815
56626 22793
50831 22398
11373 15159
64895 34957
45664 63293
49233 38758
30971 28033
52308 12462
25322 52579
29224 1620
48161 11601
23582 33464
2617 1440
36565 63714
20126 28210
46959 2489
24311 17331
62706 24843
56791 14775
60355 48947
58208 55103
56732 53481
46154 50568
10052 64796
51507 56330
15859 5767
32841 7897
63759 41665
56388 24303
7177 48748
12118 8421
37991 3597
64976 24558
68734 20469
7179 13998
64223 26920
57519 6782
41613 46968
8276 41728
6469 38361
16809 7268
36182 59298
62370 39643
47446 50069
47187 24422
61463 19320
14863 35802
5729 11385
52535 45507
22233 56171
50789 54690
4542 54967
7835 60016
48934 51875
61689 17605
63841 14851
25277 10957
53164 26561
9804 19888
20332 40299
40429 3102
9788 30192
13036 38098
37635 56598
991 28853
40825 48853
57648 45452
55023 55094
59647 27021
48586 39969
28100 41724
30723 16859
31720 2426
24130 24843
54302 67429
40185 62168
60796 52424
41455 49133
14595 24373
12355 20503
10968 2978
50482 8718
14318 54452
19770 42649
620 43632
41835 58165
36432 44952
47580 27269
32283 67226
559 56975
61256 18992
67964 20232
55927 46109
23991 68571
60546 25766
68664 4303
29682 18287
58745 53262
10083 33373
13388 56815
4167 63506
58063 21841
14067 13253
59984 35749
1239 36264
11682 44183
21359 27399
51512 52212
20745 41054
31079 45543
43783 47289
59200 39251
29351 16465
8486 11092
11775 24101
45703 20631
43182 28923
58044 67785
36662 38051
27363 6599
37990 983
21224 73
14939 47175
55342 22123
67723 25665
64147 4429
30308 63893
62756 14902
59527 41449
2790 32044
41926 53898
2628 14825
30274 10788
32872 15809
10662 38262
24928 49382
3409 28560
37533 38087
41899 21474
23711 22164
8604 5392
10582 50067
41229 64482
34985 20834
30200 24197
8407 42217
51904 22007
32804 36451
63639 23954
25568 41304
15630 277
22932 14693
63715 52495
7692 44120
3230 60049
22469 27440
14068 56927
60547 30579
28595 40105
34313 52174
42088 41054
58325 24073
48339 66983
20412 49937
58364 8802
34173 49608
31475 1624
29118 60214
47104 33399
53077 5246
8043 4071
65293 43603
54374 38524
27044 42367
5933 60017
35608 26956
10574 33626
56985 32146
43684 15608
15 50386
23018 19717
384 39869
8418 34166
4114 14447
8483 23949
270 32604
49263 46706
51877 29005
32441 44498
34411 5809
22277 53919
42926 58900
29755 61229
26827 37828
16907 60977
31162 14225
49160 31838
28533 50605
17537 27930
28739 39524
16663 43983
6771 61100
53897 23334
53032 56542
28232 5841
43377 2923
3229 39568
50610 56710
27382 7970
2636 9800
24507 64710
56621 22398
17796 37918
38139 3052
9359 57223
59637 40952
64899 43463
15578 55552
18797 30005
4164 50441
41347 56006
26945 64591
9124 42691
27104 11160
35057 48300
32121 37616
45450 3488
4725 54332
57295 32755
4685 53162
22598 57749
50870 52160
65403 45617
54464 23571
45484 25889
50050 23772
18847 16872
13078 64306
54106 9626
26584 3251
59609 19004
58271 38120
60645 3874
34936 16644
34889 41626
54400 13753
24918 59160
14784 3349
34727 20533
57148 55939
67769 56762
62230 49056
45109 15619
59066 750
46225 33167
11001 46389
7683 21597
57263 28152
10071 41364
28337 50398
614 8402
40908 48007
57702 52591
50715 24736
18688 41508
44361 20940
4445 539
11634 39818
42901 3651
60165 28571
63021 39963
54502 52825
38120 47027
64896 26567
14552 58494
28866 26678
16811 12171
22084 39676
26880 3705
4569 30939
48676 31050
52561 726
44172 23599
6870 44505
32640 45693
44107 8469
49155 11262
3844 41556
32352 57997
33730 21698
18186 42461
42109 57003
15814 61717
10778 23367
2715 47036
66346 36456
14996 67737
64685 22578
11024 62019
17631 40550
45043 15042
8058 25594
50595 30064
24781 47646
22941 25952
11523 21844
885 14781
45 33865
60659 59933
64794 60777
2378 58420
63615 56416
19583 18489
14100 51331
53662 59238
22868 13767
56457 57426
22046 43587
53951 68450
67259 55662
17331 64664
2135 13976
57730 43175
10281 16727
33813 37847
25245 44472
41648 61801
11545 23088
11387 24218
33791 65947
2100 53327
3142 41340
67196 24048
6373 49731
60773 42120
38346 68398
11023 50076
46974 10065
68239 11541
40036 2394
64025 48360
41882 31538
16281 37448
43435 61746
65165 53633
6244 64732
18024 48438
23773 5467
49060 13979
61319 28944
37696 59037
24625 44334
57339 16944
38235 24812
41064 47527
47047 21806
20098 60960
44916 42354
34057 3040
44830 27513
25804 13080
28722 36509
4985 10577
26900 8971
13585 38672
11152 38241
50966 66965
53933 44696
20424 47367
21747 32483
681 13511
61997 68240
42760 29722
9022 22548
54680 37305
21900 12970
31464 11967
11960 16367
12182 11305
10654 881
14381 30752
27705 58714
12498 31349
33976 43521
32506 9727
19805 19755
39279 49130
2092 20810
57636 66489
34481 25170
62293 50891
4915 67684
68252 63622
16237 38718
23625 31189
32141 48724
16843 33305
37202 35574
43265 26852
14146 49288
60631 52991
27061 4938
38681 63762
55306 28472
52341 21291
40080 23874
21746 23249
45157 32986
45794 63398
43219 40770
10607 6923
60193 36856
22101 38818
50626 62971
36742 4480
61230 46159
35204 18647
62943 23857
18458 18619
32801 40406
9839 44693
45144 58379
1979 39581
1642 16358
8310 29969
23996 960
49940 53946
9990 37961
53529 37148
12889 20945
46529 6965
24999 11901
62378 11114
29242 21068
19405 61461
44670 18160
4679 59395
35164 44039
37784 51842
53656 66175
7613 32390
33071 54858
67985 6535
34749 18252
19524 21083
49034 15947
34976 31734
48545 59313
44123 31479
62556 41667
29211 24679
36136 13561
12921 58721
26253 58097
18658 61847
10289 51661
19029 32970
42552 22280
42579 5328
13953 36194
416 7345
30352 3546
17918 13386
2164 65798
32516 40977
46656 55616
15874 17200
64428 35670
38620 7128
62553 50143
2645 32786
10061 39896
47184 46499
20379 63517
18741 52230
46307 6091
58738 16448
45374 36638
57915 19953
38595 12532
63752 45505
68824 16605
45501 11864
10432 26882
26205 62585
43102 13972
3373 51617
4232 52253
8829 15007
13647 15226
53540 42369
65243 17809
2238 54897
7344 16118
24375 53315
52376 41849
39693 45177
22683 48783
25080 10187
56081 67423
39014 2476
21543 62547
40494 15024
31356 59867
23734 2887
43167 6645
30530 41103
60105 15708
22578 59070
1644 64649
20422 28727
42319 36683
43407 28593
54955 64253
43063 7629
23086 8839
68139 60983
13258 66260
54767 46158
58510 37490
26242 45347
18619 45559
42132 13091
55935 46819
25204 49106
54554 50907
66834 54093
7373 57140
63078 33681
55007 51624
31145 746
27426 62471
62759 7634
58736 25816
26546 19995
13869 68663
63496 41045
36858 58051
35624 39628
43697 10734
40651 15215
38017 59049
60985 10928
48333 1227
10319 60545
35320 32899
61672 60410
41417 8153
34641 59236
20458 53287
47938 6719
47263 65370
13923 63222
13749 8833
16429 62757
18861 43359
40660 13848
43396 11746
22501 356
5972 50030
8297 19588
27652 55188
26626 68146
3450 33011
736 58171
30389 57033
3921 45359
14012 64254
53602 32838
11059 51752
19134 5466
47032 23441
5128 60133
50782 24970
12789 13848
42974 56105
41550 55334
31101 64290
40756 3655
53719 57616
51549 28797
8032 24137
13051 30307
14411 9373
4132 27933
19495 149
51370 20598
16214 49706
14556 4102
31870 18255
14844 13533
40712 57371
43447 64704
2945 29308
15739 48160
50215 1423
16889 30863
28184 25171
52914 13531
18130 47688
42026 65322
66192 16951
15009 25328
31587 36139
11332 54439
41427 31600
42486 56048
27102 33129
15161 2073
38412 8640
30359 20679
38 15109
55499 31459
23953 61528
7181 17724
9841 13652
7211 46047
39838 17830
17225 37683
61851 48555
58080 28717
14387 63747
4093 8141
47995 44474
62585 11358
14732 49739
38405 43622
49778 11316
61340 8839
12641 20199
51846 67461
51249 66100
21653 54597
13660 35980
31106 24444
4698 24188
24169 41875
2773 4073
44310 48790
33045 35182
30623 7193
63127 52283
60442 63931
47208 42003
65702 21892
49813 41705
44727 2507
17267 53380
53924 67807
56619 27481
10762 10710
60529 25395
18564 24925
57857 14911
12997 32697
38915 17738
19704 13117
63482 4147
59336 43094
9508 21930
40512 49348
42055 23980
47559 19299
10046 25493
39412 56711
23665 21245
62721 17772
12339 12423
40646 44191
53466 741
41844 62622
49663 33453
3322 7021
22516 64518
11888 14712
3486 29473
63545 45377
64228 26431
61915 63807
56280 49388
41146 66826
60327 333
56956 17861
11627 36283
50498 1051
522 54720
66105 9319
24325 6416
9353 22186
68007 35095
12189 37340
15821 21887
49711 49896
59615 3204
30895 4980
66525 47410
64504 39523
34733 20034
32509 26856
33161 10130
63566 37462
57880 36381
23308 18860
18422 7729
33538 8126
3192 43787
28771 41234
38807 11102
59195 56185
20387 24278
56002 43341
14159 22605
30804 11330
54757 24452
41971 13713
15760 1161
11680 4758
47636 5039
26517 59228
15726 32608
26359 2484
34238 13206
18237 9175
25223 52221
58222 47500
51479 51345
27029 44508
8385 12625
15323 4000
17585 31572
54280 68302
9578 8802
51677 51426
6352 57078
11149 24865
51641 49535
13536 21744
43305 23398
34489 6263
18744 60154
67154 14994
32097 15532
66497 29598
27170 23628
50717 68095
60381 7326
63000 42019
66526 41571
49927 9162
20894 46236
34156 31831
2640 33889
23039 50052
11114 29767
51427 37695
21501 29660
23769 22210
22131 43555
60577 21119
33115 5316
42424 68202
46844 59480
55812 48766
16139 65544
11131 22127
47182 54323
7124 9495
14770 11482
62348 35916
39028 61534
40612 36841
55646 13003
34323 4714
7701 21148
14239 22655
59999 20326
49076 31147
16554 11065
29022 68609
20314 43630
31611 25257
42261 2021
56960 12049
39215 43159
67361 21628
68545 24936
41618 60078
65940 31748
58640 27029
7193 48047
56070 29832
58104 46185
49262 33051
38867 9685
19168 32204
32856 49445
64114 45897
58857 52121
61325 46382
50658 23008
12842 57313
24142 51910
25491 49554
32390 29716
28134 963
29271 62964
20038 56884
40422 59513
25961 14571
5664 61127
25214 2519
8158 13338
12540 6732
45586 5550
47645 4861
61208 15923
20732 22149
17546 9968
18345 46693
2973 57737
60040 12719
44443 12371
12255 60922
67558 38
22304 8595
4667 53067
21808 27944
5269 17518
27176 7659
37231 29157
51837 36944
3298 38923
18864 1022
27530 15918
30536 26024
40714 60559
34796 65598
50021 43798
28295 45134
34006 21326
33233 32229
51312 32848
36200 47376
52165 64941
67894 393
66232 36480
36401 38787
17066 26515
63387 36278
44239 65219
29266 15449
3251 8834
9371 11102
59048 64682
51204 51383
20169 40108
38612 57057
44639 22190
36296 30162
8849 65698
2488 44440
39143 41356
11920 60143
11826 32580
38529 66420
66800 60936
4966 23668
28992 32347
15777 64005
4638 37959
62208 12913
15221 46005
18375 48330
41783 30410
6547 28796
65238 22662
21413 16821
16161 53290
33657 52611
31717 18014
46139 52269
14113 13521
9497 30540
45097 8881
58536 59501
45605 68154
30934 3343
5359 39516
8820 35426
41818 24187
52143 54376
54103 23425
50957 30103
35865 7756
44028 16608
64584 53832
36419 31455
25814 54967
3075 29262
36949 60822
30457 19345
33298 7133
10477 16963
7689 8296
68491 18948
3199 64931
2370 19703
22480 57426
27722 45832
36719 21670
42027 34963
30600 26779
29369 60422
7901 3705
34802 23186
7091 31828
35 37481
20339 22382
66138 32830
33770 61585
23574 31094
19993 66136
45672 22575
57999 64964
47910 14409
57444 4586
61821 30833
48310 50700
18272 65301
28158 64861
33105 52023
57650 54176
7541 36935
67631 35441
6773 56792
60728 56722
59450 38295
1624 66973
23703 48536
32917 47639
46751 28253
41435 47184
15550 6985
40349 29051
59029 40169
30454 21278
68301 64672
32286 7833
50442 56269
6666 54349
26695 18070
45502 12593
48951 7048
7295 24844
62682 54966
49334 7341
52328 41775
56751 6421
49895 16609
1313 63368
23488 55642
6827 25126
7588 31291
43592 59951
21559 23529
29785 68290
33131 61478
60496 34888
7255 51906
45601 60045
32522 6437
53784 15298
7195 30990
46401 21373
67928 6731
54685 11108
23216 41639
66880 2452
59140 43222
19929 9471
242 34783
37367 33142
1011 2766
564 36389
28834 44593
1451 2805
36269 31382
45785 17704
41650 16798
13133 65020
32627 39302
53082 37214
4966 14445
13256 31803
21735 26145
8141 5415
9287 10884
6924 49807
58584 35274
16499 29015
28358 32645
45270 49115
43995 31353
40506 45588
2462 42882
19410 25621
50980 57420
30294 36281
12011 6028
1589 23278
42235 35782
50251 34852
43243 59464
3525 63414
7436 19395
6932 31853
68003 8489
5286 666
37228 68436
52374 59838
31885 48785
49770 29936
61251 57974
36090 47339
66354 9847
47990 64496
41086 43204
46248 6094
10375 20873
42571 40035
8794 53043
1645 45574
66184 63825
61881 57574
30614 10987
48211 3261
35589 23073
8327 12618
62198 12512
53058 55624
45170 9192
43683 3003
32202 32420
1294 12230
65208 13303
18113 12421
45825 57769
3865 66382
22111 49471
46988 62629
57911 31931
38209 54030
14596 55097
58524 58515
13310 4609
13384 34603
27007 4993
1496 66306
6577 14526
39382 64837
60057 56165
65867 40591
664 24028
30131 44530
29502 63230
29476 48621
38238 47109
33854 20746
25993 11453
45517 21300
63323 58593
45054 14788
16246 1017
55635 65641
54670 34085
1697 4449
46264 47855
57195 38061
65296 22514
23745 39805
3167 12219
2298 52239
10805 57902
18639 38135
30659 28788
39155 51523
4787 42665
9441 25305
37560 39407
62929 54224
30327 30651
4306 243
62930 34610
2028 12745
65631 6315
43814 10324
51113 44651
24135 53688
56106 30332
68125 45954
23302 9991
60939 65958
44994 40908
21660 61397
43448 45203
16840 15205
2874 68185
46108 42133
45698 11888
34341 50430
12488 59449
35800 42860
43173 56226
53319 30851
5244 33135
2121 4118
38990 63730
64857 27852
53881 64501
10816 48557
48655 46844
7551 45087
59416 48098
3079 20048
23320 56047
28117 62441
12972 12783
48795 22557
24592 54254
33033 27470
2848 1558
1295 38457
27601 56024
32554 47223
49180 30444
16262 50428
20282 2621
37998 3066
34632 67655
7096 25566
60420 47144
27136 24340
19607 60707
59041 51153
25971 52926
29578 42110
60295 37715
4242 46265
56026 7096
39730 36094
22227 58905
33560 16397
19363 23546
46431 25668
13648 57389
49502 12686
8510 49938
34373 62929
8759 47356
33996 18280
39738 20654
4604 54943
32052 65221
9625 51242
15650 12010
60292 13470
29521 36100
6692 52218
46764 59484
64567 4580
40433 4056
35719 41790
29247 23450
17171 18643
58852 15466
21702 24881
13103 58807
58486 68512
34578 11968
26279 49595
55197 60573
24415 33614
41260 35337
4732 45032
47108 40065
63974 68623
44913 28022
58014 18411
16716 15795
14202 20866
68244 47962
596 27532
54610 3017
13868 29384
62898 40962
3754 57390
13841 4459
23376 47976
43491 33566
60300 67560
25959 57843
15144 31985
16498 46224
44971 46876
63715 32007
39564 27874
59096 15210
21958 66212
22593 46467
13481 30650
54859 52545
23627 9310
55495 34858
3945 51757
53748 25953
44782 55621
1261 15458
43433 30728
51691 45155
65395 8576
4627 49487
20664 49541
13192 47906
50615 30893
21996 51774
32283 65235
15025 38253
27738 20552
27925 22849
38032 41182
62290 67235
24811 34158
40989 48452
59005 19239
35212 16847
64145 33604
64105 5505
30290 39278
40671 38150
15129 41736
17981 14970
2194 13341
21811 32292
32338 42389
4172 60400
20926 62840
3302 43512
29431 13870
14150 54843
18494 48888
65156 45662
64883 68604
21719 52790
65592 49754
22543 13236
6719 1181
4372 68102
41304 3469
66083 48786
9780 13701
24928 50504
13961 2586
11536 34585
49146 58568
54571 23686
37430 32862
42870 25704
9305 58151
23025 46552
52642 9686
38858 12459
63009 2249
27133 6424
41123 1815
35552 10934
39304 1202
15094 20797
57144 62797
37639 13223
61259 43484
52339 40003
17816 2378
4905 46743
15561 23968
57802 64797
33403 66512
6265 20945
12292 42633
25003 61937
67268 36299
11605 37664
55397 31447
12008 68522
6515 66424
19363 33872
56748 38375
60244 38512
30222 8025
44011 41184
16884 61232
30383 41780
19490 50125
32752 47367
63270 26965
53327 45572
46521 65128
67102 32984
36153 52496
19209 9820
6095 30704
59572 35943
38474 17612
30974 1183
66236 28503
28966 11874
24026 62906
14259 29984
16463 7539
12137 22676
53767 7948
39953 40085
56098 67460
2532 40141
1382 58007
60059 12772
7235 7445
39472 66992
28663 17905
28796 62567
46553 39212
48460 31223
59298 22546
68215 41066
42427 66846
46867 31661
65817 54079
14684 46957
3482 29893
22020 39910
27451 62205
48473 47481
51664 25637
12457 27743
22116 62664
12243 45728
66984 55794
53973 37895
59345 1861
7774 9758
2792 18611
12195 44572
17521 15649
26389 36661
43024 16104
56356 57634
56215 63164
57372 40835
6072 20109
37810 22054
54725 48598
53071 35065
56234 29657
60119 53969
56591 37462
42474 40782
65519 58553
29659 58971
32452 58345
40140 10127
50907 62453
44 32945
35617 7119
657 68711
54022 18841
48177 15659
14617 14915
55234 58096
5232 37911
114 35549
34873 21758
61694 21114
64063 22394
40609 26464
40853 50891
63898 15105
68454 64638
41318 2825
28131 29109
62187 2813
34342 10991
31042 15613
42312 57509
28290 43303
39969 16008
39305 49202
59286 33035
55875 4767
55683 60908
36378 53833
25963 21125
23787 62437
51417 40979
10869 33410
62984 22452
23806 38197
19827 1607
41301 49511
22559 40161
9475 61083
26610 11592
43943 38238
62653 58677
56689 52768
3378 22501
37523 8832
51169 48162
16744 56238
1172 54350
59433 66649
19452 54466
25176 37764
47470 38286
3194 19132
32939 58534
2476 63974
1116 7663
65706 20413
27608 45073
53892 17930
19579 48878
50224 9204
17841 28549
36732 55664
37548 48323
50745 67157
31053 60186
38401 18929
2429 33584
7662 50126
63540 45619
43945 64929
11760 36829
36789 40257
10884 32147
5234 52652
26940 16442
21803 30752
15089 7385
1400 37886
64273 38389
2103 30165
39881 66181
13384 51785
45075 51454
48217 57823
33702 26258
47644 22105
37986 58435
19570 64766
28162 42739
62141 6443
33984 45036
20101 20054
52987 42704
28971 20275
62105 68483
19484 66715
24662 38411
57687 58777
38683 66582
16944 15937
24982 52930
44538 36964
44285 36791
1249 37424
65563 55978
57567 60793
57744 56423
8995 39466
66355 32312
51050 22639
38398 1817
52577 60690
12816 20185
41105 1913
67740 31198
67934 5662
3813 43561
32672 26608
24232 49545
46778 21790
15060 60849
26254 53058
22345 64784
52129 36970
10877 40095
61999 58140
31240 13734
2219 4705
34364 62135
4089 17518
56170 17088
23953 40605
16921 8877
15499 11802
32692 34157
20495 23876
55628 63062
61265 6658
10413 18045
28540 65247
41302 57453
6545 18627
50872 28632
37973 38382
61072 44793
21599 41885
15971 61081
29884 59428
4757 35648
17263 15918
30270 44667
11573 30251
283 50739
34310 42114
35539 44967
1536 54809
55450 25756
40236 20178
48209 58982
50602 26859
4292 5362
33416 32664
18082 27774
68796 38929
17397 8050
32119 5269
58797 7731
41938 39784
26478 5278
63250 41161
40316 7502
54621 59504
1671 41188
13970 63264
5600 56617
64912 7061
1608 52952
4509 65882
18926 31028
48845 18051
39569 7611
13972 64322
61058 20616
65209 22382
63708 31636
68482 40864
34733 54929
27556 56201
66895 26695
49502 63818
22018 33148
10738 33093
40741 5673
52156 43238
48693 19220
47881 22830
38489 29932
63806 3995
64514 45966
2368 50948
60152 11552
15147 43062
66836 57242
28414 28596
67031 19034
23711 23053
26574 62181
63154 37472
53445 12279
65979 38685
16438 21355
39763 35873
56022 8028
33955 32707
52906 10628
4581 29115
27782 4682
68056 37760
52999 26307
38194 58623
25970 45327
44980 46424
13069 19455
41911 15432
9095 18530
26345 14697
4885 65834
12678 13943
15504 35044
21726 46238
47794 5267
10194 26653
25937 40397
43510 38982
16465 50488
21488 65338
47060 11957
59192 46636
37660 14461
61900 8544
27008 35260
46589 52353
454 17197
17677 39874
56961 21904
16351 43426
37169 64108
1387 6713
7698 60331
9325 40340
60413 25304
55169 4929
9174 45887
406 23585
29600 23587
44157 31362
37041 29061
53172 7179
62121 5090
31618 21741
14455 37563
11981 18986
37012 7404
4432 12894
27721 5996
63844 27294
30113 14656
36854 48329
14389 52100
63990 49961
41375 24716
3760 27834
26743 48530
63958 5143
35490 46667
20550 9976
11733 64925
39031 35224
50839 12866
62313 64192
39884 22697
8010 59638
22403 46549
27593 68365
66216 5214
14894 49895
67048 20357
51380 13691
50363 16540
19294 49147
6037 54544
647 31971
61819 40314
12060 753
48938 65161
20709 35768
68414 14159
38458 32575
64783 21683
19123 67858
16367 22612
64120 241
4022 3168
6888 38038
48127 19557
28720 15925
3079 30041
1353 67110
53271 39816
48677 43049
59045 44039
46482 18903
25128 5985
6778 1772
13002 48473
39889 45426
35928 68198
2893 33669
54117 50799
39658 36722
1064 54081
27537 25231
1828 2299
33935 65541
15959 64103
24161 24918
58503 757
29214 57637
18811 40130
32462 8863
42497 33981
63474 18241
38575 66836
22545 67254
13575 38688
43751 9512
49598 18917
23132 56611
55457 66449
12370 30948
45451 52209
49641 59960
64184 13688
42830 18302
28590 45255
57722 14102
29720 40035
26657 61971
10869 5442
2102 55681
26559 57282
66422 38597
17613 53143
26729 36830
20156 51807
60320 36924
45595 53569
14100 38137
24421 38101
16205 22294
10334 14788
5574 51901
63928 3398
37065 22164
43508 10379
50319 51900
49466 38950
39555 49881
28649 51261
68213 63315
4773 36014
36978 60014
20284 20834
30316 61935
10662 16502
8143 59406
20247 45656
68261 38623
33792 52526
42760 30385
24206 27153
49777 5662
24373 4572
20132 23417
40425 68647
16394 54990
149 51834
48913 53627
40290 4123
693 45963
51011 2207
42208 29866
12001 65087
55667 63658
47067 37932
27907 10501
7538 4850
66423 67141
14786 64734
8483 27624
31628 25910
4637 61027
53330 15730
2076 26362
57972 9666
14594 25212
46807 32132
22427 47396
25807 18845
43287 43463
29121 17820
62231 50765
854 36650
20118 50150
56503 68488
23026 50534
60696 38355
22923 38689
32337 48503
5088 6109
50380 26259
68222 52058
50200 13579
38315 44596
39226 65856
24745 30231
20475 26293
57719 59339
25966 59476
2682 52309
42656 58314
7929 11410
61950 5856
63346 11105
43167 3732
11308 44581
49568 33203
17949 63568
29147 62571
50599 15502
14670 11695
55588 61007
22035 13984
59883 62093
22593 3603
59698 6240
20874 46250
64498 2284
46835 33835
30073 43004
41611 51447
9230 12556
39809 47228
25595 62935
19098 66705
22605 9620
35902 56556
9084 54181
51276 52746
62328 66788
67900 5080
3396 42559
21026 33874
62720 55281
68628 54360
68107 48105
3301 36026
18094 63361
5013 14268
15549 54749
31680 10640
37414 9000
31861 38059
52340 6677
59446 17628
37069 58046
12263 39001
37699 28797
59897 504
28332 27745
16650 24346
54410 60517
44503 2183
46490 23159
9178 23727
63058 29696
60145 4865
63736 62222
20888 17328
64174 68493
35920 9501
6394 22400
66241 14705
48201 55787
21620 36011
39845 6215
54926 17617
22138 28658
40719 67201
25071 3562
59772 20530
29434 22547
3970 35594
66078 50726
39659 57366
68696 62114
26192 934
37461 34412
37957 30606
16327 33432
52794 24064
58200 11600
53991 1100
4653 25605
23069 31814
13366 30763
15232 65380
3243 57775
57555 39966
13491 56379
25286 61700
66774 34416
61373 67208
68475 64869
19189 63956
20453 26978
43153 38414
8167 62283
952 55112
56089 37146
55116 67942
34208 11641
59710 23424
64853 14339
39542 48915
15572 31470
64638 41515
11920 50305
13089 9286
37221 5804
21375 24522
65413 68294
7416 54504
43624 68393
66888 32277
34820 15350
47306 32156
40684 47117
52502 42149
29927 35755
2410 34998
30188 53918
25739 6909
51386 13128
60596 36945
7561 16901
32877 50771
63012 64904
61910 18569
64023 2916
5560 66562
5450 63330
40629 37997
43177 11247
65981 29748
33274 34288
57106 42024
47681 29066
7947 16085
24583 16049
49173 53741
1896 28438
61661 20556
10287 48112
55110 45023
62408 39146
29969 63287
14560 27359
30647 44518
12495 59986
29236 29314
11028 5751
46884 15604
54836 61163
56773 13181
34207 53433
37825 40394
16860 43691
4946 29255
20924 6268
5699 24915
18210 7616
49323 55651
21956 6721
39361 24443
24721 49536
64863 48757
34058 28187
48053 27566
32919 8226
47535 38967
4605 6313
18386 37173
10203 58974
44430 17684
61863 14987
62024 32635
56589 55753
58661 15908
40369 11551
58969 23285
12826 39505
66253 41716
35554 26065
30089 25454
28525 15669
16271 56022
38621 22091
11130 37986
48329 53093
64484 39434
67555 14558
2268 40232
12493 21801
14759 21138
40581 65937
22810 7802
6214 63485
24431 47292
62268 6874
39699 29216
44529 16698
58538 15831
4102 1721
15442 67755
4196 41133
49045 29711
15570 38596
8757 66579
30311 60944
36251 15962
16793 16373
10488 64894
58539 67936
18363 21717
60035 12877
66031 60564
21225 62995
18298 30890
65728 27184
64729 55999
47866 42909
10017 67237
27612 21259
21449 3347
36110 59490
35847 17387
20519 7662
48477 46171
20198 10066
41690 43038
64726 20445
50654 925
12058 2925
56189 43172
66447 62851
30911 46040
62573 35997
32915 57710
60688 52365
62044 32147
12967 4722
58176 51238
60704 50826
17575 20755
23689 54826
56315 871
55079 5604
22782 11826
31924 5633
65478 60445
28863 17266
37375 2755
65027 9277
6003 19096
27387 46910
3372 67148
14641 64927
22243 44277
12152 5905
41282 25662
24739 4776
68602 21546
31666 64869
22892 29816
19144 18796
33842 21838
58322 17735
53459 50810
55364 19051
17218 28912
21703 23013
40123 6612
14058 33256
44323 60636
20022 14979
58907 42969
19794 46855
26791 64985
62864 30468
46621 34669
43389 5617
25562 22681
59821 15042
14048 66968
54148 39898
38873 42071
17600 23445
44101 35788
6106 30441
14797 26782
48165 60400
47027 68408
52781 21913
59659 14908
62490 49258
60184 29677
14683 25372
15173 15332
520 39230
8293 43616
29454 55641
31792 13808
42405 49583
12419 23779
11160 44049
9118 29631
34859 29689
2116 22641
56201 13964
30715 28250
940 51988
7738 4596
53287 37838
28889 8270
51450 25497
20418 40472
44054 40211
59342 42429
55293 20725
56998 19987
3737 57748
58901 23650
26072 18871
9586 24949
34086 67733
6745 66495
40516 41650
6955 11
41061 15829
11361 1866
346 64959
2030 63294
23796 48166
53722 5335
25502 11587
43237 1476
48371 31021
10415 342
63493 60818
28793 4630
56802 67486
41175 40898
33802 27629
28510 12623
15035 28014
49347 50533
23801 37564
20815 44005
45965 12149
6185 4038
35911 17727
31310 18473
42780 2134
45452 47181
12256 10343
17715 63239
60153 24763
27938 60658
11171 24822
10185 3488
56807 20661
16760 8336
42341 63070
63822 41082
15562 57111
57125 6453
28606 60986
36061 56432
64249 52565
41223 10648
18492 65056
61982 25066
53834 31647
48434 19767
17337 20904
1098 61918
1664 7564
4798 22951
54237 213
3503 35256
26899 48667
7223 32047
11331 10271
67579 44158
3781 5570
10163 16384
54519 22447
21 67172
58356 49985
14326 61686
68465 10064
47264 48841
39744 44934
56932 47871
51679 46729
24964 55741
16599 7029
41289 33085
9474 36636
49177 48006
4713 12197
18391 21782
34481 16164
31096 38241
38049 62759
22727 35198
11682 58389
14232 50038
63190 7643
38215 43533
2914 56308
32846 51411
54223 16275
2305 4182
27026 57342
44479 36007
28704 21015
21488 64917
11238 42124
21280 47437
28836 31624
17055 35463
31759 50328
36585 2248
20689 56305
68589 56805
63244 1044
33000 51075
19639 6271
2513 49166
64857 29701
4029 58592
7621 29840
57526 50938
55870 1842
62346 11018
51379 41277
66058 61591
37663 1799
43662 33048
34826 25085
6473 18299
53714 42331
32145 8417
2171 57367
17836 34454
28049 20183
43301 31330
3881 43327
37899 52461
17932 29955
46706 65243
68099 28363
32062 64780
65737 56631
51077 50886
42138 45916
55700 58066
1993 27421
14452 32679
11739 63532
10257 1517
7161 39260
24422 20553
49518 59859
27046 31836
36414 46339
50843 38799
22100 41348
64860 18219
28262 58626
40620 1695
12878 7408
27835 33753
50615 15933
63327 48588
62396 60940
27943 60203
8450 2140
53364 3512
747 13988
42431 20416
44405 54435
13172 19352
37304 61244
55465 7766
49750 9637
58345 20029
43020 58343
7182 41002
10381 14381
38068 12123
35773 26136
27747 9506
37308 60183
43918 26155
41724 13761
60695 908
50913 5708
22727 48049
54120 29792
47359 35324
6754 12265
25425 1886
62265 38904
6845 26128
8070 51233
30420 68237
64479 62643
24600 36619
42507 58283
66682 63420
18639 27060
65408 10491
56411 35764
39831 18898
50858 45774
5987 54247
49307 17375
28051 6000
20216 34764
53782 63508
55047 50161
50175 1922
49026 44080
18156 51848
41147 40353
1205 51748
50416 62491
7287 6727
49684 2718
62603 4314
60600 39859
51502 32848
53545 26655
39033 54254
50117 14816
46880 27763
35709 6630
59473 54016
36039 61458
22173 54969
42085 11518
36597 64700
6377 68818
39384 52267
17260 6350
50960 1581
8370 51990
39823 50299
55924 3712
59763 34073
21163 52476
67788 17160
19277 57829
17701 27656
38439 49168
63816 1310
62884 50824
21585 20401
34548 64881
22976 58888
21613 7805
6581 48934
50945 1194
54924 41552
59976 10906
26298 60403
28037 40090
47900 40799
60051 62384
53356 33908
66464 5988
5111 21099
10870 34074
25973 39322
10259 3740
59893 49219
21500 190
39548 15922
10472 4823
33999 28988
43274 4276
19678 6064
36004 66515
30470 19599
54552 9608
25393 17889
42086 6778
58774 41997
10876 14512
886 33000
62815 60762
46603 60620
40939 26946
25904 24661
65326 63747
31498 1696
11412 17746
6103 41404
29557 45990
42079 18571
8383 23760
11048 34333
26264 40692
3441 6504
16936 55581
59140 48235
56155 68694
14101 55444
51844 28460
55376 24420
12882 41511
57799 7075
23462 49707
4100 38644
56969 62920
59813 21011
4030 5904
21104 50053
16146 47137
48147 12812
35509 4560
20765 35289
4575 48918
48799 50370
23931 54899
32963 2786
23671 62065
59205 38922
24736 46547
7742 30461
2082 13132
4866 10696
55255 61501
54786 19625
44655 52777
35616 37443
39911 7934
20741 41959
27533 49338
66624 41328
20071 40081
18328 46279
17402 44719
49724 30826
40301 43238
57388 68603
8546 26794
8923 18643
19041 1637
61071 48323
14150 39582
40460 2229
2414 41009
44560 12719
57804 31437
16987 65110
8758 12672
57416 58769
4129 63894
30529 20556
36440 15917
182 31445
66063 35552
41969 47229
65242 34566
832 14533
22996 41095
27047 6390
32450 17774
49989 22163
10069 25523
20260 37141
30044 38234
46274 28530
43448 16846
29895 47685
9985 28313
64013 54208
47700 28435
67588 7382
24041 37210
59185 42801
410 67703
65710 67872
22882 19409
54951 26781
67109 61716
66120 24811
56936 45843
23370 37451
3896 30688
74 20295
21201 2023
58504 39658
1104 32278
55002 49359
68081 67726
38895 7910
34304 56871
34858 22773
58538 8793
43448 43096
5961 24406
6391 15226
46953 57671
64962 53143
46272 67645
4180 9144
25644 4069
22149 28672
24093 66633
48472 45672
61886 34242
62881 53381
8564 64882
55229 43311
28243 61043
34292 63203
3702 43788
49755 48914
28387 11080
42329 29693
18919 41008
10561 26448
37886 40916
14640 15584
40519 65555
46839 55655
66161 23070
49350 63381
45174 59510
31041 11238
43568 16241
54096 41718
59987 43385
41940 24139
5353 60615
50729 41773
10895 41021
13993 17697
49774 25999
8158 9498
41837 39237
68468 51491
61059 57918
34276 31711
10886 23433
16132 39185
62614 56362
54669 49368
44645 54915
49700 13671
8314 50995
47025 35722
41148 44370
19004 56580
31066 22407
51531 205
45824 6810
35303 51693
4737 37617
29422 14981
3797 41279
43118 45700
66688 61270
24586 41682
32089 31594
32911 68059
32037 16193
46098 11223
47709 16236
50688 65457
53456 48792
39263 60412
62885 26183
62494 16819
46075 28681
12069 39679
48493 9484
55723 46581
68060 20624
13844 54463
7427 11465
15975 12423
242 18384
56271 11580
1447 57850
21387 26685
6379 20199
29767 64366
61079 38644
41833 49189
29628 67982
45914 59454
32560 49202
18619 30883
18147 52409
52839 62018
47853 40222
15223 43589
36358 34682
46275 37074
17586 4478
63502 58353
8327 37010
8958 26331
31377 38762
45141 46313
54157 16592
50656 6772
64841 49084
29457 10084
14476 48778
23971 56350
49809 41237
66148 33039
42004 5698
40945 2721
63710 43208
51023 41766
40069 11516
52462 59681
31223 26201
38482 38345
47125 53157
8429 20516
17016 57534
12395 52935
16753 48398
17527 8924
49450 52062
43658 9265
39044 37903
68449 13833
169 55219
33557 18655
57319 26743
57271 42788
11541 18421
37661 36853
19147 29438
53132 65499
66733 19953
25147 44825
38728 55995
15174 60256
23839 44706
57015 61327
20358 12499
52352 2578
22846 20705
54388 28025
9974 41456
24588 10857
7177 7979
43104 14671
9095 66369
52762 54736
60244 63489
23465 66871
58162 32919
39745 60219
61785 6333
48910 12219
38319 26652
29401 5361
16833 45095
38661 43783
25112 12628
16459 68241
5764 49136
58905 54077
39638 21697
38931 12326
26754 14023
61559 51150
24226 5345
32709 60380
48502 47649
13978 27880
57182 21409
6868 41589
42918 32453
52057 56820
41392 4515
34557 1081
19265 66304
2295 25590
66325 49317
35958 46891
54514 62265
47671 22870
3956 52310
32409 59488
45294 35428
43412 13843
54515 47594
59939 12171
4057 4791
9156 46759
479 65587
4420 68115
12523 3617
26973 6567
43570 46304
34409 40261
36000 33055
57211 35682
16042 52065
14624 21883
25209 62166
67101 9371
33382 61537
12852 15469
13417 35744
37099 38870
36259 62829
51188 49746
53932 53561
22431 10107
48641 1487
6039 59296
61199 61474
34802 22144
36477 258
2939 59258
38830 13322
59852 57176
55583 41597
11629 63546
33602 37897
8946 54679
67048 17341
55511 56012
56227 30379
52184 4924
14529 9310
42224 56301
33686 22997
10953 15965
57268 24044
58765 29004
1945 60211
67532 21538
24512 15286
13537 46259
7073 37116
33481 27994
26371 3457
42545 33904
14353 30779
36155 54681
5016 19160
35559 35017
36586 62213
13538 53734
47313 19434
60330 56570
51100 22050
65752 19600
28333 46125
9716 36647
57681 56128
59867 39584
66986 22022
57395 48865
58746 42673
7574 23429
9862 42181
12510 37333
62146 40301
63958 32193
10935 41148
3457 51353
12904 45306
28974 39068
43902 28413
27626 11520
64567 16762
31230 55523
37021 8613
30173 44790
40834 38392
49993 34873
30876 48067
22453 12508
23996 32724
5550 61186
33150 17452
45900 23749
8102 457
49356 51329
42227 22903
29714 49921
31411 33116
66580 9568
38877 39802
1123 65529
14729 67176
59828 11683
30309 43176
43514 44114
6346 63764
43050 24459
18372 34113
36984 39003
6810 13805
63125 14006
57464 62396
32080 53407
41992 50496
24202 7647
59189 35846
23271 66011
13344 24615
18163 13406
65800 10452
3072 62002
26155 6798
3427 58079
54277 11357
22931 24029
24800 18413
55553 30533
67159 49907
13457 56980
20980 28793
46922 7633
60627 537
15460 25307
23904 15231
17460 52041
43625 66255
7013 17735
36874 8758
19017 61380
53744 599
55821 65276
47713 55880
30535 6349
46007 58722
54986 27314
67778 62642
68291 48665
28331 31252
25183 26312
38130 5186
20750 9470
30422 36707
48719 38480
19411 66515
3762 6510
12932 34167
24132 8414
43505 19318
31523 26901
10163 10675
51173 3900
1722 55017
36221 9739
14827 53247
3971 66405
13240 20119
33132 4954
6205 39011
55682 21457
57844 48898
11590 64704
24115 2062
48001 26738
59776 66229
1174 47565
56016 14491
7502 23946
24103 66126
36099 7136
52586 45531
7500 48965
44035 64062
45798 40692
30387 28008
36907 39155
7300 9804
33041 59603
24442 56882
39004 26878
25575 37094
63054 11015
34402 39319
25546 10080
54564 13315
28888 24154
12586 16187
9442 18811
15851 35157
67149 44003
5796 22367
6043 38245
34951 31612
50422 28519
44454 51859
2491 2899
35420 6084
27619 12344
46501 52693
38134 9363
47687 55542
10821 67797
16347 56559
29735 37737
3497 33765
40282 63440
2813 53725
2155 38106
18415 21602
13252 61846
19465 5143
27254 54733
56041 40435
2479 56919
43052 46915
18546 29609
36000 49744
6685 27449
43670 17334
5995 1878
58705 31296
5132 51044
40051 22153
53574 59308
40939 39747
28969 40464
11578 25613
5894 68598
62451 15163
41541 9194
1660 41440
30335 25389
42204 872
42789 13208
45541 27364
59001 63399
37929 16452
54816 12008
48670 37054
37346 34906
27070 43365
34841 11321
65307 25612
24103 22842
24248 65496
5975 9695
36320 44101
1644 67415
47326 49495
22700 19841
35647 24611
31775 7083
9320 44785
64542 329
18975 11875
30354 54755
63015 53191
9135 10063
47347 38427
11601 48884
25243 55500
28351 29821
30746 23052
9197 30725
1016 32789
24347 45272
40176 368
58086 15360
52222 59970
60351 47342
41951 66128
62493 42351
68286 4235
52473 37637
52903 43820
30395 26276
19905 53865
59836 65080
6828 38723
41179 10463
28042 62389
68754 17020
10495 22094
20148 31759
45917 21206
18325 44213
23152 31709
55584 19123
64158 40831
45493 29227
61771 7445
5541 58628
42694 56716
27606 68585
2921 54146
30278 25728
64791 6666
17090 53028
32454 31530
31694 36074
8373 53483
45230 56858
31494 32146
19281 57806
9504 43005
50744 32646
28118 63230
37302 46840
92 51888
32869 10101
63252 10074
53098 21313
5292 10998
56374 6393
60923 8053
65557 38321
63647 53819
56650 32361
60242 33970
22491 33082
45470 38678
11395 53594
15048 41511
45289 1212
57401 11184
63113 33321
53698 33520
16328 48248
32071 38269
16008 42025
5876 63390
66573 16485
8992 41330
33159 6217
45157 41177
9460 18777
27630 25649
60852 66523
45581 28564
2620 7542
62356 50914
64094 60230
63208 15189
23375 53197
46127 6981
20920 36174
47748 40853
14470 207
1848 2882
53548 22708
57204 61863
40216 64172
1764 50063
924 41446
3208 35875
49817 28180
42111 14686
61206 23218
40608 15187
10307 32768
64293 62828
12912 44592
11119 43018
45209 60743
14427 40693
27731 57963
3871 44450
24549 48086
51221 36014
67434 38264
55900 3002
36080 14352
26947 23321
41737 30321
24775 25526
45868 34793
31387 8835
55727 15373
32166 63982
4510 30661
44099 24054
59156 22347
57709 67908
35791 36657
60109 46991
31929 22924
63839 44398
45564 15196
46192 20973
41782 33271
29656 5563
50890 27042
45917 43683
29069 64326
63817 62776
34442 8658
51390 9102
5943 64001
38216 3093
54896 8609
47047 57717
13589 16458
12385 49932
15124 25032
40029 36359
19576 40704
1197 60611
65690 18834
43085 3156
36330 5595
58944 64050
15269 7411
50898 46223
38668 51989
12207 46723
62706 18471
55285 23412
39289 53803
42697 23292
31587 2525
24899 65385
318 65127
23168 48670
39108 26001
26905 41218
11099 53899
41193 27191
46312 11310
48943 59896
32785 54956
38821 46054
32923 47104
270 38818
28253 67554
17704 15976
39395 44173
21133 61828
50245 899
2276 60963
22237 60241
56116 27056
50306 42831
53567 21605
9414 12436
41715 7351
31534 64258
1130 50602
56355 39761
46192 56904
65108 51909
41304 12743
2410 61170
37345 51706
33781 59131
63349 32942
5147 24777
24810 43144
38701 45738
65374 50979
9060 31528
47049 13834
67919 24463
607 56280
47776 24143
56693 59574
25019 20036
52727 14822
38558 50135
17157 53147
54731 5980
59429 18031
43344 1325
19433 44894
43059 47999
57174 34666
59703 18501
67949 26177
32650 16846
42746 12120
9812 31553
61822 68022
48618 49299
5923 7201
51498 11826
34372 68461
60957 57728
2760 62680
5384 12079
54291 9696
19764 34296
39470 32706
40677 67423
42120 27769
56594 62695
27667 47156
52596 9525
18680 63399
48849 26488
41667 63799
9904 34098
51261 18230
45984 59468
38405 16481
20652 31647
44366 61123
34880 14820
18747 6867
13928 17491
55883 29413
61464 15142
14701 45062
41464 65707
3789 55837
10225 39778
28802 32902
28050 63290
25696 1976
34717 38298
15202 42857
6192 47929
4452 41863
36804 28491
65821 41880
27422 64684
22081 5970
25741 25147
40487 33825
45591 29452
41978 50705
58057 27461
28919 14485
26861 37122
49760 48193
45022 47960
62587 41582
24196 10701
29832 3610
21163 55526
54127 54747
719 64498
52323 10603
57295 67729
19296 23094
38567 37274
45036 31181
36603 11731
8294 67267
26839 12567
29601 27216
17928 36842
20915 65309
44764 8327
10061 65852
57662 37118
46976 17098
11742 48972
54281 51629
23788 55835
60021 57140
41732 32622
5295 50944
61291 41791
59208 61713
63776 39549
37797 26197
51562 68654
15577 39636
17330 21921
13225 8474
56254 68156
32279 34253
59685 54939
24510 13392
58289 56327
38703 28905
17932 26446
5317 29373
49786 61523
29670 25222
3354 13003
10792 61442
56053 17967
58123 20180
5690 60587
407 32660
2874 30983
24855 37463
15250 56975
60872 7486
25909 61041
41489 51055
60529 24675
49454 36957
56784 18271
44446 7371
55210 1771
35195 62446
31420 45140
8684 54529
65824 21001
53975 59732
68196 9937
11771 29414
27521 33495
54677 52062
52246 46911
14649 6704
68726 11920
38763 23523
20563 5535
51726 29060
703 32240
15590 49593
17649 41010
48493 15740
2315 47844
41544 62985
4376 45608
24176 7049
42624 2663
48451 3751
6525 47160
39436 53054
44001 9712
7483 43885
36085 8202
6693 38022
52307 19998
62990 30495
44357 63653
7258 20399
57111 47412
34035 38563
37738 21159
41411 13596
51547 61311
68505 66338
8096 28100
10624 24147
64576 56157
29916 32175
40703 35023
60503 22448
14130 15181
46661 47002
16118 5874
34696 22972
67494 37371
12983 33944
45208 4351
21568 63794
17845 24821
64699 25000
24166 3423
1798 40432
6323 47909
65388 32454
20386 16247
12327 64376
8034 48021
19907 15858
50199 46341
66056 63291
52754 56761
61988 52433
32908 41354
39005 18183
59807 25505
44461 30952
32299 6268
38866 13796
49342 60921
26241 55640
17411 30493
30689 11060
19478 25274
56477 751
65164 50352
43581 705
9514 11763
12295 8598
33620 20089
35096 33033
67218 13845
9919 25297
57481 50793
64135 56509
65019 24833
3032 26000
50717 38634
8099 27947
20929 47412
47545 40124
50648 30022
1034 48965
44824 40894
44106 45481
22169 41510
52394 27303
57057 64198
13864 25607
22356 21862
10574 64095
8374 1683
64265 63753
27924 8298
56455 50807
60890 41737
41263 21536
59346 59769
48584 32577
59622 68134
43699 40382
34291 7034
30297 54270
57200 5831
58872 16436
42061 47100
46120 41258
17129 45765
940 38848
62240 61482
67150 26824
53286 33574
41658 43635
53847 10970
67841 35185
14396 5319
4049 50264
49256 54667
52346 54871
52925 18640
47891 7098
16387 33694
63561 8583
17473 1061
36343 36817
16610 55391
12069 66892
41033 55428
50982 21805
59914 23987
20271 55282
25685 26100
46086 33304
57014 32718
11498 36044
57781 45495
39781 60782
44090 14465
63145 5841
39286 56367
12056 18699
36306 58237
66444 26203
38587 19128
49885 64673
33032 39559
52933 1475
48619 64375
45622 5222
40514 21984
1086 25847
33337 32274
22377 1644
28472 25765
31535 35519
22487 35180
9152 60447
29019 34012
17959 25087
30845 33226
2096 52392
65051 3837
21748 53108
25655 13074
28548 4335
51615 67359
35348 39715
3638 19945
50983 23225
30269 12229
19325 8614
35264 17398
17035 34366
5782 32649
66447 17633
45348 51740
33666 30265
29207 64813
31988 23887
29669 49255
39546 22967
20994 49658
7878 9556
59049 7874
7233 20470
14189 38475
33720 28855
63992 45218
36488 33826
29047 52770
26821 10292
64597 26221
36320 24728
40987 6151
13001 3209
43745 13582
19085 37733
45107 39809
15547 8452
8899 2504
36364 282
17378 43480
19721 11414
46477 64166
29859 57535
33937 50099
51999 64600
32242 33790
55566 27735
60956 24890
60842 48853
4816 30993
17665 31864
38233 20204
50479 27847
24738 62887
6795 57042
23615 46529
45831 60555
11430 60123
54657 35162
59740 24492
65545 954
56518 61604
49230 37017
45225 49360
13159 23694
1740 20000
51263 50193
27721 44401
13605 14769
56840 14691
13831 54591
51830 55237
68697 55679
6514 5839
52199 57968
27424 15857
42362 30503
19577 28453
58449 9092
18475 29929
26881 13916
25880 50801
61073 12357
40977 10961
41081 3792
6955 52063
9630 28142
6424 48657
34994 24830
1847 27953
35819 1760
4492 20383
55603 12614
65514 64989
18269 34953
1058 62158
27579 52090
43183 65576
19273 50648
27454 53926
58706 32324
32920 62273
41727 59102
45370 52825
43648 5553
37250 21685
3501 18283
30186 68739
42850 34950
14338 32935
4738 15569
24630 32111
42036 43037
21867 10864
55175 46899
9699 13919
40648 18807
50101 60078
26894 34804
6860 1660
1351 21107
59077 15810
24826 14838
26599 35315
16119 18188
2467 6532
26630 23058
25365 6689
30860 30435
37228 59654
61153 375
49064 38063
13855 2296
19663 7901
11841 43602
12072 11426
31608 46870
1911 59103
5069 31086
56308 18009
63888 27095
64613 41418
50238 50762
30673 33846
10019 14101
31903 20213
24203 11268
59342 55169
42246 47579
4360 13722
34565 40872
16868 59606
41664 37322
11265 46006
49344 14152
5484 54058
10757 57084
17433 47030
64278 21796
66791 13619
36278 8398
21900 32340
39198 29967
27841 18111
18771 15906
40790 2323
47061 11261
61040 39137
65809 62805
40747 39697
41872 62006
47185 58652
41195 23633
49035 55057
36855 40341
39886 23464
56221 54267
1383 11379
39422 43273
55751 37584
47192 21637
32152 47159
41167 14646
15527 40614
10746 51591
67042 3267
11666 12518
27974 61314
28220 48236
10012 4051
21171 42407
36629 17914
13479 4763
2369 8277
53704 68456
21550 3812
52500 24058
27322 14077
57943 64452
21692 27101
22483 57053
1920 26436
10392 28837
492 65601
56774 42017
65306 13901
54602 61869
31322 56867
41213 3156
63193 35434
24548 14830
3616 47098
64181 7953
21691 6869
60250 17387
4444 16339
50719 59555
61796 47707
63791 31584
35765 35058
38488 52097
13321 52035
65143 37899
54875 35449
53225 41418
2445 61877
65449 58177
37800 9328
11289 30935
38536 34293
3933 30239
59386 54995
28870 12503
36202 11254
25546 24994
44477 29732
23043 33514
715 34191
8587 52028
60379 25892
12991 17745
65751 28798
5660 61270
25735 64585
38012 21320
4573 43028
43513 12368
6103 20527
61386 59536
40083 6210
56936 43023
33032 26469
33425 31697
39421 45424
64127 55279
13916 59173
11547 28045
52679 67478
32533 8156
43626 52448
50393 13222
30591 33157
63859 12400
36469 67137
62490 31033
16322 59482
29195 38595
32718 13692
5015 42701
68636 5743
49058 3985
16633 51016
9618 34987
47451 49254
29179 7345
48215 8406
36792 32910
53801 4387
46145 6236
31785 56052
65088 29726
594 43236
36388 22009
57072 55305
58134 8060
43449 8
14919 38636
63078 22566
22215 25354
24822 60239
49055 28469
42782 63625
27046 32714
62065 58531
4641 38508
24307 8007
23409 2571
9272 67361
55090 8489
56535 16373
7857 23803
24485 34760
30912 61969
54800 8753
14759 58493
42601 8978
5355 33843
15632 15660
28852 33331
49906 29312
8831 25923
67206 4614
47446 24305
46077 17753
27473 61564
36914 26192
1552 56257
25128 56436
57627 42549
47923 4181
67945 55151
7060 11893
15824 279
56186 33606
53607 35512
11326 1035
58125 21820
1931 33375
33554 24520
45020 65276
39339 18208
18900 21572
9829 36992
47502 67687
3832 38306
43167 45158
15909 56367
34892 47732
36997 57058
64054 52259
36513 24974
27431 52449
14675 18297
16194 65559
48885 18488
757 1719
22545 64300
31852 35961
16231 33587
10871 35462
857 6051
47267 33528
38990 54077
45523 12944
64363 67790
56658 57733
31289 6206
34930 22325
64712 380
55308 10156
20671 36250
61366 3916
58910 12248
45240 40849
61743 40604
18134 46861
52323 22071
55703 34063
12423 35346
41916 60647
29097 35406
32082 21356
60439 55919
55409 63477
13592 14925
26585 38916
51382 35077
34173 48763
19470 45606
30252 13955
37382 9032
11649 32953
60814 45089
31746 35667
189 9195
31103 3358
1473 24795
67810 18014
36985 36559
5403 49217
58503 65101
44446 13535
15395 55165
45314 33695
60117 15207
49957 37555
33385 50604
43171 441
29395 56194
24590 42189
5843 67138
57963 11932
66560 24331
44175 12608
6422 42587
65111 27218
3048 59007
34447 9469
10007 15451
9290 61301
57297 23332
11721 66673
1731 36614
6686 66485
11578 32458
45853 8153
17574 55470
14371 33827
25121 41008
18401 3614
23814 39893
48639 66582
4004 51165
31605 7298
54605 12199
5906 15065
20809 46696
65183 38290
47897 9736
20652 60429
31819 31113
61845 36327
62038 10255
19291 34079
29102 6695
58703 20265
52154 66831
39687 29829
43195 46437
62708 36811
33440 61442
57638 25812
57832 17727
65410 7110
29077 21789
24674 13872
45844 6707
3137 34493
8525 59765
16800 2090
42484 3761
52216 50491
30068 48542
63298 66982
33431 26589
14138 24097
10613 46461
34407 44133
27587 25595
10246 63070
3580 9964
40299 7767
26012 41299
6283 54188
41364 44154
49371 38982
32858 61549
22908 47909
28100 58855
51207 43719
6507 51947
16210 62585
8655 46136
9553 53348
28503 67774
23757 27505
6256 56792
29735 22437
50128 40042
58386 23655
12165 56135
12131 58493
19591 44957
33631 28755
43768 15064
49570 20485
35653 13950
56618 23680
41290 59427
14777 35040
10909 44255
64543 42012
38141 25761
39680 61058
59934 33272
33375 67405
34579 55899
64145 59187
67562 52932
64160 58993
7601 67666
46282 32770
31728 29379
64775 34814
489 16073
40546 30921
28145 4576
541 125
49706 50191
42847 3163
58776 65613
19006 19950
18896 42680
51962 60176
34321 44917
12922 55659
21927 27546
15877 24391
28029 67844
3104 46113
22113 9113
35132 54942
17170 39312
4604 38496
19725 50313
8006 20082
20682 42793
15758 6408
39279 47927
29040 56835
16578 19674
4250 15026
62238 53290
43480 52557
68681 54006
54000 38470
42273 10719
31706 8440
30251 15982
39038 44739
33542 54533
7491 29812
35757 31922
58483 60014
42220 31627
8004 1422
22794 40705
16376 52213
49672 2326
37180 45853
21211 17753
1018 67486
3772 7838
53124 34340
12340 25333
60007 15107
52454 31623
7521 34962
27789 57248
39011 56211
26472 24062
27635 13904
4224 54036
56354 28538
7442 16838
27283 25916
42200 10472
20464 62016
5459 6833
55314 52532
53352 6721
44152 7983
40088 10247
24830 25107
16170 52155
13186 48140
23104 62914
37065 14801
20726 68532
20140 35139
16297 44495
44491 57268
17172 3201
55794 64359
8104 577
55173 38317
29186 8930
47271 6274
47615 54724
65282 9736
56376 27244
52266 22748
58205 27765
59825 23902
60311 51823
15111 38684
30850 6169
66979 18215
60825 31133
12358 24382
1404 4553
39419 30255
21221 47758
6613 50368
34801 44227
58741 61033
65354 25335
43122 7301
57366 4261
55845 20935
28068 32243
63677 39446
65999 20240
27640 25344
61204 33723
9561 11177
34120 32170
42087 5997
4452 51253
45501 37826
31326 3870
60244 41840
9691 26911
34255 42371
56393 31338
12569 20154
25508 11347
67931 40219
52161 59626
58823 32536
22206 36390
15192 32505
59563 4983
833 38994
62747 30144
23871 64268
64031 12487
25840 60671
44715 35924
53178 44607
43138 27686
57351 37240
43315 58703
38860 51539
7108 4400
33066 67831
24308 49012
22978 1946
6496 5608
57233 51094
68766 39436
29897 51754
26492 39429
52447 18025
9354 7392
8137 64385
3442 39031
43939 14762
51320 137
9121 51664
57245 41352
52227 7133
13919 39168
23068 53390
59567 23035
19296 40310
16762 14165
504 28124
45575 44328
8988 62055
17588 56654
27496 63028
32668 45091
56546 4224
36008 26838
48044 2976
9615 47432
9505 24673
56275 60270
48211 4627
23974 7870
30773 39496
37610 65436
16115 22213
31012 4227
32735 49884
35631 66495
22488 27832
18185 26875
51509 13892
68280 38276
48695 20622
63443 32419
49364 34802
55999 3254
8535 41078
25985 60578
15040 32420
61675 20573
59387 13373
58454 53371
58594 45381
51991 34543
15375 5716
66244 34789
31177 43480
15772 44117
24665 14477
58728 9749
59695 20901
36387 55441
66463 37567
17070 21204
7787 19327
29213 22705
63251 47133
57330 4940
10166 40589
3805 14691
14738 8547
68312 62283
2309 12364
31231 9000
60726 2399
20796 18133
17846 20842
56563 63630
65418 39533
3440 10035
39350 57566
17566 25049
1464 48325
57572 54719
17440 54777
31614 68113
62374 1693
64928 48484
52774 2898
24887 61240
24335 57482
30984 33059
29931 37215
47411 1006
6710 54654
58519 16642
56131 13861
15008 11776
60079 28591
60315 9120
66674 7874
58359 57434
36340 17561
49890 42600
39794 2562
53501 39066
37145 30250
52959 24069
68611 18060
4133 48263
30562 13718
33847 56470
30787 10720
40246 57846
51470 41936
44404 31699
2949 47462
8124 68132
69 20295
8217 66038
23526 42072
2956 54190
58939 4404
5588 35895
19236 21386
15853 46781
57719 49843
55046 52457
10699 39284
12891 53441
11636 63100
57609 58336
17748 42153
54563 22149
22792 149
57410 16281
67252 11864
16150 30555
33764 34378
866 21903
59832 37621
59234 20
38746 11714
56188 32635
14632 62244
1979 16234
63639 46029
44820 32663
46897 66143
38283 51008
12545 53161
53106 24067
20294 17131
27825 42962
678 21805
22933 21347
8931 11518
44964 5390
20991 58333
42980 33165
38270 4418
44840 61092
11149 28684
52203 56285
19552 16043
39002 16713
25041 9984
13374 66639
25037 36825
21971 56825
3688 60932
68651 28413
7920 36190
12521 25845
26570 38461
38926 51642
60586 42624
45826 53165
24654 35368
6410 20834
18286 34170
45671 63760
48428 2729
60824 20949
67680 23972
38257 40977
42286 22070
3621 19605
63504 1250
7009 55448
68675 6699
37135 28027
21597 30664
60874 16292
37653 12218
12668 62005
20771 68412
43219 48579
15281 5142
44253 27613
24650 48678
28162 1586
67715 27457
66620 23275
46827 10688
2072 20450
60371 14226
18072 38725
45431 62065
43567 54685
65283 64189
29779 55449
67417 27064
42127 32896
43327 56292
52128 20721
49798 23649
25129 22834
18179 24314
67747 44659
31910 9120
56526 47374
62994 6977
15427 64803
29565 46065
22738 39097
12735 47939
20933 24684
31392 22673
38679 34717
11838 39436
62638 40076
62391 2331
673 18118
13786 37679
54052 6980
22743 49419
21036 11337
62094 946
28015 16567
26476 39880
8577 22082
33763 25960
38076 47213
27145 36805
37587 39341
21402 21820
39982 11854
28932 64061
22899 48416
55061 13143
2904 22789
39742 35235
51432 19735
5132 16622
55445 40600
63725 1818
49311 59118
32704 50622
54226 20351
24261 29315
29873 43207
29351 45531
65669 769
46628 45531
35278 9308
50383 58903
32803 54257
24434 33461
60218 21115
53804 7688
53350 8655
39978 57484
27086 48812
45915 41507
54866 41343
56583 25295
38087 5727
46038 53274
24526 6680
50828 46847
37646 4040
31814 66994
56155 59419
58728 60820
61232 9372
56691 67663
23532 67771
22876 36822
42628 4393
66484 55607
15853 46978
24588 42573
39864 40969
13474 16499
60713 44106
25125 67281
20582 48907
9521 13110
14414 51972
37161 67861
4439 64967
5327 22531
59027 45931
27164 43368
32609 64447
65720 26438
53259 45233
53984 19558
29202 6698
1274 3725
791 36683
42448 43504
50190 53108
32419 20226
12928 39935
11386 23381
53068 21657
14488 51864
32708 55256
30533 26446
12204 26526
31618 25961
38130 65620
58074 28573
13743 50366
7594 61427
4071 47654
66423 32045
42874 3224
55416 52838
67779 35261
38368 53485
18363 12170
47693 61171
233 10711
16734 58941
43111 19299
41774 50167
62792 19934
31662 7924
57951 31352
7011 56701
59795 30016
22460 43375
36370 51116
35120 8494
14479 64663
41803 65074
55780 16567
52051 55517
17044 23436
56280 62528
59806 13291
57881 54075
19362 21335
62039 27207
29298 47266
28339 6232
28235 35323
33690 20857
8257 62249
14442 38973
5536 37413
50440 12660
65632 8917
18685 31476
58969 12146
55907 52170
29803 18538
50685 47706
55970 35133
45815 52041
10331 48872
41307 53355
35497 18531
48941 64090
10723 11204
20051 55225
34368 66276
21486 68155
27822 30517
60105 61542
3966 43478
45243 19019
63388 29571
19376 8554
28270 13829
19256 856
58839 47595
4675 39164
23791 48048
30296 56053
34694 66679
43327 52997
47702 22124
21673 19428
20046 49486
22505 59512
29579 61755
50071 25388
23656 61564
34183 18949
53530 16446
14531 37970
5610 3463
59951 68289
8568 47981
49321 37960
15479 42250
13711 31663
8986 59050
31148 3137
60082 22960
41894 66411
49414 60597
10081 51569
27122 39935
3135 14241
40438 67786
17667 18693
11636 29432
46216 52028
39594 18241
19393 2676
52076 37256
35115 14722
946 60159
51471 32507
56432 40929
2454 13700
19238 47978
34978 65210
9997 24379
65145 52110
563 42096
62529 1237
33343 20321
3194 62196
64025 18470
42551 66119
59712 16523
60629 5777
25958 7436
34993 42
4431 13640
42265 3328
23849 31507
40000 26881
58850 29347
57707 58844
3371 43413
33390 59847
68633 25917
11312 6305
28801 30110
6282 28666
16361 54241
20062 487
10680 54791
32819 30563
45217 64010
41255 11641
25226 31471
7136 68802
53552 33927
46094 47320
28737 37178
42382 16010
55060 291
29112 46861
48946 60338
57565 59964
25549 32826
16154 55594
30882 21237
40118 59389
44083 67170
4405 36955
65063 33961
54432 24398
49369 22727
13934 4272
15610 50097
57944 11322
56212 52749
10716 62109
40725 58615
25511 15938
3345 61697
42087 63600
35769 56541
63390 28463
29936 7649
7416 26497
4233 47034
9519 20061
38140 10366
48922 40788
21413 16865
34287 49846
16830 17636
12769 25857
37627 44885
46365 2939
61435 65760
21898 51515
33443 55499
33934 68578
46544 45041
5645 65864
24979 36159
8117 57696
48815 60266
9266 53907
3422 24479
8814 28009
11981 35778
26611 27313
51025 51210
30671 57794
42838 26125
23617 6014
12571 17832
6017 63317
45811 64259
1126 46779
46569 62133
67019 24524
35220 34962
15108 46435
44751 67236
57274 48201
35508 10872
41003 33747
19892 42854
12551 40526
16484 20959
28828 66967
29089 18145
51440 67926
26032 23053
45607 44057
47108 61077
35913 23765
65635 2702
24943 66452
44955 65581
2754 4545
35430 52660
49331 14760
17228 52104
13458 29336
41028 50323
4380 66700
24860 57035
56823 51220
33126 25591
24972 49048
34758 60112
18114 56295
58696 26370
52508 36282
13893 150
16435 15620
16702 16860
46663 20417
29847 12259
52745 38603
43586 40799
40106 12862
8939 28594
41229 43255
60251 22813
26410 63440
1744 43124
31476 50086
62612 1075
20617 66113
44810 44282
18268 55670
2826 24605
21156 7906
38220 26749
58678 14780
58759 33638
24693 28955
1689 15113
47531 38216
2504 11476
8794 67825
46100 21999
64529 7472
102 68701
14945 32131
45946 40604
3721 56954
8788 38576
59298 60290
17825 33188
21873 49798
12284 2523
4743 42843
24219 7382
469 65284
34128 68245
12151 33599
26466 17175
27852 51798
15692 64838
20799 46135
17945 28271
25763 3614
1126 37086
38359 50452
26547 18002
33709 25506
54613 2793
51336 26074
46234 36939
20622 53957
30249 48988
33686 13369
49171 4572
35454 26256
7166 24
67925 56578
16070 63211
63317 25172
53947 44710
58215 68166
61490 61737
32142 24076
40630 5711
23220 30187
10293 59573
16289 20157
61010 57994
7377 5161
9205 40114
27408 1442
25847 26401
19389 2567
55248 47520
57092 43371
60503 43050
33308 37494
65260 28722
35927 14338
17370 58064
36010 39971
16174 23204
53060 35825
54940 16141
13436 60583
58147 23963
22375 44791
49491 27374
7319 10027
64463 35434
15063 51906
13122 15377
54873 40057
28344 26141
47233 58299
16471 68077
65527 66231
58132 22235
30360 15915
30355 51971
33956 16424
68316 45249
52309 28172
54985 4345
52751 45982
19295 34045
17091 15003
67423 47536
6929 26147
43562 13455
2249 35258
36915 46800
67231 61978
43331 12729
827 48837
61022 44203
68107 11426
63023 34487
8929 18029
7843 50338
45405 10352
47059 51366
38710 57630
4120 46519
3921 29307
11859 5758
32701 54881
30748 5292
64008 40812
57067 35308
45078 58684
17833 15438
14598 42450
50470 1345
32947 38014
66265 52197
65355 24665
24275 88
49957 53262
25160 7016
44733 38
29359 51710
61975 14561
17518 42476
8618 56648
292 58484
22875 41280
48584 2887
65088 58423
51934 18508
6392 41858
40593 54200
35258 42959
2537 30890
33707 11101
4614 7790
67860 40462
60569 22943
31249 31765
6855 63879
16095 14298
16482 3007
48104 65940
47715 8318
34319 15537
18011 62149
18433 52968
7418 19283
66284 60667
58151 13382
7630 13824
45515 66826
47763 40989
29832 41239
13489 6708
53491 34288
52097 38218
6110 11352
28269 6507
59916 48765
3797 33999
66786 65302
55392 15662
60648 50045
54259 16791
45412 55257
56237 47805
39105 1759
63159 45831
47980 32585
64873 44494
11236 68636
47547 35743
33901 13937
6232 32837
55318 23584
7547 40920
53163 31301
50329 37172
18551 7029
28748 47388
17466 11565
7228 21376
59966 23264
27813 11210
15663 649
64855 28710
19039 43269
66082 2
8601 9182
18181 55744
65848 23014
29442 42419
22022 6379
1861 17097
8927 21896
52075 10611
19314 66136
41962 8520
29177 17135
12433 26525
13357 25709
59927 4324
40447 16669
61538 27509
8296 63757
78 10807
33535 38244
26195 36599
40162 22813
65141 40196
13759 27548
25801 46204
9005 60010
41338 40484
52199 18225
25406 31151
48221 66177
28511 5224
27739 58940
6682 39576
52423 20368
6979 11270
50838 10050
19135 24097
18952 54648
61888 48169
9536 60794
46042 62749
43150 1443
43043 62661
48265 65014
49890 7155
54263 37752
27471 33200
59529 36350
17555 17100
33745 33281
25732 58043
30135 9681
3036 28819
31646 8875
42171 2693
61641 28384
9612 5773
11612 9733
15432 2516
63211 67074
57865 9229
44705 27044
29388 50636
67649 44158
57077 4831
29892 63060
31712 2815
34704 29662
2 43278
52613 63447
57741 16936
39109 9590
18568 59934
53153 34143
24390 6629
1801 9346
29180 3470
55189 66658
61258 53871
47529 61115
35083 67493
61714 25731
16180 11481
6084 28808
9613 47145
33307 2957
48997 48197
1679 5180
16147 58231
26298 57513
16306 36948
36514 38283
3670 14233
65818 61232
5783 24139
68716 13045
34454 27621
29184 27836
41987 21352
57496 25596
59917 59746
39501 60273
49573 43848
37030 37812
51444 29334
25590 26324
47159 61925
16277 6443
48965 44349
25156 36997
12528 67071
19788 40585
21311 52459
62819 21961
29290 51125
52715 26209
62463 57036
51806 17011
50544 50833
15564 65275
14122 41472
68049 11116
3239 1173
24445 15312
6376 23244
31789 46652
47615 35122
40764 35638
4845 22749
58841 41068
28500 8036
9905 11104
13047 20356
47739 9375
24751 38411
43227 33048
47210 52306
9227 19022
15432 15109
67201 15030
9753 23239
35232 28068
42031 21286
4127 55542
55707 59278
36608 21283
22807 31425
474 54813
66885 6829
20421 14465
60652 53958
5480 30956
15337 8504
65509 61729
47275 62974
31699 23501
57282 48475
34721 68103
16191 29365
44327 14112
23333 14689
18122 56748
19869 3512
371 62536
64702 29664
34611 21692
53711 66018
36466 64937
31815 56079
12256 46693
2093 9620
50252 34359
20955 36305
51617 38367
59798 3444
59465 42389
46232 45277
43635 23035
53935 50851
42220 65130
61802 58716
3759 16081
46302 27015
16657 67416
9428 46886
21180 49091
63343 45630
36926 52107
49601 56294
10157 9902
64263 8042
57802 60635
4268 41410
24730 12546
45381 55037
54116 67811
60510 10950
34258 46366
10424 48064
59357 54918
55573 35257
7828 20711
20676 42734
55701 59645
35048 34289
4543 55458
38605 20779
64422 49499
62777 50250
49958 30979
2360 58824
12755 20739
35033 34479
29068 27006
15514 13968
34571 29610
2861 31123
6029 19066
68165 38762
42169 230
65597 52691
11323 35170
66045 41541
4371 1028
45702 985
6638 33636
2328 11365
31462 50655
65298 59146
52319 12489
41254 10106
49156 13940
33324 4339
41185 34874
52973 14509
39847 4440
57560 30558
45179 15343
40000 39622
56241 3915
19368 61304
7322 57528
26984 45603
40523 16765
12361 19033
51643 21578
63051 38917
17920 31117
31724 43721
48596 63706
31101 15320
27882 33313
45124 66259
42628 34280
59669 31503
40542 16955
10399 67391
37888 41856
63758 40277
66852 3677
48896 44261
45187 373
27992 26518
67351 8104
23405 52012
11473 51818
47242 45501
58477 48855
38771 32808
31313 5738
43578 43924
65065 25809
1985 21897
68448 35244
65837 63827
29909 46197
37263 67223
25127 51632
17191 12864
16803 65438
32511 16182
31089 50734
1786 49562
63646 24329
49482 51032
53845 2708
4556 46873
40478 1421
67563 22673
35796 36303
44631 42030
40530 51592
63538 7946
43786 48485
16809 61152
65411 11200
17013 37941
13786 14274
26438 58040
5489 40419
24583 50854
33368 37257
43739 19211
62570 43040
53871 32858
52739 7068
8198 64257
29651 48103
16902 37778
20636 7302
47898 32921
14727 13840
62048 53451
24845 67129
22357 13267
25406 19399
64785 33497
20317 16667
27058 25285
43611 3080
7073 17289
8530 4324
58935 51185
68142 58138
6971 11599
57653 28439
28148 24323
2919 59264
22255 21345
2146 57601
8830 4355
42687 53559
67426 7619
9685 613
67856 48931
35207 1466
57935 7266
1447 48739
44114 12937
13669 6196
26576 46790
35694 35225
37967 29247
22368 13566
18848 50199
58693 27671
6604 25768
18578 22808
6550 58608
44497 53238
33839 35780
46539 55412
31212 66103
35392 24433
15061 2930
3809 1084
33087 67870
30597 49812
57025 39598
22262 5578
1610 47110
42305 23358
62458 3706
49646 18106
50484 17877
13933 67593
42936 6666
26428 52695
17099 52602
35281 2581
34222 19222
47852 39829
41250 545
65272 18810
54751 58431
26463 48981
55397 59752
22046 33567
2669 33772
22847 49082
30212 22117
11550 12981
42364 4695
40868 42864
1587 15248
48859 53480
45365 33355
57438 24508
13972 64753
67751 15180
13719 43963
35031 56222
36523 18759
61852 42459
34235 54123
50575 20927
41051 65400
58066 43136
3387 23688
15975 23210
14314 5005
49278 2636
34135 36209
4358 51175
65388 49171
11534 13701
35345 60014
45267 30015
30929 7795
6374 21169
30506 36129
67093 54118
48490 20630
64989 21847
55378 67729
4188 28067
42861 54881
49317 20171
49046 33631
32470 35423
2727 9582
37702 46384
22537 24104
22205 36603
7866 59201
43723 53703
12098 51777
31712 4736
36609 19880
18856 59409
7261 54417
16915 9990
12796 64084
52807 33318
60034 61549
955 28545
46300 56990
60728 63985
54008 32499
702 58390
40016 32635
43584 24232
9762 51863
60894 62363
46210 8831
56826 16553
28359 20938
63100 30041
6660 49743
57316 65375
10396 33644
47893 24558
12666 9900
37210 40800
3446 1437
68698 62524
9925 50355
53434 13532
5487 19454
8249 67258
43089 30621
42656 2493
47320 27913
18275 1755
34430 31008
49720 25679
53443 7415
63164 43645
4212 39457
41697 50004
29066 59489
46351 57806
28890 31002
48794 17443
45560 51324
39453 19902
2317 17248
13946 44665
21373 15602
11590 57141
41141 53588
676 52205
56643 45084
671 1111
34748 29372
27092 20120
49364 59552
47516 18529
68649 56627
48327 5297
45813 34522
64850 33918
20985 23319
43234 15196
47303 11493
11327 58988
6889 14340
22172 29184
8007 66975
20962 18196
52271 45749
41416 43443
48144 28502
37065 63112
46803 51020
22761 36681
55277 43488
59303 49293
59665 53064
31061 13547
5597 4129
8101 12040
2349 4052
34428 48706
42115 59229
30654 17822
17044 7295
53507 66990
25577 39857
56429 25119
19499 50804
37177 22196
6060 32707
42558 51594
45117 8768
4132 60228
32064 65831
22191 42075
18690 60882
2185 28450
42139 35291
28049 59734
22859 52582
68152 43892
40704 1365
33871 60266
9026 54300
65830 41072
64858 40571
47492 56890
1652 16945
12504 60768
22559 35038
30328 54816
48121 7209
67995 17025
17643 14613
31826 43435
18918 10230
9864 47046
65785 64388
47648 47792
19188 5753
61595 37673
24441 15742
20550 13330
50005 67888
55271 3967
6957 28409
6137 503
30705 45746
18810 57751
40649 43066
8289 1930
46823 52945
28319 57328
28807 5688
23345 3015
265 24846
14090 32873
49423 13010
28602 54233
2738 36956
68310 13349
11488 19790
26770 44075
68770 58554
43573 18794
65745 5450
65420 47096
18759 18127
17695 62769
39797 38969
26370 9434
34418 27713
49305 39664
15328 8316
14887 36831
66980 38275
28921 4012
4280 51967
64528 350
3113 47195
50956 4098
60170 63746
53537 64419
44870 57936
58467 38363
52923 42953
55120 28215
16456 17706
22024 29944
3687 44059
51497 63408
34227 59311
23568 51493
733 25312
44074 20618
41264 54390
42859 65361
23014 21308
28997 67749
41473 19640
25417 38777
38006 24573
40959 8865
28795 53671
32925 55083
63744 4935
24144 50486
14316 20238
65760 65758
37351 31353
64699 48283
28362 10243
38698 58074
44757 34491
3013 46962
16414 26596
43392 50248
22287 12014
42644 16714
67107 5945
53198 19387
37805 32054
24242 20268
59596 65612
64180 17515
67352 5014
14849 68465
53020 55515
17430 45994
26619 26097
58386 46122
6115 39500
33060 54795
66907 37872
63382 48513
34552 6789
48221 36763
57342 2612
13021 7962
19383 32713
49406 62582
24056 50697
30372 39435
48126 51473
35060 56892
47029 51129
14252 5517
52171 49533
25336 42816
2483 24797
2970 19016
49944 12621
65230 38692
60294 42809
9063 1195
35995 66194
36553 17752
49737 41246
37457 24073
47274 3604
29297 17414
39914 19742
33326 18168
29526 21238
40865 9130
48417 9231
28297 46757
21335 55706
2024 50468
19641 49462
65312 33958
14487 30390
62783 38573
32456 62844
8881 44332
21722 24968
24067 21908
51556 37683
61917 59166
38022 55693
58252 24968
2170 34604
53729 45970
33045 60298
54905 38555
64617 27224
41299 44635
48494 26325
24768 29799
32112 75
63773 27025
12469 57669
50680 39058
42991 4867
11340 49430
13250 57478
38849 7283
41641 58265
61447 55682
44574 11545
18522 42489
55758 34661
36545 44544
15718 7062
4474 8123
26588 54666
14964 24440
68793 15300
61715 38056
67286 6965
48500 6542
11916 57073
63840 48007
24742 9412
17230 40515
45322 28421
67877 62612
5822 67074
15230 63954
47770 51992
13420 34808
53531 18490
822 63795
68631 37493
43135 21347
12994 35153
14884 46062
51013 42250
46369 44159
38551 24767
20345 9001
40897 12263
50551 50469
14358 7889
1408 28161
25969 29555
50550 30061
25205 6876
66150 37904
2468 2731
55609 54086
47219 27278
23423 40729
65036 31338
47910 14498
7657 58843
13625 5025
67114 50273
49314 36297
41969 43061
56871 9743
13853 54768
63102 11070
27579 50524
6364 56922
35019 36183
42751 16332
67340 22735
39964 7352
3277 42705
32645 45520
24780 49135
37244 55228
21372 38059
61525 13439
36310 40276
45907 64399
15572 28256
17177 5886
2858 38122
33640 23599
59233 3550
16270 37745
2921 14645
66439 22
35933 61461
38346 37944
29113 21723
23989 67764
19921 44210
37534 9923
54910 7596
2939 40997
49931 15495
30051 47442
43223 67284
4337 52665
50645 28862
40784 11018
59948 22919
10512 36702
17575 28913
67217 53649
46452 53896
29963 22926
68196 17877
21752 4646
53921 23360
66706 18154
33362 13931
18204 13224
31322 24885
3014 30199
11470 58621
57529 46031
36488 37231
30884 5652
44149 54213
19501 30385
20290 16892
25178 3182
4796 9638
26833 12713
54245 3109
10244 8228
40242 62937
68338 60298
49150 143
54005 24634
15682 5558
10143 41593
36365 12194
19559 6785
63468 51685
2388 7679
45816 29629
49943 59395
44217 32425
10853 31896
61763 61770
51790 1975
47040 21945
46370 50756
36148 64010
33235 28321
9928 52537
65780 51128
1027 65763
37528 13649
1396 53774
2715 23956
36680 32864
68524 34517
20059 47222
28837 41274
18021 67015
59944 68736
17477 31409
60555 37395
19844 31012
53610 14313
13735 58998
13102 44535
28163 38223
1565 62982
52243 25888
47765 9074
7122 64744
49851 67930
68529 17170
27121 42416
53620 20326
3082 48991
32274 38284
11211 7669
55333 30676
8329 3499
5817 55251
58368 2612
42396 68438
30564 48139
66901 47287
64873 51588
48797 30973
43214 16642
41924 49236
67597 1545
3381 6266
6296 23151
8733 1547
28939 53265
10134 33529
42753 12306
21670 43684
35007 58667
41 20267
66337 36331
41176 38385
65570 40986
40476 38890
8564 45047
66764 65926
19921 19031
24196 21270
5825 8429
31886 22742
15788 4157
57690 28201
31280 20989
54910 33318
52256 66500
62773 23990
17292 58388
65113 28120
5042 10375
49432 1357
34813 27336
47693 6313
31893 52238
56060 29540
67873 45372
26069 17648
15290 35290
11362 62381
53833 64652
48182 47373
6218 7761
5599 68278
67593 61134
24939 53580
27053 31135
25304 28398
32414 7565
3651 13343
15630 23942
15626 17055
28109 16432
63232 14196
60994 22407
13554 62212
54837 55039
35012 15195
37781 45888
61355 49526
28788 9677
30660 40619
48390 9264
20792 34610
54718 16872
52142 67487
26835 54960
20375 29698
40488 5203
38773 21923
48417 36761
1029 21674
17766 48015
5082 49035
21557 29716
13948 62519
22049 43565
42052 10987
25165 63773
15726 42603
51611 17185
15675 51000
22000 47070
10699 22797
29602 39870
42942 15713
27418 1023
16948 14777
38681 54697
717 7782
29860 25785
7525 14702
37240 61095
24185 21168
47131 66163
64633 26618
53610 32230
66591 60092
61335 34389
18576 14507
58726 51448
41913 66673
25238 361
18639 35991
12788 8233
61777 11707
49444 26242
22831 53513
48988 36442
165 38421
37524 63453
31232 17719
63828 34007
34614 18730
59919 68499
56368 48174
8807 62983
52024 13999
3174 23041
42376 30494
23855 23541
41421 48565
39100 45936
3776 22952
53145 45909
45068 35982
16106 23896
49670 68614
45089 28199
64906 52330
30964 44241
20021 40434
64902 7829
6141 31392
17838 7653
56973 35214
19095 20359
56750 34066
2222 2042
21260 62243
35056 41890
54446 61249
61889 23171
62818 39106
8812 50838
57658 53196
18063 45570
35545 31971
22627 55714
61983 37573
33247 20744
58282 19231
1481 19305
38503 7577
64045 68755
37871 35062
37955 8749
59332 52250
27982 49704
40248 43239
46022 65845
16222 45813
27135 26908
35178 30430
29563 19161
33319 6134
54702 58314
29421 42135
1000 50077
52128 58918
13642 13670
38890 1880
65812 46475
51764 31941
3401 7147
40789 45773
24506 63056
22705 53941
20601 31491
26043 62506
23222 40218
14783 68459
9884 59640
43231 28139
26666 33675
8199 45088
55968 10631
60149 40435
44185 30490
48417 44648
49462 23968
48198 47289
51639 13156
9268 45356
52688 11569
10258 34027
65828 57422
40012 22238
17347 10628
260 33100
32593 30954
20096 42058
44941 53882
64518 45910
19851 6185
26544 56730
12063 64950
53079 37681
68521 29082
16547 34875
68731 34741
29425 41760
62853 33024
60662 55838
52599 44971
3872 17828
50552 27128
49646 5280
48559 63924
33785 7293
60171 2711
61635 45558
46037 26515
54862 60781
7515 22396
12624 49374
18940 25520
4856 29698
45387 52296
6246 15841
29957 31626
26520 29207
43347 14805
7927 17716
59615 1685
40470 8589
43547 6694
27480 56339
2132 62572
67002 60703
32880 43299
10279 15035
46588 42066
47922 61133
23498 48518
21306 59586
17984 47340
18513 35769
19848 16710
17418 33179
9845 64173
58113 58583
37035 36307
19334 55844
10633 33244
66312 49698
10635 4613
22487 58213
42365 61024
20607 3175
1630 14567
62415 61016
45540 15538
68540 61828
627 11118
24167 20137
47672 57278
57244 45839
48187 50000
43320 26712
31219 3556
58906 48728
57073 15683
59845 66184
35951 19579
25384 57145
61080 12038
31967 5559
4776 7192
67658 58147
14470 23855
54974 52397
38032 64370
2542 59837
11043 49160
50623 60212
3414 34637
46578 37991
47510 15091
59780 34908
11593 63621
29322 30570
7599 46047
10539 25079
14389 25900
31777 33160
23705 45889
44556 5861
68656 49327
31947 63124
3421 37748
67768 10274
26848 54612
27092 31201
60256 47745
21242 32984
56512 51844
2125 35069
22446 56980
12403 61234
14242 27908
11540 59227
67870 48359
40613 29219
28774 44657
48959 5113
24122 25570
29928 21800
17164 36589
60410 53063
41078 19544
9425 2435
37923 61839
22986 370
49682 3373
12810 22658
34711 48338
30900 27748
62648 18330
58846 29923
61867 8675
42773 40511
63731 56221
17705 44355
32115 54903
30256 10963
34426 1081
34237 18984
2100 51619
68709 28026
56786 14978
36253 41624
21144 39325
12888 30255
45024 47466
36844 41782
49082 24187
17554 27554
37461 51436
37690 54461
65393 15613
65917 55255
4524 2098
46034 42410
68459 16395
13241 59646
31703 18341
23670 47577
56771 29795
66344 60686
7576 57086
17524 33225
2683 52394
25042 34770
43405 67067
7729 23112
64487 57595
37388 10793
17610 18048
36987 8823
60866 31731
58233 33078
33014 13567
5854 4528
47168 12470
56810 10993
54181 32889
12515 66893
35861 52148
68306 47987
18341 37157
47612 57326
32203 38826
66596 6059
62898 50140
2391 53112
68473 12408
28429 49940
2060 35849
23648 63735
24864 29953
36414 42942
44138 58307
24605 59554
15906 15684
50878 18124
6635 23414
54429 35054
58645 42839
14744 57901
60706 50552
28976 29528
9916 20419
24579 28667
44701 37403
14051 21037
28150 59386
62879 66057
37689 48044
56681 46032
58333 14070
15908 26236
13314 36925
2683 18462
59962 31208
17689 22173
12446 53673
8297 39174
57228 15175
27350 4490
25644 15117
60709 54680
7032 41254
45793 28225
21166 68327
5810 30119
22893 29814
835 27795
34761 11424
32214 58699
23 62284
52632 39816
45811 48863
12651 59015
12738 66151
23326 68229
38294 36486
25370 1438
33325 68786
8420 60247
9877 38435
573 56225
27377 66870
691 21094
16735 27636
3001 15661
19717 46930
26221 2050
56993 15699
17204 36383
68406 50659
22080 42589
35906 58401
58516 35167
29325 57945
23685 6064
36109 9092
17360 58479
18239 30016
60513 4201
33121 46579
14693 57004
34771 58542
43267 10818
57137 11668
53239 26656
10324 50163
38895 10557
58701 6787
46176 55177
66848 49250
20986 57112
68360 26543
7417 18247
43871 31841
39066 39423
62416 42429
40931 15609
38044 62383
60307 25685
56166 7476
56122 22150
18382 26928
51145 22224
3991 31688
12871 30157
42250 59237
8176 50222
35930 58612
14107 65749
42360 24347
2434 43845
21750 5870
39598 55401
22319 48996
63045 50183
4980 55106
66531 8928
61529 3021
19821 103
24944 24091
6319 17459
61813 18185
17924 3268
56967 59647
43545 45371
14579 38966
36158 66203
6613 52168
6282 68076
48424 16278
3670 49101
41867 35605
6628 50358
43198 50279
66264 57402
56203 23013
62175 14591
58986 24452
22827 23325
31569 46057
51035 9660
52588 23699
6558 67887
53684 68341
33992 46852
26491 30451
61682 4428
48051 46066
17944 27268
6448 51000
55303 61859
31216 50746
62692 59900
42276 41367
59270 12676
8963 49828
66048 43363
44118 18614
7946 26035
2567 51759
59705 65735
19948 30247
32678 18593
8805 42892
12629 50268
59466 31379
863 26048
63429 50089
40398 37080
28785 64720
57394 28000
67531 27459
11614 39617
33337 52270
61820 31160
15658 30239
16070 21285
62555 52658
64379 62292
68349 22293
1499 24680
62424 41085
193 16678
48888 44589
45304 60522
41686 1540
67953 66821
3892 34237
50065 5703
8379 220
51012 23731
30351 33337
26461 50325
4001 63200
43919 54760
60354 17867
58128 36798
36916 41622
68184 3254
10574 57758
24700 64925
33313 46389
47486 34448
6515 43475
7273 39536
22054 49712
33027 50915
59615 34105
1002 14719
67829 13783
27339 33134
45530 27416
31608 32092
59661 8124
5619 62
22063 65927
49770 22120
32173 26456
8622 9918
43443 56864
10391 44368
66911 32625
6007 53464
4378 52691
20743 53441
26231 28884
23967 25012
2554 13157
64528 23218
24396 33143
49788 66931
11349 11372
27102 51262
30382 66636
5219 11188
40517 55998
47201 18880
44106 32107
66325 67234
35305 48603
36834 26521
34204 61197
3098 34113
60591 5133
11693 26526
44687 21477
46422 60897
55927 25422
45994 18859
3195 32102
47537 68795
55074 58869
54434 20303
1952 31740
60514 67248
37489 32833
56676 59403
21528 39976
30391 33729
13393 5331
6290 31651
44859 31684
27773 62980
52638 26342
25887 64891
23432 14489
32202 14853
7469 16992
31062 29533
1799 27764
62906 39671
49446 47596
1823 25305
19425 52881
50282 68627
68093 1184
38468 63352
35310 30601
19902 58801
44211 66588
22793 62451
64295 11291
2569 59735
12353 37868
15113 13507
66835 1546
42892 20190
5539 41168
5545 29569
38357 2763
64563 3565
60637 11454
63797 52380
39395 59019
8682 30346
25639 35634
26808 38705
448 52018
46470 1050
3602 43539
60566 43395
26763 5608
1205 60992
30762 15179
50366 62689
46117 33986
62783 19790
28281 52767
64555 41320
32622 56755
47116 25781
21108 56241
58198 20057
50362 1078
65811 7231
66205 10471
5225 32033
5804 49643
30766 14807
7556 11087
9158 64790
18504 39358
26895 50863
34246 26756
18016 46645
58315 16593
22608 51560
30019 886
31790 29497
12533 57489
55218 32386
19922 56832
48041 43214
29401 2065
61216 25496
6575 65983
39640 15227
4898 2044
44062 25294
56139 9291
10175 67017
47591 29883
62476 22970
50561 43064
39189 25162
40595 44656
37316 25161
8766 18008
11872 54257
14493 65743
44555 23648
66323 48449
61000 29303
12729 68352
56490 12105
29145 34600
25271 50281
13449 11884
27686 39765
26284 25393
9421 41899
6643 46324
31419 38707
21018 45702
41632 51627
1735 26382
40149 37336
1053 45676
27259 16742
17002 30616
8409 36749
24556 61918
26212 27169
24285 46121
45690 28744
20287 49683
35436 31533
67799 31669
49410 60828
39025 26668
3400 63170
62089 44358
16959 48666
45779 26184
49618 36198
42457 53324
43371 21250
16879 4353
36759 17000
51050 35463
49152 10083
62571 24018
27552 30976
63192 42128
48469 29297
4401 33157
9106 54330
43894 61486
27028 8495
5531 48563
29706 27715
7725 40878
25870 45649
5031 33600
36367 28362
28591 21593
18076 62522
44024 54137
40650 6252
54360 24322
19809 55137
32185 60140
55688 68231
63073 15934
37069 68441
49835 4226
58855 50424
14718 12495
13532 22815
11177 14336
44104 54006
143 68128
65185 16502
50893 35744
42146 54789
50937 17110
62564 11964
23515 64079
45187 61878
3724 39545
11676 24066
68688 52096
35163 57019
62406 21065
44111 46220
22329 13377
51366 67833
12831 36108
54643 55189
7605 33107
66896 41824
48871 57709
45301 52325
17988 59840
35188 8447
26960 2449
29325 44753
57734 51351
22457 23516
63698 13009
47827 45504
60396 34705
42840 26043
7438 61014
21240 61667
22990 738
64513 42233
5311 67496
24075 29770
40580 65394
52050 53297
53685 38410
33543 29013
24513 47426
4441 66760
4158 49160
35543 3016
18527 39488
50087 32988
66081 43737
52891 43128
27742 37592
47707 14192
38942 62423
37993 25994
22271 5450
45479 19989
8184 7338
14466 54175
7667 27101
2922 4299
14665 11213
67967 68492
16981 49781
23698 14481
46780 61620
60212 18033
28876 27731
8742 28380
27024 24581
56377 68027
60867 13087
49631 26838
44308 17390
68479 47525
24432 1153
65213 6115
35685 37631
67174 44840
62037 33744
9232 53109
65466 33462
15641 31335
17448 351
68721 54212
27722 61401
17435 50598
38390 62658
68392 67391
11303 45056
8880 2719
42665 26501
1677 1221
30080 31480
19536 33925
42644 59696
36120 39104
1149 20730
41765 29938
31272 30859
56524 6680
1553 44203
43328 31715
8807 45335
7956 32901
27256 54632
59875 11652
24922 50352
62487 5962
64070 14905
48173 56791
15111 59331
29308 12731
16372 27450
3013 29413
1192 7103
3529 47405
17037 15069
52050 12522
36142 16949
25877 31824
48078 3370
26265 2803
49534 50360
26351 9914
66114 29185
58990 28088
63862 23444
9505 61951
44708 25385
35718 54996
11282 46419
37702 15560
27998 9186
12549 34780
14917 17788
33762 63886
25144 11087
28497 2956
13593 61835
42290 4943
63516 25362
68561 12877
904 30667
37055 16485
64739 7615
42072 63625
30059 54387
63195 33099
21019 36441
35887 39112
57931 66939
37765 59365
49577 44872
32211 57444
31271 56665
46108 28463
39573 42060
39959 31211
14843 51718
45311 52643
57585 51006
3450 67920
45282 17956
4676 4043
51310 52991
66701 6131
26877 25719
67129 612
51128 12903
6851 2828
44394 59390
35044 43740
43672 64023
36782 24374
6305 8621
9661 58048
10504 34191
7517 41608
35849 41799
34916 23120
16680 7183
4044 59672
51102 58119
22404 1295
34622 6012
66561 11448
37153 11486
27464 49558
58672 14
62390 12
29559 24720
28821 21140
42443 53174
51111 49114
38187 30562
33533 27332
44433 58911
45963 53512
20824 9362
58743 37207
19571 46704
12132 55514
43903 28708
50331 49412
44296 43869
41321 42760
24787 29123
14609 16856
22283 40448
40411 61835
11661 3950
10448 52663
22239 27557
44360 48909
5338 35081
1629 8672
4846 48227
55274 6906
5150 55650
23227 30514
55190 59257
11309 56573
28015 21046
41896 1170
27674 51714
33625 66848
51179 400
47559 28170
65814 45479
54626 28809
26028 43835
22473 61563
65803 49479
18116 44200
55240 51880
11582 36963
37717 43513
30993 28017
41779 37560
63221 68053
29230 44954
21555 41809
39811 48317
6832 11535
40756 56881
52012 41100
45659 1737
1026 22681
6907 15369
17943 36999
3896 57057
51630 35948
38838 35250
15799 20520
12242 11928
18297 64397
57737 16965
8722 58947
17330 33864
36446 54404
3133 9037
8569 49622
3733 29043
2542 2943
47442 11250
41393 68806
35815 41758
65721 57822
19257 23137
65795 28608
39503 40532
24438 27040
61246 52429
12825 27303
24007 14679
40967 33924
14068 28911
33678 35347
33487 24471
33716 32590
12529 8427
23962 31226
20030 54454
24617 32771
5067 58904
66773 22917
43921 66583
65464 62088
41709 48217
25164 50011
49955 6523
58649 8754
23559 25739
46633 27288
65403 55556
57266 45444
10531 66187
42296 28644
24192 64352
7429 58372
50521 43704
63158 67595
40052 25992
19549 22644
55319 45759
12554 35363
49145 64056
67978 23046
55436 31527
58315 65528
49521 48802
10762 8032
5762 35926
67330 68138
18194 3985
18406 66329
3507 1899
12070 3483
9067 57689
15200 913
12187 5326
39158 68186
59060 46374
57756 30949
63889 66398
2187 58611
13492 54463
31214 6902
37699 39411
43170 37925
67489 59754
61612 26408
25262 13935
11184 45206
37604 39051
12429 26308
6760 27711
9252 35360
36338 13867
62267 19620
59284 17156
16005 67635
25620 19294
36122 67312
22196 62604
60131 55412
49640 37404
21539 65383
45782 51617
7331 21864
66564 30582
60735 51989
30010 37253
18394 51731
22787 66871
66696 57131
43575 26848
36391 25319
53908 14481
31515 9611
3334 66143
60832 58587
66604 19322
56409 20194
16 62601
29551 60193
12516 33964
26935 66540
64120 2185
43846 1131
65030 2346
34370 47976
39096 59693
55945 3121
8014 36323
29197 20035
24647 2520
59494 47865
65282 60430
47917 56363
59222 34994
31348 29007
61940 44595
18743 63691
38979 61837
29870 47663
25700 54024
23287 52699
50233 38665
46647 68489
68018 40197
64040 64164
52827 45836
42788 57626
50509 2895
7628 19235
31624 41594
3038 16871
52361 16296
27642 17557
53920 38674
46917 51606
63139 54344
17031 66848
50929 33848
16774 29863
39286 23616
36524 66632
10364 43891
56852 31308
64560 19145
49942 52580
41917 20249
16732 14140
235 66391
14951 24557
37121 4537
13331 55253
34836 64574
57159 64599
52067 44909
40593 54023
1854 27566
50111 60742
23434 19185
50141 33544
29021 45466
52440 50650
41933 15716
15756 27308
38586 6711
25186 28462
30847 40559
34725 25750
13528 19154
48548 22066
2679 10718
32816 11784
31101 41600
10641 48369
8259 25056
1237 53645
1775 63228
30815 56787
28687 17997
25546 41437
50094 47669
39297 27833
39046 3491
51548 38200
14458 58975
68269 9958
11846 53795
68568 28785
12073 36738
6945 10447
41042 7448
64865 22666
4243 12895
63666 32638
39772 24721
31889 52012
32199 14011
44201 6793
39813 4863
11534 18944
46116 54989
40275 34608
60703 38734
15402 32797
63214 27440
20157 60
8037 64168
68665 19418
30399 30060
27261 58324
26705 9777
13037 47588
39060 66200
68330 12042
67179 13196
18747 56759
10527 23674
64597 43323
3929 13111
232 43127
24396 46576
30596 22032
18993 12889
12556 53524
11266 58190
27884 56507
61186 5034
29407 42576
14928 23782
62330 59050
3396 4452
58481 46120
20693 8598
28880 13269
9884 19249
24247 30959
6226 22203
39497 26499
55104 51710
32802 66472
33290 4961
49394 6159
17962 53236
25001 43621
56329 65615
20908 48931
67280 8828
20226 21639
32546 52163
2656 54311
68580 62693
48342 64157
10412 18689
17918 34517
53679 6109
24940 59998
39316 4472
46651 61509
31022 43957
10911 19492
45485 57831
31274 26048
65448 8838
33572 53010
58899 5815
18044 50225
29556 1123
29141 18405
41223 23930
4238 53237
59680 30342
53341 18373
60666 19996
50077 58184
23034 57176
1330 11360
15988 44247
21465 66918
65762 22650
32676 4462
68724 25638
60846 2028
64275 31814
22074 44901
42299 35547
1453 30412
19651 2212
50462 67096
4995 65291
21872 43710
24900 12609
2566 11798
36196 68716
10830 53
51564 36654
51670 29130
55025 23127
47904 37601
17742 33301
12097 34807
43514 55400
5401 67677
46130 49245
66948 51844
57037 4136
55110 19372
39004 52301
14811 50424
31582 12873
65245 28944
16545 53526
7714 53105
31142 44014
8699 27599
49720 6180
15387 22845
40736 25259
43070 37957
49188 10555
21040 14112
3952 15892
23645 21339
32196 13609
57379 47111
10625 65290
24288 38362
7477 61184
59728 3231
3157 65288
26809 55563
34566 5668
34827 44924
24418 28673
24329 40960
51318 60349
56115 5017
45654 26649
62379 40268
38914 17965
31936 62215
38458 2565
43379 7409
47599 44157
9309 67080
16788 65991
17859 274
43299 63068
26710 5676
645 31213
26500 19821
26388 63897
58378 7046
36754 31932
17349 17535
49340 21773
45239 51599
25007 5858
49683 18725
67470 11664
58035 6053
42133 3793
10715 5447
36193 45403
21918 41574
5008 31656
57388 48223
15196 12310
28471 24794
39601 15589
45261 14093
40072 68369
53838 6400
18263 59619
54563 21307
7379 5324
64617 62829
29245 2106
20418 38074
61388 3365
43122 38937
47023 23538
66390 4427
7050 31047
56040 10501
30709 41126
13120 20571
42356 35710
50699 41558
30134 58755
45203 54781
3509 27832
63861 20021
62347 15158
9495 11839
45588 50570
38925 21473
22241 54059
33883 34640
27552 27128
25678 21843
66378 10040
50530 3637
52017 33627
5156 68490
22117 26352
58059 55453
56072 42323
44949 39289
11606 27004
6388 62597
66747 35999
20508 33164
14887 48957
34560 63728
27515 13768
40537 60897
68668 31449
32712 22683
51788 50261
68655 11923
15065 49742
59886 56093
19216 35265
32823 53195
31112 50643
2252 65577
1949 57066
63182 18025
18502 18543
24254 18896
64459 64743
38288 7121
26698 30214
37593 34853
61135 36
50619 17182
7743 19128
5776 2330
39536 735
55983 65666
13213 13873
35694 15543
55111 44102
7000 7787
37660 61651
14599 59971
21207 2961
5021 22613
44740 6580
40537 50417
1218 65120
12520 19873
46442 47361
41121 33464
10377 50637
13966 68608
27115 12803
45949 28379
11015 30504
12052 19854
18547 29206
50545 58770
43254 9226
10467 42762
47912 43516
6555 17145
44858 40432
4728 59254
46032 6898
2603 56819
23843 36474
58656 48161
10038 9229
8623 25716
41810 67153
50699 13006
3522 48859
55930 24642
11269 39075
43145 65362
26713 26748
3634 3819
35866 52990
34865 24364
9569 30230
62286 51554
67322 67990
33587 44418
25603 40628
24245 9155
4178 64721
36685 17812
18068 5166
6076 47607
66050 27270
67323 62452
39468 62669
51508 16039
18219 15225
31718 2198
26924 55912
7873 51078
6676 23421
53394 37982
44405 28949
9557 67611
17459 19765
41483 29890
41944 55472
16371 40486
47011 9802
47932 54594
46449 4168
63204 63523
1862 7847
17253 62117
3514 16912
24438 59690
18020 21227
34566 50432
30919 43956
11457 41320
34403 17632
34459 48582
9006 66390
64301 22609
13814 38895
20494 34109
12102 27378
24076 65880
25901 13642
26280 15084
42525 4666
41393 19661
23477 39972
16717 54416
6274 62749
15876 61580
40710 43860
3107 19316
19713 10782
67160 51344
15974 29149
18361 13129
31015 20486
20449 17474
6598 53624
14281 5400
27267 36484
17515 35913
16142 68364
46455 2028
54893 21695
9646 54060
12974 25276
10862 67839
5214 46794
30686 45315
56170 3675
52365 56075
49884 15468
59085 9929
51073 49814
10257 48977
11852 55242
41631 20234
53409 59635
60820 40351
50113 27783
22109 23338
26506 38824
5190 26775
5836 17522
24648 62589
47826 46557
3417 11211
42464 24565
2789 46617
303 50188
10008 48457
61432 53189
49787 51329
43281 31646
42183 4025
21408 16229
68289 42159
5410 32801
63358 58944
181 47714
29706 15657
51212 51664
51855 40598
55609 7779
50607 31375
16663 29225
21229 9134
63210 67730
43094 43683
10876 45124
9698 42353
13496 14151
56509 30952
42648 13845
38058 22494
50024 47775
58845 26454
62540 1063
33009 6349
52492 21003
18175 54958
52951 17086
24227 21003
2147 37917
41055 59771
66025 62606
45241 22710
42630 31776
22735 53545
3693 63314
20534 30804
65601 53682
1983 62698
798 59802
12799 37710
48169 46429
13048 52875
39589 55076
56544 55300
58793 51942
59453 11521
47198 31056
48145 11766
33153 41521
27489 66498
60567 19588
27917 13460
44554 66347
38958 16739
27251 63160
30809 47087
5561 47139
15353 62180
25621 2502
32386 26727
26751 29662
56904 22486
4921 67697
49134 6465
5478 38686
26619 54524
7545 62875
37594 61317
46959 53069
62835 67963
9989 51221
50797 61117
21899 51302
29157 51447
33281 66683
58059 67549
15905 6999
6979 11391
63962 30440
18968 23824
36515 22885
66400 49180
64451 56897
11181 8391
7703 3023
65787 48619
43283 26759
19734 27939
65409 44860
4708 35688
65894 6653
11657 8665
57654 60733
58119 39825
61493 53609
61028 20035
50976 57435
7335 10550
27003 3646
53473 6637
5747 49699
8870 53130
16135 993
27441 37522
41722 23371
25316 15084
41572 17664
62354 43720
68814 36597
62498 2767
52675 54973
18307 44690
26449 9797
14943 45795
8286 34019
33298 39903
56089 44241
61170 25070
49648 1430
50210 52072
48094 57620
61224 67257
67973 43494
5063 39177
62762 17669
6510 49015
46021 17226
18115 45594
2895 59971
38170 33948
61222 37550
28170 60885
30315 12188
46559 29307
63038 56188
60136 46147
9090 33957
42725 3600
43317 57810
13434 47377
19010 15839
32915 18996
53248 18602
57195 14264
60186 20370
2385 41735
36182 27095
64340 12389
63695 63036
42679 59945
49075 56518
44655 43567
40792 61094
42710 2639
6303 12213
12957 44305
6054 2227
49205 7241
66511 42709
21099 5769
16216 29468
21217 30750
45140 49401
3445 46356
19878 32187
29730 42912
9804 11748
975 35425
16186 25143
50361 37600
14639 17803
9626 54321
12669 53124
47214 13465
20123 5012
11072 67769
45817 18132
7403 30849
20414 66616
13819 30760
60482 37455
14662 27895
58952 49104
1387 16356
67032 32139
67394 33416
29351 63323
48966 62999
11418 36206
14218 38859
34654 51446
19432 43919
43870 61437
13736 23156
61306 20229
46459 10463
11432 46974
31197 43864
26313 31530
49055 27130
2400 53926
31774 31871
62809 61469
12742 48982
41887 53408
43390 40896
16113 17042
51780 37959
21095 28096
24032 792
38165 43552
45409 57559
58549 59327
11156 4031
9845 15708
37315 4675
9830 27780
63991 12122
59271 11607
24507 1986
2063 14130
35410 8857
22545 21197
26312 12681
66211 63594
7327 66365
49306 25276
49172 27237
36425 20557
13599 20924
24910 25935
41903 23127
49177 17221
30446 23793
7639 42112
11128 56418
38337 20025
60352 47349
29709 54567
60856 33061
66556 14912
56526 28412
48647 66533
32867 31207
34439 61609
19408 10627
44585 51476
25070 22900
26894 30646
51965 11684
10512 38158
12084 50016
23174 59420
67891 42702
19181 7778
54951 59472
16736 9513
37420 5238
55382 26364
10132 9888
12364 29834
4998 15537
68151 28934
49748 35215
53735 8193
56247 64469
62649 13503
40654 67414
1359 38282
59088 20148
20531 26112
58236 22511
12273 53632
62275 28112
10897 21051
34946 15041
65238 17608
38569 9450
12730 65319
9326 44129
34380 52685
11358 25584
2202 53603
61292 15056
10560 36951
33244 54785
12128 59065
61394 40635
63504 48463
22693 26262
3323 29168
32407 19441
2520 53893
54046 7466
24417 65631
63957 48576
68757 57360
19234 47200
53840 22985
19061 4748
18907 33769
57412 12659
33338 45073
44186 44072
11001 16341
46130 31517
12771 60763
57025 27705
35328 62348
747 32748
34013 1112
23787 22895
6541 53953
60042 16003
9383 68760
52394 64096
66588 2315
67942 50649
33491 35218
56755 26674
26445 29414
52899 24447
34953 45355
50893 59480
62422 55816
29176 48765
60572 15374
8073 48222
1710 58438
52582 30259
46700 24501
10269 3055
40351 65092
44681 1767
39238 13403
4005 41801
40413 48407
28864 79
14897 61287
13308 58969
27846 18173
9431 8743
55618 34388
67563 26173
14920 42535
55720 22179
55473 52477
59806 527
17501 5083
16292 35458
25173 6508
8554 61446
28490 56318
43024 60423
24251 40232
9817 40626
32956 10045
63967 28207
24330 21177
44917 43961
9321 62400
8960 54614
30596 67066
49917 63537
17690 57856
7299 10886
36943 27332
47953 8750
41145 38727
13987 265
15253 12734
64633 28258
52632 60948
52389 41879
19906 66372
1969 14792
37320 64043
21958 58837
15463 20339
51070 15734
42428 35566
1332 5665
33830 39760
48075 27857
35211 66308
41327 47202
56440 34158
61491 44127
65668 28643
12782 65549
21584 34614
9487 19655
32235 65908
13981 25592
66059 61862
60217 4788
9754 68040
17333 33801
63785 51413
5673 1445
62888 48712
23509 24418
26623 58115
67440 66911
4162 60989
48106 44118
62619 54156
29380 28344
53820 32123
63801 23692
28390 67695
40248 27881
14000 10669
27223 27523
50424 55826
34592 61943
30207 40993
362 56998
9525 30588
64630 31002
59157 6044
1866 10356
19776 40618
49076 62435
56208 25167
27488 54165
23665 31679
5800 39438
41532 54268
19541 389
6226 23387
11554 35278
11241 41051
35352 16056
64091 37884
30364 15329
26954 4540
16284 47433
42873 47401
3757 28324
47009 52357
22727 55545
4350 36213
66934 23771
60435 56021
50363 50283
39100 9051
55149 11670
22252 4466
37270 34348
61417 11425
55045 64068
63279 42747
14810 14968
41458 44231
27531 52471
59991 3754
18547 53742
68446 38045
29588 17006
30597 40972
16930 59269
56134 44917
58093 37921
66714 45363
64226 51961
38711 16727
51298 4379
34537 20245
10679 21335
3228 24798
39099 16474
16923 1623
22021 63487
29596 63278
7095 44822
33589 64155
27895 42177
23811 55963
2850 12677
10892 17805
54953 33876
27071 50374
48812 4370
42025 17928
25402 17533
33092 58681
22476 5299
63555 51720
35022 62738
39683 43573
4799 59387
9432 45129
47455 36559
52740 15875
11020 29119
32904 13178
45455 1949
31310 64561
62294 24085
10947 34988
5101 4323
9828 14035
28611 41038
56746 2412
41531 8583
40153 34832
41750 35776
2297 7128
65156 1870
65588 68463
45647 3360
27793 39077
33423 17743
12346 62584
26556 66592
19441 59710
3972 65876
42909 49916
53502 67711
29707 57710
15782 49011
27484 21626
2342 64893
44131 58250
68572 21088
31498 42517
1714 17575
12219 9383
52381 34160
19179 804
54935 37944
8847 25952
54134 55217
11830 46344
42625 25080
58194 1406
42366 50
20967 40083
6059 956
59963 2623
65937 54025
49031 54216
8796 32464
10891 30938
63825 5719
5598 21447
2457 38214
16827 52979
63198 25775
57941 52532
9285 61980
45883 61473
25290 63801
16799 62965
46343 36132
14775 23890
63138 10028
35415 39265
67272 32936
492 62417
11324 66945
24462 41473
63178 31909
58741 27490
40156 57773
34625 5273
30055 35859
61430 59470
11768 18488
24841 550
62235 67128
32383 37740
16193 59909
12656 62889
68639 21845
28637 66745
16057 50869
40600 24343
37598 12148
28032 29885
55047 34899
67218 6808
58069 8644
61589 15257
19920 27007
6924 629
18776 20782
51046 6574
36566 35021
53440 33352
41078 28838
44493 32375
31624 37463
62311 14979
27148 27616
62658 16618
15663 9547
48683 12677
47180 25356
44188 50265
50583 2352
55503 30104
19084 1946
55508 40050
9123 44910
30893 68258
10199 16362
48961 53738
13506 62316
48562 44431
53413 40448
21359 9322
9316 23624
29986 42000
33359 27647
15744 20332
35876 43887
58875 38072
25525 29555
62978 63304
66137 1531
16507 54919
45015 62615
53328 14861
12022 16953
43076 21393
4861 42409
26586 44710
4296 14524
62152 66073
16191 31317
13984 16654
60158 52375
36285 63658
10394 11662
52823 38203
25619 13702
13775 10809
26442 50669
14588 27073
29160 42939
38501 21406
15027 6304
21817 64817
9720 27179
12208 10717
4827 47126
42996 38757
52363 38171
38564 23995
19208 43212
28956 18105
7814 13113
29915 60137
61085 19700
32395 4138
56870 18095
45454 34340
6211 49611
2667 26625
37802 21074
56532 49503
5668 5727
16617 40402
17367 47352
59438 65955
33014 7846
65833 64667
22800 26179
2608 3983
33751 31016
52228 6983
43925 40730
45851 67844
49545 9766
65961 40408
32107 19381
38189 55936
14919 18511
250 62436
8783 64286
59898 51527
6399 59078
740 57385
33522 8894
51154 50065
43858 66320
8634 31218
15344 17644
14522 5906
31185 12177
40395 18350
54468 34369
18806 21164
4619 29601
7420 66697
3753 6931
54766 66821
79 15566
9534 21590
48267 31701
62386 15175
68667 35584
43614 60463
55310 54397
27727 18921
18304 67991
43661 19925
12976 8513
22231 196
56021 28341
2363 2450
18053 19690
15322 3690
15226 48529
59686 53240
57236 51470
53964 28146
7339 39314
29048 27468
3054 4237
68200 9585
45534 59181
2227 51665
10213 61190
22037 63652
25426 68261
34320 3072
18927 44509
4473 24156
6806 2869
17341 30355
51229 42126
45980 29218
34384 28821
1081 60750
66496 18319
24159 35287
11350 49432
60304 10893
65613 24449
9653 36106
52158 33985
31764 37424
48161 4960
55975 13469
1385 41735
10885 18597
29391 39560
7806 47457
54179 4717
66185 27302
15114 47029
17738 56768
54149 30066
34604 37320
45954 21420
66913 36210
44176 48961
54781 67362
21118 17637
1310 58534
10597 44691
38684 35117
65035 53940
64781 58404
65716 57001
51803 59531
48111 10149
38138 1911
25308 9001
35238 30628
25029 55038
17570 24695
56926 33795
34766 55068
42989 40215
18269 20218
6671 32251
65094 41459
52978 5062
16376 1447
28558 31315
328 44691
27934 50644
28459 21110
32540 47569
67909 2826
67076 1587
62388 64395
51648 16750
41857 62089
5970 47010
8407 48363
14163 15770
20629 5398
21215 3623
1703 58521
827 36176
6819 65115
21542 31961
68070 11738
56332 11673
67614 44919
5614 32797
19486 19310
20369 55675
27427 67113
58226 32684
49459 66012
52199 47053
50140 64955
62932 24606
63005 35837
40298 34990
1231 20280
29647 25800
9952 57115
19021 17947
14808 23566
10933 6186
56682 58900
60993 51007
48010 65971
30858 2086
10196 26450
28980 8656
47798 28128
13051 5334
7459 22868
62050 64122
65365 28306
58839 57110
66287 13943
44752 62582
41190 4106
20575 1414
2592 12057
45557 30679
17 24072
30919 10958
47315 842
39912 43283
45334 53627
40043 12010
49543 44227
31664 41759
28057 8309
21091 11199
35735 46004
21039 4735
32463 59306
65696 15199
23968 63185
12298 16570
32772 8192
58225 13630
4915 17953
15153 60260
35820 62457
67336 47712
59062 10276
28641 53369
17822 4189
25076 45547
50928 43916
22616 44591
12536 58890
54134 40984
17970 37891
45116 254
24851 36733
49513 31480
14686 30819
35236 62475
68774 21436
42795 14810
50552 27085
2124 32135
1296 32577
2498 38686
27872 67304
24847 51468
57995 1947
20411 36511
42582 35052
39245 28808
15369 10702
37215 5580
66840 25996
14128 67955
27609 18478
18600 57385
38875 28075
19938 43979
15501 45786
55246 9127
40550 35513
59 45701
59338 28587
44824 29399
54857 705
11205 21007
18985 61264
57173 45914
62859 41773
57613 24948
35681 194
24173 1294
63590 57721
32780 6819
47354 20332
45729 20427
28294 36689
68522 18827
6771 35733
36354 20461
7505 23337
36134 28597
47573 19846
52400 35930
45066 22333
11195 48176
46068 60158
7184 63141
28475 33828
34597 67012
33070 28296
14813 34383
10143 60994
2981 32333
37951 5800
45181 30258
63064 2700
536 34692
34051 33191
62396 62065
46743 34040
5468 43204
68168 61180
29739 44760
41825 4283
26553 19629
43018 9795
54240 64334
21589 43800
16088 51695
44645 27056
56431 1120
53306 36963
28898 40221
57901 24462
24248 16183
21145 39728
51392 4185
3145 57950
40961 61389
33684 65655
48613 55249
24292 54674
25053 60472
36895 20085
19376 30626
26843 18758
65715 34970
26694 40855
41754 63687
28504 60604
52914 7976
37885 6620
1627 13905
58506 2407
16933 43727
26847 13315
57317 67910
372 25330
319 66857
48802 51362
51418 45953
48119 29645
44830 61692
56547 1278
39043 58232
4891 20210
34256 23999
45560 35556
5271 1271
61829 35560
434 40308
38559 28232
38895 2527
67333 33875
2294 29215
17624 19300
41734 2079
11730 27553
46783 67314
68299 45861
41791 34680
18613 60345
37062 23398
9266 18833
46202 39698
22457 54161
23973 37430
14348 34293
25319 51735
57477 65659
52957 62278
1308 21232
9364 33296
35425 4247
33236 59988
49580 25612
54940 40034
51444 33007
32393 21920
55231 14603
26411 55716
14216 36892
25253 10198
52897 68702
2816 5622
25390 42353
54423 55313
48597 14230
68590 55556
42787 16291
67318 64200
9832 49254
55943 30467
13539 22600
21818 16676
16496 672
21581 67913
29393 28824
55294 66252
53193 17011
28226 39906
27040 21770
6767 13812
41962 4902
39642 48663
59192 4878
33348 23367
24287 61082
47228 25418
6802 52121
9391 59047
36367 46087
18905 36786
64950 62695
53794 56621
10204 53277
21645 44294
30928 32641
16567 5855
57008 34574
25546 14654
40549 56272
36561 21276
40671 37074
6516 65341
3945 7184
10369 26070
4272 9964
10268 20651
2560 47277
1151 15122
1080 65927
44799 52048
41358 59591
45250 23811
40094 57370
2404 60888
29730 40426
27560 17970
7846 10523
21275 60601
17373 38660
11518 40951
48072 17923
47986 33641
18736 24351
33830 1563
40852 54101
66755 44028
58149 47131
43743 28918
26579 30582
3206 14247
57957 36535
8145 27453
64088 50704
37008 30479
33061 45051
14186 45321
21055 2933
5035 25031
47419 18948
41031 8932
67115 30814
5804 4288
51729 28298
44889 68801
6057 8018
56188 37077
31489 62804
58541 52669
43517 39761
44147 6072
46854 4508
18442 246
38893 34271
39139 28137
68216 61525
51702 23536
13713 20577
37255 26952
689 41500
30220 41393
40700 20822
46695 6278
45260 43467
33313 50978
52540 2920
68067 66950
53424 31421
63985 32541
9243 2262
45904 38537
27189 11329
47933 64575
6458 58045
59567 33081
12706 10077
11547 61777
10623 18702
1190 44542
51124 42359
27669 41929
37347 51508
41012 14851
42975 10442
59497 54658
26485 53542
20624 33813
12559 5481
34455 46190
38675 55859
8012 2421
18247 48035
59203 56771
39105 28871
21742 43351
68813 52820
5471 21027
18570 31913
46906 55815
47167 30468
17159 21468
34077 10481
5288 55163
28841 38432
34280 66264
21902 67050
14556 44658
11277 22192
58640 7338
28392 29636
21143 6632
64415 2257
30863 51779
62941 39881
50646 39348
19006 37003
41387 32127
59264 64058
44316 25259
43796 20474
9625 16136
62007 63415
48596 55796
29433 46396
17922 58435
44300 11849
62290 4477
27708 52003
50686 67915
65707 55030
67608 54040
1951 16989
8151 54861
44913 34374
44418 13409
25444 4833
2151 8404
56247 45423
27751 2195
12345 10114
48608 58262
43205 28662
7314 2886
609 26111
4638 23185
43154 30595
26285 60088
47240 4314
35617 2115
15127 51511
62815 58388
63223 1685
35949 32498
36417 51477
32860 4236
28960 63116
34097 26017
56929 48449
15846 56205
67292 48110
7280 1386
52447 40909
57203 10587
30141 14569
18745 55888
68608 37277
56569 2863
14052 30879
15523 4091
10810 57092
18601 48290
10698 56163
42625 49832
11640 24363
39619 37392
32725 21699
62458 40533
32925 54650
29251 66732
46294 5429
10092 14131
61129 28763
36546 68404
25331 197
23491 66695
6886 6156
12967 49324
6132 21443
31498 30551
25196 32335
34791 64579
24660 28046
61902 36663
40068 36871
4450 34199
63407 53267
33320 12659
1634 60063
36577 46801
29128 18135
3213 4704
8354 66660
29587 49569
24999 17296
27239 22068
19402 28599
65621 66556
25880 62025
63185 15992
23919 67009
14865 59600
7671 57128
65564 41252
8728 12476
68413 2522
56482 41966
21878 34153
51055 9148
32800 16408
43598 281
53000 60002
8124 63157
34746 6699
24325 28911
46716 8964
54686 1749
43392 38348
52159 1603
43101 46857
16786 57303
34792 59273
43113 7932
66303 8169
29245 25009
6171 27043
55157 61520
39991 10369
24064 21502
42877 8423
24055 44078
13319 29030
34583 47332
65348 22356
57320 16019
38126 61951
22119 28903
29809 31245
16144 35484
9348 54824
57904 40077
37727 56358
30625 29166
21250 10313
12874 48674
47407 32858
9995 48775
51820 39671
49836 10784
11540 59053
44025 4862
38102 25035
31381 11588
22653 8442
81 33772
47772 20438
23710 66477
95 30739
2557 63454
7333 7654
24527 6948
42312 42229
38496 37291
27460 45030
36153 58699
17863 47216
28243 13299
7484 59700
63492 47601
39269 33259
63788 35749
12781 15421
65734 40176
25525 21033
48401 51933
64262 5784
9305 67293
40743 68200
68439 25598
67255 60080
45582 16834
67762 46964
67264 33130
41942 50404
58922 28787
57667 19606
60830 59455
24258 54162
1157 26199
29525 14010
44242 62752
38891 62955
6828 47051
41236 50819
17234 61750
65899 59589
64006 45651
5611 46904
47460 11561
11427 14170
37196 30936
55027 36079
31347 52918
27878 51366
15957 67527
46283 49243
17225 33903
42908 67146
44865 61059
51150 11970
40339 40275
37410 30754
34942 52338
44801 34917
23708 34618
49096 21380
65692 4005
12392 21578
43125 65057
40701 8653
25753 10747
67247 53449
48918 14007
20134 51371
64251 2723
39234 47427
55939 44784
24004 15472
32871 27572
17035 8230
15847 33754
37019 20186
65119 16726
42557 8557
66186 14304
18031 63640
12602 54341
52117 11145
24338 65553
59727 50002
29755 44953
35885 34995
1525 52992
19495 51658
37483 39142
25378 57241
37958 15163
59706 26979
546 64945
56954 3235
61366 67437
47122 12560
11285 1784
2231 55923
6175 24345
24598 45938
43078 31026
11976 59901
23720 40388
68142 26624
33409 61603
45002 45186
9454 1996
49510 53945
10159 18886
11722 29424
41226 51913
3893 3494
24817 860
48875 9795
26093 24408
60470 2725
51029 60847
22993 67463
45146 54469
42011 55920
31002 7907
49832 56772
38653 11889
42446 39188
8292 15737
13786 15572
28268 51593
5866 4523
44985 53488
52549 12702
49347 46867
20909 35912
50593 46735
38000 6470
35852 8864
11496 4724
31036 66120
52731 42579
20615 28624
65424 46796
57167 59815
68614 20248
62406 55620
22610 11611
29883 23848
8969 31502
41043 66555
11835 46438
2674 41958
17221 66772
10687 30072
27672 49290
18069 62990
9270 30081
5035 12023
58317 37239
33077 65
8224 16060
26365 8963
21295 46870
68624 29786
2155 6526
44232 17806
1000 34735
60643 23390
18584 1510
14734 68245
60337 25869
9442 55819
68123 10051
1594 17131
48029 53658
18145 41977
11958 14088
65636 43687
21716 16485
59762 62945
23628 67780
9559 15615
38912 21616
10607 30964
14260 39052
22977 27372
60809 14245
53828 47841
49980 16384
36239 5405
35971 58639
46561 19822
2365 24954
64331 34717
49169 55602
31615 45833
8513 18066
4206 21038
65422 24932
52982 53524
17739 44376
8458 45635
48057 39595
20517 48428
40626 32612
62967 31572
50591 7778
18432 6457
51504 29880
11529 3066
9982 27844
45801 68092
35799 48350
24847 41449
68691 45973
21781 55260
60757 62180
45975 42658
8168 49396
59247 66073
57887 17053
65785 65955
9550 28204
52179 25625
16299 3307
26890 46171
37148 28391
25979 32714
58516 54744
8689 37586
53815 58008
39569 46923
11699 36590
33222 43058
35254 30406
46126 62866
50887 1588
24611 57241
34580 38542
32621 45932
14147 51239
6574 65663
58302 55995
45177 16090
62479 32432
49825 28816
35498 12681
51684 23204
29709 35513
41032 28262
28238 24114
42971 18562
43372 68012
29011 65621
67157 15156
49745 59219
45543 35134
21418 4325
18037 21981
18031 63549
17230 34433
49574 6929
318 55059
33691 54618
47603 32535
2815 42673
56425 55804
41206 60882
56640 34771
65343 65888
66702 6254
60454 42600
4068 30811
63477 55450
58279 12028
64558 15744
45599 25709
43944 41709
53476 18425
22104 58885
38157 39063
17389 33971
59057 54763
7009 2966
12032 37103
46069 55914
64355 38034
51453 40238
25419 15883
68319 30275
21354 68376
9352 13274
28624 5979
7659 23813
21679 41825
34093 53865
23839 68264
45222 50478
58041 16163
66062 821
22188 49512
40395 29131
20573 45042
35871 41373
51173 10189
7744 41188
14513 27001
52980 48960
18679 8834
59856 61226
45917 3712
33369 34031
16571 58609
17657 21737
3358 10749
57853 13556
49464 26241
37110 50951
57198 27374
1934 53943
17398 13007
62191 44808
39306 22542
15659 6885
52602 56723
56584 18084
33972 49793
6017 35937
60370 9447
20510 13573
28664 53328
43460 45138
20713 10338
67100 66581
36735 25798
45732 67565
23179 26184
64344 22569
47442 62370
66293 9481
22648 63396
21554 65591
51701 24289
37385 12991
39593 17572
54577 34531
97 57356
36357 67633
25906 3096
29761 30440
67582 9637
41481 50027
51651 2717
61786 27560
54444 44018
56482 36018
27692 3924
67683 62724
36795 37955
33755 24160
13473 16016
30723 62187
62693 9692
55497 63889
16926 21273
51897 57749
42174 46046
55844 28953
23950 29079
39725 36406
26837 50701
36891 46023
5687 52714
14591 11951
46605 49471
33577 41675
12753 21470
24714 17740
42830 39002
48849 20525
59974 22368
65167 25536
58829 58979
37716 39777
3422 62753
42752 51033
16054 59495
43772 37145
32944 36948
34822 6714
2900 46311
58216 6942
45477 56385
61983 31943
30302 16330
44838 62388
46769 12748
62012 14640
56462 28532
58290 4089
30948 50990
36979 21633
24773 52593
33617 66513
2338 23506
51375 33695
11963 9034
48500 49249
39640 35628
51644 17456
21544 54155
28150 20247
39430 23872
41909 24990
26681 66708
65050 66067
14444 42335
24172 65460
15929 3791
45298 134
43785 53255
3169 16936
23510 16695
28060 48911
26379 25604
62426 45309
21014 38454
65508 62512
2326 24745
57264 30400
23356 3025
67556 53421
44585 68763
66377 14911
33447 26116
50826 52698
61298 36968
36241 943
48760 33624
57764 47620
14676 16085
32078 36964
14548 53643
66278 44934
64902 3559
39192 41953
39385 6734
17006 55522
3964 58604
9296 59280
21920 24492
59209 7160
13217 52131
25333 34599
5100 45650
5438 56692
984 36172
63568 54984
66990 8644
24687 28593
24651 36633
20733 59451
26376 58195
57317 25516
42841 9800
30391 25771
56349 38152
19503 10492
20215 22463
56199 44038
34971 1180
15544 52784
5297 42397
45797 64926
53024 11287
32343 48187
55186 45882
12152 62188
67364 57559
51202 62969
18154 59274
21115 48380
13573 6630
63016 663
38808 735
33005 63973
57491 27047
34392 19197
28027 54753
28133 61196
12365 18004
62332 2126
21766 28066
62570 41609
9078 11123
17499 16784
19392 32948
67313 31871
65892 704
31797 23599
16574 5959
5372 1365
57096 27093
6082 26494
1167 6931
37435 15554
51870 17205
66937 53561
12433 10838
2580 33005
65230 7466
45567 1214
22777 39795
11491 21893
38985 14698
43714 13529
22284 68157
6493 2188
34499 28226
52152 28509
35072 9202
33418 45769
13347 63408
33241 29516
46662 50436
55875 47910
8696 56480
3280 11795
5256 44095
33769 62236
31332 52994
62219 1549
14068 9653
58966 10337
10905 14580
38036 10656
33240 30421
23236 5699
45375 47015
49390 30676
2756 43305
32263 44593
25130 46584
57705 36525
36101 4149
26037 40129
15371 13526
51645 22738
46274 23644
59564 11325
6794 18752
46816 43955
17575 6382
46266 25460
22647 40604
7044 47775
52918 67717
17706 24868
31935 17514
50507 5071
9075 29290
47504 20456
37005 42116
47349 54113
26025 65801
6399 12624
43105 44531
11221 29185
7341 17002
29695 28077
783 12448
67617 40207
49934 31904
31541 6116
780 21225
21043 15233
26618 38480
4577 19463
16366 42082
13303 44416
50464 26094
8808 14637
6616 27190
20646 62056
2971 13720
22438 4408
29804 44365
44067 61672
17472 10227
52497 39955
64 31643
7296 52344
64386 42501
52692 2413
16823 32987
53180 15356
22328 88
20337 42825
64898 60447
28882 62413
43952 6474
2816 53592
57344 57650
58035 19600
46159 18056
23157 3911
19247 46664
49899 40004
64761 20825
17850 9418
19493 46713
36090 36087
17914 17379
25594 16531
47078 36992
4632 27903
25540 26106
26743 8829
10383 31300
1477 4007
18636 11211
58867 13993
857 20648
52622 1779
327 63929
45754 35503
40258 45368
57409 38986
58685 16869
36628 293
36513 9839
34744 20259
45615 19863
55459 63568
67088 41049
56350 15354
24978 7186
54472 18936
48759 31818
46129 59469
36716 376
2435 27735
12055 36358
39923 16237
40452 24471
10086 59823
45626 25191
9790 67816
68395 58429
1989 13257
29802 38275
53063 54405
56298 2483
20630 24063
37746 13411
12894 65680
39565 18664
63975 5712
46748 37440
29387 24145
44987 37140
45867 27885
53412 23219
67851 7691
23960 36703
13116 4437
42295 35230
19181 57969
65428 38188
49739 56381
66190 36504
68346 38315
30991 68589
62969 24311
25182 35373
67348 38228
18030 19997
30861 62051
33112 66467
39044 35081
3033 38671
34847 21653
9497 4497
29320 23562
48629 59799
47907 13927
2616 20214
67903 53585
11649 45184
6121 32181
40154 7880
1194 16460
41345 40070
483 9818
12569 50923
33072 40444
39159 1415
45599 63411
23732 48050
28091 10042
31709 14047
58920 53770
68133 66688
25293 34100
13627 66969
7592 922
19602 52553
16245 44070
276 31067
67587 22987
10420 67510
44069 31549
11158 43248
22778 57285
36756 14308
30125 41356
68398 13298
15428 65661
6435 2110
66421 5224
26680 48615
34416 14179
46504 62986
51268 5323
4059 61788
16839 25756
9593 65429
53619 38796
19148 30485
6819 32663
21736 11596
15694 44820
41752 18720
35174 11758
38115 9444
19769 53635
18070 1723
5854 54526
45018 5097
36543 60673
13127 54594
56479 59874
13174 62953
32067 53281
48468 60076
25652 53506
5584 6592
44769 21002
1197 37833
22357 53441
48515 35707
46962 7427
62663 31908
58130 23332
55468 3743
7024 9727
6129 59203
31806 7055
12326 49051
49122 60654
5560 57474
60818 22168
40375 17341
61905 48649
47977 57222
4415 49904
46731 43642
41796 20373
28512 55707
14642 15937
44679 27317
39355 58486
39372 42258
21596 54709
1198 25137
46443 27982
51374 30260
40539 29463
54389 66498
43686 10787
33412 37208
43015 23409
7800 42554
26621 52708
28910 15278
10072 2191
51511 55010
22131 12738
365 65825
22383 35738
51669 58230
19289 42463
56799 64326
55432 20067
67586 34586
12986 41785
16540 22823
40148 49286
58542 28978
7188 29819
47057 62536
41609 12706
15797 42990
51824 38088
20987 14036
19589 31979
46594 13289
51198 25069
42700 30433
25100 60354
65599 6817
47219 56250
47954 60294
23416 54231
15095 3375
20347 43644
2515 11739
7278 64530
9074 43498
20552 34156
44031 12270
61102 4711
51410 65634
37607 64690
17568 67523
1061 57085
3270 13357
57727 753
64621 26860
10346 41902
1735 24683
20144 4913
48882 22287
19008 31960
2665 7060
8094 41540
32558 16318
68760 23107
18829 58418
33465 16213
12492 33168
33513 3933
53708 25650
44837 8047
5229 9122
49515 44711
25854 17939
5778 7642
57649 41889
31664 16983
34467 61902
62436 65783
22306 50275
16993 16966
15461 23705
55437 16251
33078 654
42844 10401
58174 10939
40733 13002
35672 42264
48718 19781
35528 17343
32503 59530
8255 47563
20262 26415
2344 67097
14837 10656
60952 59872
4098 16172
65522 4594
997 29046
8864 27049
48548 16663
3827 57432
49592 11015
1263 37304
47948 12687
48997 9603
12931 21759
11009 4519
67432 55005
50396 57728
41383 12450
43143 19650
12263 24382
22799 21155
5365 51255
7443 35088
45907 22947
1303 38975
62720 38738
11507 61897
49027 51369
65849 50259
33067 3989
55690 58029
24301 48479
50325 41198
47986 64100
8607 38332
47187 34358
28372 42541
5613 42274
66095 63147
21134 22345
19738 30880
50517 36563
10155 32892
40117 2722
46989 2277
35251 31437
53303 14330
67419 44037
22396 55085
37724 27755
40819 20095
7337 56758
46314 62392
38111 54044
38131 38843
19084 32924
46498 17614
58499 7890
19274 6047
43063 64616
13578 24955
31343 4027
33379 50747
56842 39123
55636 15388
36185 2130
39267 6056
34797 51321
66739 14967
479 47916
35829 61659
45706 12890
60720 23184
62064 46416
7067 19628
1524 66572
63595 34129
34743 47809
3633 57224
6620 24947
17100 64602
39563 5438
30926 23868
43137 29542
67784 32166
64948 6286
25007 25173
35581 54381
4961 23096
19986 45328
54233 22322
65427 46137
14060 11490
50029 43875
58972 56276
54166 33166
41119 16817
68480 51622
57283 11405
50554 55184
30572 67267
3736 20473
30095 41508
4992 41729
24712 7434
20113 63710
68573 14601
9743 44075
19435 3922
53842 30406
22564 31434
11551 5347
13706 9954
47628 9885
17676 59327
19578 12488
53862 48578
9870 9338
62820 13363
36720 58452
20240 54703
50942 53499
15585 67257
14744 28568
52451 55940
12559 28854
22853 37988
64494 10500
44826 30703
33536 29516
61457 11197
60976 28497
12527 7390
58084 41345
37605 22719
53380 14642
32161 42464
25012 19292
36731 49140
23967 28703
758 10487
9552 42993
33535 17014
32162 31738
52587 55483
49718 61619
21763 15889
36567 13751
1484 44977
15501 58950
66841 39012
21517 58887
49403 65647
7161 30310
7859 8333
36787 45477
52244 38525
8754 34099
28649 68345
502 41116
23503 38506
9575 53259
62373 31253
23816 52098
11132 24685
8213 26938
36081 2851
30434 43857
46793 24858
51642 8367
19517 7567
43026 34039
20242 59524
17247 12252
65878 34376
20803 20604
11076 53188
57376 51396
25515 3742
26095 23512
36667 1897
1303 68120
61148 53657
20328 7746
32034 34364
1739 21132
38231 58773
28337 35954
10326 53296
54015 29961
21002 27009
48905 43877
53731 5598
48180 7475
6753 35068
59470 1029
19858 51370
58799 50803
18884 48695
17933 56269
17085 36372
19530 11237
21878 21542
5474 3546
26203 56091
36942 12000
57338 3953
132 26318
19789 35192
4013 23241
62625 66771
27984 37356
10472 36172
46975 17280
32768 34621
26097 29044
51711 20693
57785 15703
18785 47777
62930 4932
20077 17999
784 53245
31178 54294
10683 22201
22039 28640
12605 15693
18276 10799
7241 22260
6101 51338
7002 67852
6011 43902
19445 57067
50918 58924
15759 54859
38702 23043
42161 33645
39243 23698
40286 37565
3005 14987
65754 24282
56804 14235
62107 21767
68428 9205
66957 34844
7719 20315
39282 17769
56234 62554
40496 23768
19365 16129
28226 32863
12962 44872
49976 6665
29266 32952
45509 38928
9122 67081
30262 31777
48620 68770
42256 43743
7056 35867
11747 34943
57411 40105
24042 8782
37316 4344
23687 50689
59503 5231
58329 8487
66038 65166
56232 11223
46099 14575
24995 21819
39114 34785
50925 30225
14785 3626
33581 26595
62727 65665
29246 43374
62393 61607
684 44193
32139 64519
66585 3708
60050 47197
53721 44064
33306 30886
53180 2739
25833 5712
20361 10497
44103 67483
48485 67850
54201 6961
65253 53643
54863 23395
26690 65584
44030 9306
38948 59211
38514 41574
11405 37384
5006 51390
16957 32267
32902 36304
14311 39422
18248 41839
67865 27778
20538 60375
1969 2348
60238 10128
51051 48798
5732 16821
36189 57406
36579 8093
17191 65809
28610 18671
27485 10858
18254 46127
21192 68191
63444 1574
45218 39633
40791 26392
67285 57857
303 21405
31546 36233
23496 15119
20138 67387
47755 54641
7035 41610
26246 10892
7267 17305
58185 40683
12876 404
38943 41426
53446 1236
16629 43771
30254 6393
36244 55845
36032 55008
14501 63899
7065 30998
23822 46900
21346 19431
43944 53783
21293 21820
30902 9029
66703 62313
42937 26232
42707 64659
19075 41891
35064 52557
6293 3376
12202 59195
41537 53714
8322 13856
51965 67366
62771 55106
36232 33150
65151 47925
13231 42267
63258 17579
38269 33277
32836 25408
24958 6103
60067 44922
51415 9606
5103 58054
3018 34730
68160 3112
31467 23323
65160 66756
1060 51579
45920 15528
64991 62714
39054 48738
34553 61147
26199 60055
58912 42806
6054 66186
16899 39187
6253 67024
2997 44210
62388 46156
60396 29707
55085 31779
13372 41658
3943 46163
54729 23090
39145 5170
61740 13147
14346 61647
28892 30465
18097 57695
33915 5829
10974 49029
7871 46548
4943 4192
29353 43139
18683 46161
63990 19938
2649 67564
53058 15249
17060 9438
43461 4035
28223 57552
36613 6067
30346 66736
68551 63537
15414 44319
18554 34806
31829 4330
21776 16008
6694 21534
9155 48963
2878 55100
34593 27975
5667 66092
68538 54274
34845 23344
34689 31931
62871 43793
50495 47105
67821 62800
16114 6732
3601 68180
29148 50855
6874 36248
14064 59809
59775 46834
3718 53035
63246 15580
24157 35487
25008 1102
1089 58050
35386 40653
68598 17423
22916 60973
14883 32763
67142 8206
42421 52546
24853 29475
39860 54022
35059 53024
17351 61784
49450 8938
37775 3388
2828 47461
57 42622
35869 27444
58551 65487
7599 47618
57074 65640
68236 40669
13413 56051
13169 32064
49827 58096
51166 42024
38581 16019
1155 58159
227 53704
51449 18947
38499 11422
8760 11888
30995 32404
4285 34262
6509 66436
66047 53391
63217 34786
48117 41110
32228 22949
55721 9296
27638 45222
43797 48017
29703 20884
62782 36961
26022 1121
38038 53310
29139 9186
9484 57441
27733 7843
9648 65448
42437 45730
31374 40186
51410 261
51119 28670
29142 15313
11609 44469
29041 34968
29044 24764
48395 18420
5047 64033
64477 16891
13719 39851
31077 26319
59624 39064
59744 66235
13859 3879
16228 33149
34378 49255
38433 27824
51637 46923
51494 65228
9388 27155
51548 40150
29978 32412
23098 37199
17239 56158
51559 9978
2843 11309
56359 47243
12533 53669
28975 2477
23430 57672
14678 25894
16903 26401
39919 44986
52202 14958
9934 68802
24774 23634
246 43970
21871 38864
739 57750
53138 58679
10689 21025
42980 50059
13637 19900
9410 15267
10421 27169
49302 61433
19875 46657
3309 37350
61737 28127
24608 24538
1255 23457
46901 24973
4256 68082
36450 59969
10637 15047
5581 21096
7923 61757
17318 39187
10124 66859
66928 62423
39484 35031
31478 9900
63263 60625
1746 24222
471 46189
39070 51975
48289 26380
43066 39425
56588 62105
20296 33606
7325 11253
22896 50749
9894 2270
2240 49392
42403 11180
57951 26630
25379 34870
67807 15636
35146 45894
65341 49764
28269 23233
15658 47600
40903 49432
9802 53213
11060 54769
46352 37013
1300 57315
29689 49625
8085 14930
59225 37115
22030 12204
57917 13897
65708 34790
11985 15121
42918 27422
45338 25040
50367 1593
20774 2994
56612 1345
30613 49702
6849 54683
33814 15
43869 44405
21880 22923
22990 40220
12764 17831
35669 48491
26204 54473
708 10543
50923 25382
23317 58197
64368 7811
1095 63167
22557 31168
56740 50044
32651 64765
33668 27743
35348 47334
25013 33560
51510 28550
53704 25793
27613 29801
26483 18630
22984 18602
42791 7964
27249 47760
36147 20201
54584 19893
35152 50985
7363 31753
18466 10284
42089 5050
10299 10387
39013 54768
39358 36679
51516 25494
24134 2332
21243 25407
6248 43437
59876 53312
22469 63054
20162 16664
59509 14876
20253 1341
12055 48750
2955 45677
36236 55136
63281 24126
62086 5202
51928 29494
19657 66155
27354 61945
41085 45609
12202 18112
59930 63459
29465 54270
55044 63310
9967 62938
34262 22610
18101 42466
63171 36041
44788 8857
31881 11774
28293 20505
2442 16324
43760 23504
63135 29141
7069 12382
12279 7531
12794 48169
1099 68138
5407 51114
17062 25611
41204 67439
3394 10478
1028 50668
38376 55769
56772 27916
843 25990
65773 59201
51316 59796
61582 31493
53226 4289
1427 58036
48852 67068
16162 33206
65839 9538
2778 26941
50767 10355
45872 44873
55546 68601
36894 64734
7468 57356
20129 32711
50560 52661
62667 21795
18358 38375
920 62861
880 59540
28540 30493
46046 29947
68029 14797
62473 67029
62696 43188
25276 10642
36797 35747
9017 23963
63102 54914
54659 48159
48116 38402
38904 55331
51789 49679
33556 54041
60849 20816
25447 39514
56356 809
68008 28595
49234 44313
31761 58275
15973 28395
15164 46722
44242 11769
25726 22519
66127 1504
22398 15266
7482 30803
25337 68604
41376 18172
48848 66461
22998 39872
43591 3808
35480 54268
1817 58248
22961 28589
19353 46918
33710 31914
9448 41656
57254 27806
25473 20895
4262 11332
25386 17892
24819 39057
31301 55756
61110 67208
59104 67493
45443 9093
46647 54629
34841 59355
16935 8987
62342 11032
52804 58463
60873 27369
31030 32767
42625 12501
59463 7934
38547 13117
59008 19778
29039 54043
60774 61060
32604 4702
10959 12754
23540 46193
718 6972
38633 62723
53954 11643
49668 22103
9489 27422
63921 17453
29889 12405
8404 16924
13759 63370
43863 14745
29917 14767
27256 68794
58828 39043
35123 51980
56639 19294
56798 63399
26699 48581
64730 68045
61581 24837
57689 54141
36140 2901
33102 11511
52705 15940
13042 17958
11203 32070
14903 64389
36536 51984
47183 53712
38078 17333
12617 63803
41917 28813
21100 46493
58677 53631
46012 67614
9167 23865
28640 11506
7597 17675
25883 38565
37511 31987
2181 68686
46280 24246
41305 24974
37692 20029
51285 53165
25375 53841
52535 48492
30153 17455
45051 14210
11677 62911
20918 10300
57650 66495
27394 12252
26421 65889
26683 67408
26378 10425
41209 34082
15023 34032
14200 14282
33074 59300
2324 50051
49780 61344
54098 63957
15484 52298
52537 16012
9397 55371
61669 10044
28682 25381
52068 13001
58631 50522
54929 13383
43265 39336
52722 12747
60946 45237
25188 23668
20322 15236
54986 54372
67543 23951
36919 7902
15120 12699
59481 55004
13883 63162
37190 48858
67184 27496
17189 26395
8264 26856
68574 60556
23912 40430
16375 18768
11974 61655
67545 22846
8293 14562
42171 33342
26680 67871
9110 30112
44683 32359
7631 32624
10591 41836
59107 64655
23963 46337
45974 36648
52906 12226
37133 12967
17662 18608
7270 24509
13260 64640
62070 67666
54185 52645
10212 24413
35908 42315
18056 61768
30843 22075
25250 42723
66866 28967
20866 45069
40847 50665
40378 36982
52836 60895
486 50156
20440 35837
23764 39190
40818 7815
51613 62501
8601 10688
45322 48020
5146 7078
56183 30308
26248 48089
57233 22028
18582 8178
55550 28090
15433 7030
65525 68550
55755 60598
14994 25902
33485 46666
8850 67430
27038 32323
59651 32563
63078 49902
20869 43959
41834 30367
54522 58162
28336 66178
8554 57983
41637 41403
21326 68706
15926 5918
44666 55124
48427 58980
47502 20904
37041 48335
67452 43001
58685 14400
21447 36839
55734 51514
30075 33652
58657 56142
63276 10138
3727 12315
24012 57140
12508 5346
278 65263
67273 12458
59342 62003
40862 8591
28426 56720
6238 35898
39319 12388
65199 53549
65544 36980
67957 43866
62283 7830
61404 65842
39372 5725
65761 51235
556 35575
12240 24008
52902 51610
33 33563
46810 18541
60639 33708
42233 65110
37047 43791
42064 61546
6124 10601
28308 18129
37574 51480
27584 18199
26599 1478
24623 37285
25402 21342
51247 441
53856 5296
45123 22300
51092 11976
65848 38689
1287 2515
14209 4486
11151 14325
59041 8356
66360 895
12234 48026
6823 45171
19938 33536
33675 8656
42911 53091
17214 7603
64099 3177
65968 2564
21075 56511
42756 42784
28248 64003
65533 49264
57584 37136
5910 59279
25177 9672
37049 39682
35570 26969
57795 52659
30638 23394
53737 51894
20445 41808
26117 31641
59249 10333
10299 5586
43564 51677
57029 52165
40060 55750
39998 54843
61521 8862
27249 54413
45468 65182
6943 27835
54286 762
41653 30038
52078 48454
21145 5072
11579 40202
15211 17549
59965 45267
20519 56468
13726 59958
38326 49576
24233 45016
63208 25723
40608 46704
8164 48383
7530 42659
67721 61948
54638 53037
65276 31100
44780 26550
60761 8719
36490 20074
63895 28292
49602 27489
65028 60272
50987 60265
68311 56533
31498 36809
67447 46754
1707 21220
6701 56157
56522 55522
65661 50544
38691 62464
3474 26796
15100 6452
59123 50411
19069 26265
50652 66988
55935 23418
7658 5624
19470 57431
42501 24100
1437 28972
9219 29500
49840 8276
54251 31964
59946 32886
22083 64786
22200 55957
66559 35187
182 3311
56098 17103
8974 38010
45733 36230
27094 25746
63592 6319
68535 46804
40171 55036
4594 15735
9883 39726
20934 52364
46400 3022
33545 43732
27797 67060
4702 45113
43195 46246
36496 66997
1426 10739
50254 12043
53161 38650
52428 12298
2849 29508
1241 68089
46508 47272
7911 41809
45153 27530
49269 14092
11107 11709
38046 24948
41306 56209
1663 66567
4415 42872
48263 65369
65496 64620
12027 36384
21284 1168
25993 45783
64202 31025
34067 2791
26910 32977
21366 11277
67407 36679
19003 20811
30604 22703
30448 57708
33716 68538
20485 27704
21103 6865
15078 47599
32618 66832
54674 19899
14690 24703
61524 40391
27022 54881
65851 22005
6461 64709
36082 23524
39786 18059
31160 46855
37562 24294
26565 29297
55509 32959
68623 695
21540 38533
45998 13670
57105 67863
289 51220
67772 48802
17261 20237
36038 25396
33824 68259
64005 47400
32352 10803
15090 43564
51669 2598
19194 63386
12909 37624
57283 13620
51472 43873
32711 42538
6582 62021
42130 27550
17116 23241
43553 43691
45008 65022
55196 39894
48554 43571
65825 58705
19461 61743
51141 29975
6270 15981
64014 48077
59032 36933
20670 41366
44880 7847
36921 49246
35451 54366
4326 2429
61693 9041
45415 30038
40343 19083
2567 46043
37076 14974
66712 64676
38597 60218
68408 14625
41101 55032
59663 15779
11395 16016
26888 16180
30328 9166
18106 51451
14604 34934
6211 23121
7370 64272
21957 11393
20531 45253
56486 6952
21122 91
21629 19958
61251 32599
47839 145
43429 12466
2223 25666
28851 46411
41126 14983
31500 52650
53195 11033
67331 52420
50962 30705
6283 39271
43293 66646
31736 50218
28303 35851
8896 43165
19861 64406
60266 59817
1385 49715
11951 16640
39701 18668
53436 11441
8706 27625
53079 12717
16324 55015
59598 47862
5507 55256
41947 30777
46486 14304
8489 12879
38887 62491
44416 58306
12942 31732
64738 19783
12020 35913
34639 28396
68541 17650
16994 54881
58569 6604
59536 66285
59516 45283
24245 13074
12759 18292
24198 67179
26300 28180
39455 37344
67962 21027
25069 33925
52459 49402
34679 8456
22886 63873
46882 49616
50375 41532
30796 17610
54690 3720
7457 30405
21020 18902
52204 2079
51911 20086
7147 29764
51918 2841
12632 5942
6720 11680
49137 18092
33519 9594
47157 4028
2134 37208
49953 2008
65946 23603
35591 28931
17171 16415
33362 27121
9002 9792
39175 31341
20687 6599
52409 63546
3959 58460
7072 49403
10943 5650
25663 18190
5368 37465
52378 66001
57457 14431
984 20862
59101 31931
67827 26933
9198 63658
51021 43336
13834 3659
63349 34734
14225 35565
49514 63980
27282 46463
58906 7853
13240 8990
27094 58961
50729 36711
65889 64579
67307 4438
41960 16362
42523 40996
41164 37956
59656 45425
31986 52642
33526 8909
40327 30938
53592 32567
57372 36964
4350 11942
62672 6984
49308 68458
40822 36754
14114 54843
24995 42896
5956 60797
42964 51656
14062 9014
37010 55004
66996 19355
65255 45069
61960 41890
58293 33972
24079 2094
42289 34905
21886 25167
25803 34695
6681 49415
60415 48274
2993 28065
26449 6817
28163 60305
17632 902
25427 40339
4541 19697
41255 54911
20470 58108
46416 1350
58867 35494
41325 1459
16527 46503
8339 16406
62310 53313
19666 65819
47428 65182
27260 34357
4396 11598
15454 24323
14658 61835
29780 61705
42653 3905
46694 5382
67136 17552
64518 54511
14135 39780
31765 36362
12720 33540
7465 37725
4148 44364
28809 26417
58073 5020
1616 12159
9675 22341
2902 63849
14350 21494
36439 60675
31763 8342
40835 1289
16098 29216
58867 12976
45409 12642
54572 8393
53983 32588
58955 45356
54961 32922
41069 53833
48892 33485
49111 49286
17262 12839
28938 44750
42891 43815
50905 58813
62881 35420
35136 11087
5135 14285
18588 22339
63793 59594
37362 56853
17476 48611
14231 19216
18416 15118
28436 19353
42656 29163
7733 32097
33793 62956
20281 61471
23452 43833
24108 41335
55827 33724
8818 15153
25782 66070
16479 57146
67039 24255
29721 66352
37159 26083
46326 49975
9972 32228
62513 60823
66154 33838
14491 49395
23457 3549
26789 47674
21577 43653
1256 36234
50490 16293
23150 34338
44014 28013
26556 17450
57290 7939
24237 42617
52391 47834
982 32812
23955 42460
32496 43862
23551 6193
6949 66034
50613 711
2545 53716
59169 43241
54076 48082
54244 58010
57833 62888
64142 16207
42404 37850
62175 58954
46074 59393
35392 36470
27000 45109
54344 27224
13344 51924
25423 31312
32293 25773
19697 24863
46869 32494
43243 24189
15806 6756
63275 47478
18278 28051
50391 298
11307 26677
27064 35074
41477 45633
38045 1932
13128 23585
53194 23015
31483 3028
6515 32738
27038 32151
22824 46089
63856 41112
46607 67356
28242 52138
49860 39888
45066 43846
23506 44617
6594 42850
35471 1186
39135 8845
60431 59439
36235 51135
63753 64702
45822 50579
23780 58739
22577 41880
25347 65485
15725 29034
56215 24632
49341 56374
48115 3314
50889 1009
55272 62151
26580 19683
54109 26130
53724 28719
50080 18364
38354 19485
43098 51828
42062 33538
65074 10836
66032 13075
14830 24315
45491 47358
14749 29490
57588 56219
56558 46447
10013 23442
4646 50997
36578 28244
57019 6097
13009 14264
20316 58120
29537 5642
53755 14023
46364 29496
13023 49084
30937 51227
29699 37379
30462 61098
64777 26018
46614 15631
21814 63672
37353 50888
43660 65406
54321 48724
7987 3031
40063 22523
50771 49287
13387 8796
24471 10819
34513 10069
55630 58658
15739 58533
56613 4377
59174 16113
42839 31020
39502 11433
19239 16052
45765 34316
51973 49169
54864 16888
60803 25816
18410 52060
67090 23704
6027 1619
67012 58977
7703 5989
30169 65077
14965 10637
58055 38222
66238 47322
35604 62519
58805 61477
16715 1818
50534 32971
14096 54833
41710 34401
43451 14946
56825 7661
5314 21640
22738 27337
13172 2950
5818 23482
62648 60282
55916 39063
47771 540
45207 17626
46988 55543
36028 54148
36860 51165
8983 52070
46282 19658
9533 14901
67582 53241
40005 6922
6435 567
56617 48481
17281 35681
9786 187
55588 67725
65513 2018
18617 68784
35712 42130
42918 56991
32647 30716
40502 16193
25461 29381
19525 1384
55393 53859
5131 28364
10280 61460
33049 67973
40793 21404
2709 49991
32376 56037
31477 58169
49132 8940
4352 40667
2826 17756
38821 62454
35003 32862
68215 36652
48225 38179
16578 16588
48186 18698
52176 26144
51491 1604
64487 22236
61800 50270
63132 51799
46773 24119
1456 46774
18443 21834
19167 63084
28648 58323
827 9327
10623 60683
12516 26478
39158 50129
39965 30403
19637 58056
18408 26650
47357 62341
34885 44314
16413 66475
41770 46420
68187 14194
18748 53576
35690 53743
40499 59060
42400 3493
58219 37427
5845 2798
24147 37834
47277 46684
8719 6318
38131 5260
4307 4678
21993 44491
40824 27622
35157 41770
5402 43969
27443 64042
58333 30035
48666 39785
66221 26382
61944 30233
25677 35698
6769 61952
50519 54801
8550 6836
2756 16504
31340 44959
30321 39920
41368 29801
54335 8582
19533 56610
9970 57987
32777 24387
61671 33538
54312 52920
18228 61442
53150 4468
43643 34659
40377 28230
10789 25050
42038 53113
53186 56275
22610 62971
26711 56013
19066 28013
38045 62218
60573 4240
10046 19332
28843 8667
927 42876
15886 65980
61794 39989
49089 10450
25610 2672
35940 48847
29122 8222
54324 46203
45721 31250
56766 30417
49633 47847
18874 17311
34695 18554
20223 24849
27376 29048
25927 20944
56388 3072
44629 66030
23689 43745
41227 23847
53925 38513
23594 5083
7785 64767
67660 53366
50548 34543
19475 3693
47661 47859
28309 49154
48872 65563
44963 8685
18336 43777
22313 38737
57915 48226
29727 43803
8917 57361
3004 67980
57039 32113
27439 59711
15597 9192
30570 66838
32418 25122
35411 32182
2893 18452
13886 38151
23650 22470
16435 14262
46571 41621
44216 12615
2724 42081
23325 65973
49473 62234
20173 45028
13725 29141
48702 61270
53695 51205
57165 58257
4517 39843
59118 30919
5628 60916
37327 45047
10973 31606
31907 34964
59604 15684
203 30856
42131 25438
43201 50276
12692 67045
60237 26461
57401 20545
63963 18369
23690 26489
4482 68616
9474 33682
57579 32834
68612 58867
27342 35032
15634 38903
8056 59560
21970 16097
1717 48380
22840 51524
1161 28769
8308 29754
59495 41256
43161 53343
3876 19494
29840 16458
44421 61287
46639 3166
10482 51240
42775 30210
5120 19951
31673 17515
68019 27918
23713 26826
7335 65995
26816 64523
43055 44595
68676 36058
47621 64092
64273 23193
55715 51518
62993 15572
34931 17751
62140 65577
11501 9100
64527 18353
39333 5265
18182 25793
62508 13534
61264 64246
21434 23415
59090 68789
13190 64333
26497 30517
24075 64806
56605 62841
43166 56006
67960 45591
50761 36794
46480 43301
31397 13867
32043 9109
28155 55583
10993 3252
52908 34555
52564 45920
18956 54525
62823 4304
63457 14632
54083 44995
22520 52117
33413 52604
6627 26332
11183 49202
47256 42564
43688 42804
15010 14351
9828 23092
7547 5172
5907 56291
44964 59301
9189 3360
12403 65734
58099 32
23325 35272
54043 65796
56318 59271
33890 19933
2310 52290
26921 14378
2698 14232
29502 29522
27569 64248
31330 64232
63350 58902
66054 9797
34716 63722
35493 21253
28895 22008
56832 45657
1708 63478
40067 37374
45586 17428
21997 56015
28746 3662
62618 67800
37997 45882
36439 17405
11384 45197
27362 60912
68502 46391
19440 57990
37518 9048
59762 51096
64052 18573
49296 68692
39873 855
55006 13708
38543 61518
3390 43495
29620 46556
7175 7010
18408 65687
61209 52178
38999 49552
19859 67301
43326 65330
66959 2036
28867 17750
52760 48105
15032 55808
49778 14669
26182 56466
38944 21444
17093 14348
54236 39124
17933 1748
16762 46976
20468 36764
49205 49463
12610 14946
1763 12629
7882 35969
16008 8738
19213 24016
34305 17307
44124 31990
45772 23191
57191 6491
29098 13100
538 65061
60610 26253
655 46274
16092 42978
18421 58555
2101 37146
31810 31735
12885 49761
33896 63829
10726 9161
27112 49623
18432 3910
42047 4180
2796 61974
37341 47831
37377 32401
22294 57501
32987 28100
19681 46929
22461 18104
3406 19389
3867 33261
16749 18510
16099 15178
11903 27419
50339 31922
3596 21702
16402 18705
10591 39990
9912 66245
45723 27660
9570 2235
4039 43750
41595 27047
54523 23456
44954 64283
9350 9899
912 68449
1230 19238
55545 26642
19519 59708
36694 27863
59172 19932
16825 56580
40676 38445
61454 1398
41691 61186
13925 62953
44886 38953
52310 44834
42104 3524
13309 7419
51739 38883
49642 360
5183 35153
22706 60326
4342 17279
8810 23500
4045 46554
51378 68696
17798 31288
17257 39036
31569 49211
6847 14240
40 24290
50226 9555
67935 29630
65038 35708
35320 30388
52653 7138
29693 56041
50670 12093
49586 27472
13436 44393
55495 26868
48851 8256
8326 42201
28879 59288
4499 11196
56565 68718
52416 8994
10297 37126
46246 32280
48697 3571
24501 37020
45927 7265
51796 10505
61597 3901
54458 56078
31800 45459
10354 1978
20446 29605
44761 37820
8821 42719
17056 45756
35760 65519
30104 34215
50604 59306
52792 24127
15747 26722
53336 41999
37279 18133
54118 29257
48861 43922
51729 25634
29492 48726
4380 2507
10752 57701
7696 35354
442 31507
17073 30314
62383 39514
61073 6312
50161 1572
32489 9632
32383 6925
22864 55265
4358 26409
61145 12239
34773 40852
66481 47572
24113 35662
41542 66827
7474 21438
21915 61042
62201 48590
61101 9011
63669 40380
4399 57991
36580 29015
46759 32417
49322 22017
14161 35631
41783 12566
63996 39801
29816 23301
31377 16512
20479 62977
3549 64694
9011 66413
61697 22348
5527 5418
16937 63103
55801 50755
66380 33366
30644 58202
66469 15087
65303 52164
64199 50383
31158 28925
30241 58877
57640 37252
3828 50273
23496 62051
28623 55053
19059 22371
29307 67231
4198 15818
24709 39115
24199 56515
26644 43410
63940 41004
41181 66896
39570 57590
36890 13191
25527 5466
2656 28219
27290 3936
67863 37930
46724 1392
33521 5621
50555 59021
28236 68628
55917 59900
27408 49600
34295 38770
60636 60045
43981 2211
26543 38655
29220 65656
30082 58741
35421 18347
61283 32130
6373 2066
28181 28019
46368 52691
30279 17994
58482 45800
13795 19990
54688 46430
58104 23387
41156 17052
64504 6670
37847 33570
54088 35160
9267 40079
29510 55078
56696 11280
52318 42368
21755 13285
20667 43595
67109 58183
41062 26262
46179 37809
35796 47329
12689 7409
25126 57303
428 36625
44116 55106
31213 17072
65144 52164
1534 42994
66096 64956
64631 19027
116 4373
20491 58100
41048 42838
67929 783
64723 12701
51996 12002
54498 1315
56414 61420
8878 50131
20890 53693
39007 10298
67508 16636
9931 43926
389 10128
33873 51401
14963 54831
54719 42180
14006 40259
21440 13974
30959 12408
66899 25461
65338 20212
2661 38021
60442 68435
39220 16339
28234 52902
58591 33939
45081 28761
39296 31177
18607 33333
42253 31095
46444 38816
9606 4331
11987 29970
64622 68391
12952 66173
14335 39502
19958 12239
38028 21372
57865 7922
7528 20746
28338 14404
31100 282
65253 44606
53044 42480
54732 15783
67404 42550
860 29776
49930 62010
25110 1886
19813 3086
30715 65967
36302 14579
33989 47427
13543 36716
9001 56178
60762 58689
18629 47419
42961 42659
28080 63554
62245 57242
53196 37
64715 48158
847 45159
1157 11521
20006 34885
52749 37557
34954 26454
44829 62480
50630 385
55784 34745
11905 9104
57269 59360
19780 36067
64637 6427
47364 27364
68593 28153
1854 50826
20750 3198
9493 45180
31915 5765
2810 6912
48733 8786
35250 33166
21034 19063
24775 66350
26373 53664
34305 832
19909 43500
35466 10651
16229 40058
33751 14034
38347 49992
5354 35166
4378 61327
47571 14451
45300 58577
19376 40116
2955 11567
13951 52797
22329 57335
61055 1286
60644 53086
11586 20703
11639 742
9807 46149
8443 61154
49659 37172
58082 811
59030 66552
24033 43458
13390 67866
55590 13154
33796 23563
53197 5348
37823 58464
47971 64518
4590 12513
50130 59996
65217 50601
31184 64130
8815 39804
16497 45365
41741 35609
26715 31605
52277 45002
49974 66345
18445 53818
24216 55579
31132 38854
10585 56429
7609 35624
59242 6039
21320 3731
27396 14406
57582 59451
37495 1951
56678 35181
32116 35155
39235 40372
66286 5923
65725 53642
8961 35006
18632 18585
3493 27030
55526 48239
11719 58030
49099 25632
30882 53819
40265 9995
58207 51157
42179 49751
52308 29367
12184 68410
3982 27430
52988 18880
35731 63373
48955 39909
23573 54620
30228 62175
52815 38722
8040 50609
46583 49533
27574 68060
19713 14047
10658 50205
9058 17730
64595 14938
29489 5289
37007 44637
57360 62018
3047 2473
39749 6972
48358 54183
42352 9065
9280 49598
20999 50004
27445 66022
23678 10382
50116 27638
20955 9560
44812 10709
2003 15110
58499 38637
47147 55181
48352 2085
62263 10765
64119 39656
1257 66179
5585 59048
12690 59932
37531 40251
24452 7372
66691 26796
66626 32850
59100 3542
58625 67959
32147 15027
63050 34578
62442 63698
57047 6786
48860 8636
62192 22743
19949 47566
45889 61410
45513 62218
47343 49613
13066 48322
22326 31422
21142 12056
62163 50734
62976 58002
42851 54940
6826 65943
34655 7632
418 35141
16888 35664
24413 34335
33328 60997
15752 18015
16438 39590
66985 52524
5726 362
51205 15487
24796 1389
4616 58592
21079 12015
4798 28756
62934 56199
28980 25241
17609 67980
67574 65048
59597 47720
2447 2667
22097 47333
16838 3984
5344 28077
33950 22573
16982 29036
65968 65039
36003 17273
29810 23071
33235 28924
34608 29179
3022 4779
7581 59644
31878 15220
32256 3120
63955 23470
50035 199
40539 20621
28976 29229
59267 5386
17544 16083
57748 40334
55574 38568
26909 56475
6649 43023
65126 39659
19632 47040
10640 10927
61722 40445
32977 14391
2663 57355
41366 50118
68309 19843
8295 65451
76 54961
3440 10325
49735 64372
59272 58969
14602 4585
29730 60190
20434 24574
593 46730
57883 30209
33031 51773
26523 46761
45616 3668
30129 29520
41446 49823
51074 45734
846 19946
19555 58441
1048 35996
50599 64312
27381 25074
37887 109
40994 1076
43597 50510
36100 11499
65138 15444
18375 58538
55430 1505
4727 42968
57649 27027
54417 18611
10380 14158
26445 37982
36298 9698
52093 9943
6133 49397
52172 7137
4640 34334
49068 50848
25830 15139
14111 20293
36392 4649
2579 28390
50717 67878
50601 21475
42412 53363
35409 60261
16581 25305
55669 53048
57331 42968
16142 62427
15401 65841
966 60035
39889 8473
33571 59144
2328 49654
41487 66583
54331 24086
65304 58803
55521 28322
12930 32936
64921 46015
3518 53730
9053 31571
64871 38007
23279 14707
535 32900
64567 63515
51768 17768
16025 32457
60849 32715
1359 59748
19496 37656
55431 24687
23032 11980
58788 35553
19294 46105
10346 49083
9392 28415
46714 7142
1338 18120
60625 2641
6951 36075
2710 40103
28260 59948
38868 50796
63632 7526
45950 161
56139 62091
51463 48721
48780 68455
59478 11330
32221 19587
49985 4421
3046 22649
4978 10069
58721 54561
33629 66009
64419 1092
22621 47689
11388 32558
60314 35426
1686 34400
53320 18882
7065 67725
30201 47759
39731 5274
26804 26542
49096 43728
6327 32913
64960 14296
10861 14096
11836 63810
56308 24930
28380 16835
15905 9888
31400 40315
48591 19393
40194 51476
1958 26485
49870 6684
45203 58588
52667 31883
6356 64557
40951 44815
38960 31770
31255 22936
17240 59603
34800 37989
45562 5506
66955 62307
12197 39065
19481 27554
10941 53339
2889 4008
26375 5639
47827 31996
52482 6843
26685 68600
61009 31723
31305 15365
61076 25252
17465 25018
27855 989
40863 34082
67180 9128
26303 862
43201 23379
2692 16064
52579 64728
43924 42846
27740 26991
49911 32688
2727 13367
13821 24893
4662 13476
66138 45467
48531 58211
56639 59883
44774 34233
62223 52778
32863 59870
58123 3719
54271 57131
28655 29443
34219 49593
22180 2018
67215 29962
27514 41283
44525 15767
46157 68237
40265 51897
52966 15225
16960 42574
16405 61558
54524 27069
47281 62516
18707 45494
455 67230
4973 64429
56096 64556
4228 63046
13819 63891
21208 55308
19153 35545
28833 21669
64125 18487
62366 57861
23765 10556
54439 45305
65058 31252
25952 61354
29881 27617
41637 28302
44071 34940
17204 49698
65205 62185
1489 24997
19863 56113
2998 66647
67212 55862
10937 21587
51573 4661
43801 14931
60950 19849
20382 52669
2986 61953
2686 46422
59400 68377
9069 55372
63362 14645
41289 58722
12635 62094
37410 66319
13042 17900
301 2016
15413 25057
28056 59116
59708 17992
38254 22361
65218 3278
47725 35986
13838 30992
23939 35319
59292 48592
6994 2585
55652 45196
46894 55785
58129 38497
8175 37926
21057 19844
48964 18049
46907 56784
468 51193
49516 68062
9958 18462
20471 15191
42189 18212
48940 30859
50040 45137
11191 48630
11842 34059
53893 37443
16874 41407
21886 48422
18394 68038
60603 10915
51265 1173
9098 60751
17490 13064
64533 5782
41904 52503
64418 58652
25327 48872
53205 10706
4388 67101
293 66677
25602 59314
56615 38658
32247 52965
28906 37053
9434 50382
53356 6844
2361 37357
4383 16407
24324 48314
57007 7264
14830 65438
4292 7249
33611 51694
60959 51018
16783 24563
22683 28016
6672 65591
39149 47362
62852 18028
1367 49173
40350 29935
41225 13263
36283 12865
63933 9062
57017 35968
14343 216
7493 51458
40006 51295
63797 18771
45821 46294
27126 20958
46919 9670
30597 34029
40944 66135
40411 7071
11812 6587
18162 16896
17177 22028
28018 4698
21524 16070
53868 47359
58943 12707
45740 59036
12923 54093
25438 34232
66205 33941
32723 14250
64533 15882
42005 27335
26456 28494
27380 27206
50278 20950
17427 66009
59062 25027
68448 1049
28228 9123
2492 33591
64799 25614
25662 50670
10679 34356
60381 28933
54248 24704
18361 65000
24048 1096
2923 58179
27546 8159
30359 68584
22259 10780
54810 10314
8712 47946
3311 41985
5039 4930
7524 33205
31612 34560
58109 61444
39995 19721
41679 2398
44098 65693
44392 12871
29543 26736
14469 63000
48762 8969
29442 52600
7881 29821
44389 52088
56862 6591
13803 66363
18160 2092
5929 9147
14208 44249
2189 57925
49408 64469
16378 42323
28837 15647
61518 10072
51243 45978
52287 66644
65109 34007
27153 46408
67425 52531
15058 10528
26087 43158
26189 44936
22530 27285
58423 19423
22311 50079
12985 2531
47585 30081
4152 34671
7720 62218
12176 42619
65045 23815
54938 65246
52601 66022
55421 59843
48356 15383
27504 3306
15493 19736
24258 29994
15725 42464
34716 23138
49836 44866
39538 26397
66694 13898
41049 61617
26150 31911
7988 52003
29352 11346
59788 63019
35025 19993
5743 29437
49174 33148
58894 29702
57724 25331
65250 35544
56580 40274
5279 27986
20912 59076
30944 65776
49118 21350
62056 38564
21097 46586
2320 7752
19874 64462
44826 39832
21259 53420
43333 43009
19286 12393
59661 2446
35391 43141
24744 15922
44192 56811
46714 24514
40468 65441
37665 59288
37640 52828
27702 1031
11361 30312
61622 22278
11572 60358
4837 57634
45067 43464
65220 57180
19261 9617
64637 28319
49197 8975
11580 23132
40590 4157
30130 44409
12334 25586
36583 575
1670 48552
43516 42583
8836 21287
24853 58535
43740 28933
8446 33916
23138 36169
13986 298
43178 60363
20062 31847
27713 22143
20587 65813
15371 28926
8822 19978
25190 55381
43295 44950
49489 14797
46208 66906
35600 57234
54002 57180
45330 10992
55561 34415
22298 11623
33831 19837
43701 60649
34161 58297
4926 45411
60333 26078
32247 9461
39912 23297
26987 40521
77 59546
55017 63270
35903 7680
12529 34535
11019 67372
4756 33326
14597 58822
55666 33147
9961 51055
21803 15377
5916 45968
24515 4935
16671 58355
37791 11344
44219 37191
5895 52366
50053 67944
38434 23957
15926 41569
66202 37314
53048 48539
22309 43196
43620 58310
20627 35217
13205 57086
34528 24643
2417 63992
43985 44073
495 65353
47170 3619
17216 8172
49083 13308
17337 6325
49180 11190
55886 13920
2471 10896
49866 48987
57936 19433
43459 26171
14535 2953
13197 15151
35240 62397
22725 38583
59969 53001
63926 38107
50530 9600
14918 5969
51222 39955
26259 3728
18941 21074
29563 40801
44995 19297
47741 31053
63019 36137
36231 23673
40332 49249
67871 43071
62263 9993
41909 1514
20996 50317
9021 52606
52894 57743
42271 56449
45941 68566
27980 19757
17795 62594
17002 13530
3859 15322
64893 63948
43076 42632
7441 35594
29364 31812
58539 56963
10011 52004
40870 43152
11665 16851
57402 28047
26614 39759
6728 33672
11542 62518
9723 14928
55116 30459
43709 57136
59205 27365
13020 2927
18399 26826
41828 51506
23328 2790
6377 47926
17646 19803
45835 3063
416 38696
52851 37807
56284 27528
1193 55535
46269 48364
67174 66570
29091 38504
58079 36116
3302 9332
13606 53381
11543 50126
30342 68646
51868 50709
39707 52352
26534 22682
16230 34591
25452 50323
48818 53260
32180 60263
22555 19375
35703 16232
66543 48545
24376 25469
65450 1358
59982 65120
55764 20308
14979 6672
22067 40987
40831 48516
41924 49116
41652 23434
48472 63229
26884 37262
66631 58266
5179 25077
62957 8116
48115 31273
9947 5394
59195 14863
50607 65827
9999 62637
8132 49222
50827 44122
42055 28300
21155 56495
45994 25666
11743 60646
21239 19379
24142 34929
16746 32444
68529 6291
50272 44181
47970 67633
27239 47742
47814 50319
21614 25804
56640 13876
59311 5471
22145 63984
60443 8034
14033 11993
50246 29723
44705 52616
13729 4968
66330 45087
65233 29849
19399 63456
45111 16056
50270 45485
62580 60450
44084 900
1378 19935
58866 38368
18000 54303
62523 63028
43985 32881
55991 39019
8981 61103
13043 13276
49095 23370
45898 43893
49439 28748
43191 16175
17803 9293
7453 14939
12314 21981
15880 46243
61490 31649
30441 41852
23724 59018
13447 30156
44396 57311
53200 58375
24874 11643
66349 55255
45632 55744
20935 3206
13001 40155
53778 60918
13564 21761
16479 26862
17560 50880
11053 42815
23414 7520
40093 62316
38096 24566
3784 37596
56875 37861
5842 2226
63342 68731
40481 17485
3879 4286
66974 10136
45879 19618
12330 57306
18599 48198
7757 17593
2141 19594
8433 9721
23179 11259
66916 26585
56422 32435
27390 46476
67879 32726
24236 58898
31652 57331
29719 58238
23428 53834
13504 51538
63074 25688
65642 23324
49282 43847
12706 53220
47858 54366
54969 24360
48772 56527
37186 41517
21794 966
39708 66876
60931 43610
19409 31386
54032 10576
39787 53318
37486 34498
58571 8068
61314 34336
15014 6409
36257 22142
63308 63967
33164 32998
55118 41235
27029 63912
48906 5847
8281 54056
66842 8017
48607 38552
50659 22136
49306 16972
11439 54901
63665 17189
7078 15179
18373 20528
30494 51802
25372 47865
62916 7895
11153 5804
63744 28146
31111 795
29873 53867
32633 51842
35657 18628
65486 14769
23815 39205
30761 11352
614 10217
24546 23582
698 55727
64105 65560
5747 29979
49201 45136
57040 16976
34283 36053
58888 53951
62885 25982
4009 15461
11280 34626
47893 33574
48497 20435
5351 13724
65315 56532
52697 8597
47201 55709
7279 65189
61061 50649
41674 932
39334 14766
49144 19855
65787 48457
54041 47142
4122 60236
52130 16038
12404 49229
27425 25529
45349 7095
58104 22588
60744 27861
22215 41062
38708 16988
60235 7285
16428 63588
21403 2025
37760 12157
63490 46587
9761 5047
57495 62378
31338 42166
49131 512
66814 35920
52723 43375
24797 7579
11746 31357
13705 53887
13581 64854
19475 50043
17183 25661
36597 30531
36050 53317
19784 53521
52676 33349
35422 44483
7324 43681
48904 21554
62158 32162
31586 37699
66271 50189
48259 40751
12388 51184
37116 42703
9408 12110
57462 64955
56282 63333
64938 37607
62443 4534
20006 26665
13377 60689
27988 34104
34749 47288
22674 67699
1038 16244
57531 13690
1446 41133
44124 51543
53260 11194
61049 2353
40414 25142
37162 6481
19001 29996
34323 52515
24192 30341
4595 7118
51922 23979
29212 58641
45475 19497
20539 54503
47138 18215
62751 4568
60873 6879
33807 2638
52798 10135
58691 13937
4068 51907
6389 50111
20410 49652
12351 59851
4473 22293
6411 59093
45969 30000
19924 54575
66521 18157
53784 7255
15878 58673
14576 27258
57968 60970
2299 18081
45961 6986
39126 64762
4881 43906
36988 34747
26815 25145
24315 64571
67825 45890
18500 6044
63069 44235
42968 15015
29424 66282
37280 43199
646 16768
25767 38746
56043 58370
2781 5048
42259 32926
60558 13027
8780 38882
40717 32472
17042 26133
29399 48938
30336 49425
19857 24338
35012 44660
9418 30743
66944 52099
45103 12161
64236 54810
49169 10157
34312 7821
52929 35630
35636 56977
10278 31953
63265 25732
43260 67629
54564 65776
1409 42287
50581 6168
22366 21902
26755 15950
22002 24122
33694 51492
31361 8998
28094 48037
56548 55554
65630 19540
64413 62852
38085 7648
9389 22715
1943 21505
59023 1852
12030 34894
53136 6028
34856 4233
44795 39673
34687 2920
36954 50555
49695 11039
26137 26307
59232 10376
15774 33370
51151 14939
29250 58186
29198 52504
59122 41809
3167 37881
5156 56037
13273 49955
26687 1546
52463 67030
46291 28108
49157 66361
16170 62553
7151 20158
52311 25672
68016 30137
14566 56616
54406 21266
54777 26059
50781 38394
37374 47690
3004 41533
29934 23852
25614 58995
9961 10049
21955 54939
62061 57676
65384 879
62466 10070
67893 46696
49236 9835
5833 67203
24366 32721
38158 43233
53072 30404
65792 29044
39102 17625
51690 52837
20016 26529
12217 53346
1566 17670
9150 29905
8000 68199
16591 59019
7318 49545
62314 17767
12963 64744
43685 7836
49687 35282
25938 33439
5945 19554
40383 21606
52230 54087
24719 28437
43784 42903
7268 62628
63245 6345
4984 14674
59278 47599
31702 1315
39346 35455
4862 51590
39929 23897
753 1960
10271 27129
68097 29630
8877 35727
53469 30599
52417 32552
40078 19129
45035 1370
37563 1788
55867 33220
66267 64770
8180 21293
7825 21719
5865 53896
38647 63795
46636 15943
19504 11132
55403 46279
64058 55178
64532 50865
31054 28327
65266 13457
35675 27809
38066 56068
52520 59125
17785 44895
48567 8534
38109 46604
25010 41564
2192 37362
56614 63664
8251 60382
46311 15507
28920 51174
68772 46296
63787 41686
24359 43272
42577 58695
30166 46394
67517 13653
20260 46424
43300 60329
4331 40528
8567 40403
57909 35696
5986 23799
9613 39489
339 50545
33965 39214
11168 58826
25396 114
42432 60786
62833 47560
5980 43471
27265 50741
62787 47635
15864 27739
32545 65423
58460 38749
23030 56100
39120 18770
31867 26505
63885 21011
54066 66023
67706 45767
49804 53714
2929 33907
19840 16657
49293 39264
46987 11977
58728 7864
54663 37429
39314 15901
15242 21371
62490 20492
17237 50122
19609 59608
53967 31369
64220 5502
27638 14517
61878 48520
3155 2869
44895 33414
41174 5432
3879 37790
55244 28763
2194 24726
48710 51919
13431 64185
47295 53876
65592 63212
9836 43598
45435 56930
47005 51261
50660 40240
1062 16102
38361 24162
24425 44366
65644 3571
23569 37332
48991 23801
31743 51635
33711 38380
47919 22888
31204 3974
1520 14478
13528 68024
54735 51209
67340 22125
963 33829
53617 16969
10178 9449
62483 3599
16673 14181
52113 53940
2817 38515
19917 52510
11194 31340
17359 57383
7088 14531
47592 4795
57093 19143
43276 28602
16071 47387
51738 6302
5736 5057
18800 59288
55436 44033
67606 40063
60285 1401
58357 14072
67040 66676
29316 40605
50517 23019
47561 53544
63371 13807
2784 18922
45681 65488
36932 55921
64083 51018
30760 52938
56579 66945
11397 43538
25718 30642
2154 62763
64988 32938
32544 63149
61363 16887
944 8330
25279 15200
50741 46440
30576 6471
67580 977
63809 56673
29349 18766
9440 56152
8626 24327
37783 53439
53036 35102
22637 15643
45230 57948
8544 35977
16497 46190
13193 60955
26574 24423
3586 7399
23753 39813
54012 19125
50657 23431
37379 34254
56131 1457
24785 37612
26478 40395
66473 37231
34210 29411
53837 16454
5276 48804
19587 33167
58805 66056
20559 49525
4766 45908
60108 14273
58013 16408
55453 8
29925 23268
11995 47076
68563 54321
15216 22618
27197 41061
56098 6107
4939 18071
25176 38063
42698 5414
38683 61946
56830 11187
44979 22474
64402 20798
30183 56795
14815 3113
11510 54601
11869 21679
1715 68472
604 34977
5082 42986
47342 64117
39583 53036
64439 21076
60349 48489
1349 51651
33160 16064
14863 33782
58808 66819
55607 8911
17082 67165
40576 20882
53166 65041
27333 38409
66810 6514
66621 8567
56694 32443
60156 65893
51267 67097
13220 68786
60786 26442
56914 48845
632 38984
10985 20860
50005 37839
47568 25717
17823 29718
51602 57063
30832 35184
50905 48212
5138 10338
16965 49747
52990 56997
27399 65677
60147 1086
47733 21609
54459 30501
47540 27247
32265 23472
40297 35262
23362 49963
49996 59231
49450 47429
58046 13220
48470 1618
50975 5486
67240 61841
44321 21250
64056 15373
63761 23322
37795 43308
60942 23064
16886 16671
64712 63774
11637 3676
18732 57980
17295 41470
12972 6041
62497 19955
10594 38764
65781 48238
35829 51849
56905 59541
54695 38967
47260 21640
27093 29736
27818 2748
259 63905
47016 5662
62044 29941
62355 43752
10598 18791
14980 48205
38409 1715
11269 49529
35846 51047
51121 6227
66678 42876
10459 16625
31548 61814
21562 16854
28764 41565
68582 24741
7202 5203
45673 60450
54718 53049
28179 68770
34065 66750
20578 48031
12623 39551
8708 26039
58862 59163
43043 3914
42425 19795
7259 30792
3419 37814
59647 39086
23198 61421
4744 66243
3406 68809
42713 8736
65154 39816
50753 52094
52719 13203
52607 62570
26549 17295
37437 59189
40471 25321
39953 28489
57465 54221
35206 50275
4934 13636
31398 42786
19152 35236
22233 64897
2739 39481
7768 27005
55512 35674
39577 913
3580 2274
2058 54101
14155 35208
58544 7817
28133 66576
1522 23717
57293 12593
49993 5306
26919 29976
959 5321
28866 62598
4319 4476
20514 14871
47007 23197
38601 59408
45319 61157
1465 21771
16917 50897
12436 53092
35620 3330
26148 42906
35017 3625
48586 26611
60894 4681
20436 38970
12285 20808
7058 3997
26940 34114
39331 40150
12944 8179
44470 12929
34712 14085
36015 19520
14927 62864
58461 4270
2215 13135
22108 45923
18606 18977
17226 12751
26486 14258
40695 21370
13449 65328
39090 14295
18671 21389
59813 22343
61433 51845
18441 4818
31452 39500
61221 49844
50307 67319
9891 13514
60657 54493
28045 32350
53622 8240
60126 60303
31844 23141
41726 35872
10772 62322
16838 38773
33860 12813
26286 14178
36441 55280
53544 9787
24988 61950
8402 38061
12849 58312
31704 16061
9836 33315
20942 818
26006 40679
67417 14828
32189 56726
40832 48224
13089 17469
45760 34138
32917 68454
35742 47780
15939 55368
14654 37791
1270 17151
4824 43707
28863 66765
39733 15917
27325 52622
60846 54015
20366 68576
43389 25886
62964 60646
24845 46684
15003 6577
43135 54636
49308 51362
16325 18024
14570 18380
31581 31018
18662 24615
65143 50616
49541 11429
34673 4887
64587 3868
49582 42805
4780 58920
33435 25573
38844 26141
3747 42933
28727 43666
28845 62603
28604 52860
44359 63119
13741 26067
12720 2409
28021 6267
45530 37499
14287 33910
11324 42754
11246 65088
37945 56987
35779 35317
59762 61911
20938 31497
57490 18558
11371 51858
2481 25214
45032 35232
63369 39079
53780 6042
29421 14842
19688 52016
22611 63466
8789 16467
58899 5833
53852 10281
53750 53423
55878 708
28632 1300
13917 5571
32026 2190
51068 57278
54037 61339
24603 55885
51925 63652
11984 29875
58067 28426
9489 31306
52380 47346
37545 40099
11833 50887
65127 29479
23499 17523
23180 66203
44892 35382
43037 7590
27842 31940
54185 55103
48992 10364
1008 56855
57186 29602
46436 45960
36345 35210
64212 27829
13421 62267
44303 42721
23617 4187
27653 53506
21302 11741
22146 62684
8937 54992
25182 15632
64837 41083
6881 9441
41390 40224
27094 6463
23970 60900
23294 38114
7578 26966
13837 198
57548 62151
60232 2297
50030 60134
11565 14637
15270 43997
37865 13869
19471 56216
61990 47616
23604 14964
9994 31513
3048 41984
4693 51445
33737 1595
43582 64155
19311 4702
14113 50785
45637 46245
59097 49736
47084 22925
3596 66685
25531 36335
2619 28527
32950 45763
6483 29175
10528 22121
28172 52281
19995 56004
31029 12108
24911 44973
8695 52581
37001 8171
55436 26120
2911 7496
68447 17908
56299 45373
56057 26657
51030 42473
58940 582
7081 2212
7271 876
51041 59523
59928 37806
16037 21891
58098 45047
25218 16003
56065 25837
59284 50134
53059 61020
29154 6698
61998 9838
39409 44417
35769 46457
38321 37411
64836 1823
40184 54392
39788 7490
31717 34306
41506 50478
66984 10384
25429 37343
60684 23034
2779 29822
46510 28791
56276 13191
55844 51045
68776 34930
31715 58860
17027 35510
18103 8138
63287 39492
30270 29474
33022 12708
52879 9358
1112 50934
35857 18669
1519 22548
47431 39206
32165 46320
2727 56550
60632 19361
55952 46780
28454 29334
2949 29424
41225 31525
49476 60398
61991 2174
54014 33149
66480 39600
31159 13456
67713 24368
48687 21707
47883 20515
47810 12850
36942 31456
7252 28767
66854 27823
20374 51165
5222 23601
61796 11090
66310 42096
43064 63942
3695 13250
9104 63008
59662 38147
59426 24001
24609 7563
54862 42147
51429 28345
14206 12983
54524 21892
20414 6173
1069 12336
144 7049
11274 18294
1413 25900
35980 66625
30562 45969
12599 2220
57290 10202
4701 1283
57884 46403
28103 7433
53964 68264
58834 57064
50799 14802
58809 44231
21670 56494
13621 5052
3854 47018
32040 42669
11124 59691
46286 6936
52808 17127
51950 12987
54580 8945
34963 32600
49101 3451
64141 35526
35514 62099
39838 39957
51337 4907
61201 7871
34798 19529
57427 23783
4274 67743
15212 1618
4479 11331
58842 3091
33903 33719
4806 51710
52877 24795
15710 60621
28810 62515
3270 26191
50932 19156
31057 58471
41341 16920
20502 37991
22213 6585
29983 36333
2026 60347
12018 50090
4394 23705
18008 57752
16238 57736
22349 64249
45061 65569
59151 20626
55612 59264
7274 9191
16212 10815
58945 61984
31695 22056
68112 52738
65430 51737
41350 63940
12557 17338
25943 35827
63215 6668
52863 2819
55880 6112
59475 26975
13475 47458
1486 13260
47420 21729
31262 30267
42238 874
3611 44261
28768 42829
34497 28648
20494 17575
50278 34697
50712 20089
49391 35897
33975 22532
66124 27875
13279 29292
8621 12773
25227 439
33162 34223
16562 12725
5053 52617
34373 20832
30044 61426
19913 32650
21248 5863
64241 12920
4234 38520
62743 42954
8410 39895
63316 32644
30111 44442
46009 985
13901 56011
7598 51935
34870 8046
23001 19318
15416 45810
64011 17340
59243 3118
5036 31094
7147 3103
9538 21542
19920 26467
25423 39508
54841 20827
43890 22667
60157 34176
56534 50895
19510 47646
47701 32383
25834 48181
58481 62615
11240 39058
25231 33789
53382 3851
63827 53426
37232 18042
64471 27549
27788 56687
40111 29719
23410 34983
23396 42903
16566 30020
34325 56683
23945 46451
6045 23748
17111 25826
22874 12397
59768 13075
36421 66558
45151 44422
37751 14472
35463 62010
10925 51598
50102 48323
23181 34613
8827 46485
56228 19149
30214 57564
49650 23858
28561 494
66595 40386
32240 51086
2540 52568
20838 44519
7620 44900
24483 37913
66812 46343
37785 26971
38625 39486
21698 55923
48437 44596
4212 4834
27563 38959
65136 67871
5359 17109
11536 41208
58609 20454
66017 65124
65339 43742
10724 39493
20795 55054
49251 59997
43895 63640
35032 16348
34252 39212
50764 11809
2398 31929
41625 9498
50613 52135
1884 56320
8288 16881
59224 40245
8010 11308
24326 24309
26699 1682
37425 48886
50377 34878
65578 66383
7796 8218
21818 28628
35550 45440
37246 44425
29707 2142
52416 64750
21232 6710
14364 38865
55141 28426
55425 64831
14714 40512
25054 30617
23043 57136
30556 20526
16361 46968
28517 3353
36399 36438
53255 2852
22240 5856
22104 54671
52486 61244
54653 163
6608 6087
61668 38826
8102 50403
59010 31292
37772 44194
20375 62417
18439 4323
56 6282
17190 39775
21013 61389
31724 22221
54691 29278
61019 970
43248 55314
7368 11804
51281 60004
63350 11818
63599 30688
19563 516
38725 40049
29453 55097
64535 67736
55838 45125
14994 60848
30017 68717
31799 46502
3736 46465
50657 31512
18559 64969
48088 31471
54244 26549
15147 25022
34505 60107
111 3768
17655 37670
3767 5705
30320 22593
62709 7140
911 54205
52944 10169
51026 37562
42349 39277
44680 28109
42882 14177
29294 59567
30978 11343
25983 38842
2207 57368
44302 37571
53090 19675
65254 6714
19664 67724
2931 48885
48040 56926
56395 66386
54750 13994
39290 48574
17102 35501
59729 65863
60464 32392
42328 12299
39519 7493
8388 4278
22957 6240
43338 26883
1332 46877
49508 18039
35753 18483
6386 44486
68082 7510
60123 6569
14030 21210
5585 5557
5485 5270
65255 47753
15364 6646
4522 21184
39528 8843
48527 13385
17936 2329
15187 63917
7994 44671
55155 10607
45338 41562
60952 43939
43146 33843
44025 54527
51881 5556
32131 6650
33654 27639
50535 57578
61602 4050
26144 19705
13215 54043
22702 28945
21229 32085
39083 11969
34714 19707
42187 51790
19866 19419
38961 13616
29857 36394
49543 8524
45422 42129
63256 51292
10532 26925
48954 31121
55505 47710
51110 54234
37747 13380
45642 12797
57471 66232
8384 57501
39762 27839
43482 29134
16351 23223
45022 18520
2175 12310
49490 65633
15136 31673
61518 65699
46095 34845
33149 54488
51919 34499
41929 1753
25731 23869
12872 64918
48317 66817
36683 67749
51647 44367
43497 35188
63996 1073
35901 33455
43381 60348
32741 25607
45767 55922
67246 31286
46124 60918
34074 4587
19329 48252
17007 59253
20064 40959
58398 47235
66400 67339
53442 29851
16211 2448
34948 50117
41807 36261
67726 3315
16973 64303
63297 7952
46162 37625
37788 7159
55226 42427
60766 6732
25598 39716
46818 37499
7341 35758
55339 775
53659 6266
51537 64123
59228 11361
38273 18192
59617 9735
9414 60881
34259 11812
8740 33557
65592 57281
68820 59008
15748 27287
19247 10681
58797 56241
1545 26438
18335 67613
24416 55847
40297 33791
35427 9297
10963 67057
55228 56015
66911 2963
45246 48367
2880 59323
9142 31015
20992 2751
1421 28714
19963 37676
60243 65998
43975 39565
53812 58209
223 38745
17427 43904
24480 2909
14782 29365
61398 11537
21626 60487
37728 18201
4219 16315
13083 45413
68678 39149
12894 17582
64049 60008
58351 5145
15519 4976
36137 34014
3503 53549
51986 4006
10321 14989
61787 61467
38167 15352
21658 44420
11024 4680
17377 31745
41723 182
31102 35461
63671 20667
56306 43510
4130 19435
31158 142
16686 64508
13906 54362
3752 31140
11724 38104
5293 4661
9604 44186
5743 12858
44726 29573
55420 12904
59786 2034
35579 20079
20645 67675
50297 21500
24060 53979
68015 24425
67654 41438
51004 24092
38121 49366
26974 3244
5019 42043
28512 49697
14644 17949
58278 39953
5092 12252
39234 18043
23112 29667
46538 29609
8303 51424
62806 58506
49673 15084
27724 65237
11169 24956
56696 11757
18476 2523
11477 62040
15626 7330
44766 25768
42213 57400
55548 49456
22130 56732
2594 44806
25089 33077
67253 47965
36209 32258
2084 60484
48824 50946
12668 17285
26707 6519
14219 59693
34041 19469
12188 56690
34597 66426
64484 29746
33912 19443
61674 5733
34269 59377
60906 15513
30083 25468
11949 20142
32526 45982
2120 6100
29354 46400
3843 45549
36587 31380
9592 28898
65446 56283
40684 62036
43814 48538
36436 6830
66404 36082
32619 12966
62876 5867
1867 30205
33467 17673
29545 2016
35970 5196
30169 49979
65257 15994
26438 9608
65793 13732
5061 16578
67831 59664
39343 35919
12177 31992
34219 62172
21856 3925
45551 587
32096 52624
11314 33549
34799 133
8199 33995
4768 27582
23458 38587
68104 10479
42399 27114
28631 62359
27330 17326
64293 10357
30972 41403
32497 16549
21727 12223
16660 8144
34794 39942
53755 13511
37650 10318
11800 47642
5197 1645
6010 33151
56777 48029
21154 34691
34348 48908
68113 68362
7444 66987
20452 54420
24786 14193
7548 4714
724 48077
48782 64264
31356 11366
9477 26624
44745 27352
14844 65515
64472 34455
14472 14833
52779 52521
52001 4638
6056 16151
60425 30756
32566 66744
48053 25819
51696 22471
48319 50343
13186 17325
8641 27012
45131 39132
44082 40968
5230 52118
18061 6412
53596 39194
5739 10223
6887 50689
60293 34178
37764 10457
57255 64097
20330 55761
57699 25213
222 67814
15863 65448
2539 25468
40558 67794
33690 12071
27122 67112
58056 18687
67804 53969
53883 64754
66085 4012
23519 4509
57984 28970
29593 68771
49046 16239
52853 29162
37800 2347
3229 22150
26945 1500
44003 26269
62207 11856
54469 25557
2968 27500
16215 7222
60756 21544
40566 17718
1966 32118
33518 20903
64784 23524
21254 51079
52679 58115
59017 21161
2035 56328
63016 26026
40764 67199
15334 54486
37580 46656
46327 8223
17438 35233
56884 26027
49094 49271
66306 41515
42524 22655
40455 51502
33564 65402
48183 25380
30834 2582
41456 59456
5835 26604
57099 50228
17486 31028
53657 7990
53920 68199
19391 50299
1208 50177
2720 397
52530 14217
43011 14771
20466 61010
19746 54391
5527 828
38777 12814
17114 38029
8839 23630
10283 59877
36573 1163
36681 16765
2300 6960
57288 41142
59441 39301
14713 19459
36448 61214
5095 693
10100 24906
62775 5775
67541 39219
9471 36062
57481 65623
50125 38768
28601 144
8109 30570
11212 8844
56180 39145
13878 59653
13178 23405
43838 10944
45191 62817
8454 14490
30365 47257
5815 28777
7573 31166
669 7626
15319 35615
42176 13535
37239 23125
7120 53187
66385 18756
67137 60203
65778 23884
59340 55977
21737 56517
55619 2492
57645 45645
17217 5909
47039 50882
65570 58382
38761 56214
18788 20218
41690 60336
24784 16042
10925 18004
43043 57842
21983 29992
26453 43531
40018 6950
51695 56463
64615 35404
11389 43343
7580 28520
65891 66436
46846 4996
55043 46153
32888 25027
5117 35376
44560 33159
26991 12264
51604 58556
12000 45659
10618 33502
23329 60898
12693 34786
15572 68441
60164 39087
18409 10881
51593 15634
51082 65329
37707 36035
53445 1903
52850 46896
66579 51892
64670 2165
20680 60789
63630 63029
31763 9153
15844 58353
23922 9803
56084 27131
54583 30552
52823 29343
53628 1547
68685 41579
32294 45720
67797 67111
29523 20628
64296 34490
50195 4000
66282 50770
10171 33750
41214 7984
8511 59274
64545 58752
36888 24380
40949 24042
41766 25425
64135 45342
57919 49097
48183 68678
15041 44378
25876 11852
29445 16508
9301 59783
26257 61637
33722 30298
7183 59525
21537 18566
41258 67492
7826 50435
15866 32765
38686 50705
42563 46670
66931 21073
15184 802
4040 66704
33723 7684
50211 46891
42927 63476
18816 56239
16911 29801
50073 62155
54755 8633
19178 34766
5627 17897
53289 30767
49008 22072
61211 57121
14237 13178
68058 61131
17796 62679
40096 43523
59429 55910
15112 1275
10531 13936
52654 50335
56815 68760
29395 11003
63986 34460
39930 60810
51088 44513
59990 12092
103 21676
9515 46369
4971 21000
64198 16147
57600 27650
55528 11978
51958 5332
10921 19830
63479 20362
55514 20012
10632 49110
58621 6884
41860 10773
10378 21401
1119 32081
5416 32976
47550 24079
51950 65681
59947 36339
9052 44721
19197 57975
42513 850
6679 13594
28347 37154
14713 25769
39739 60767
19698 56955
58911 68383
21129 18115
25816 31954
35349 48745
57213 51021
23499 51836
60340 65336
37423 10276
37354 53865
66597 6774
31180 16044
18044 5711
58093 8072
31016 5753
13000 23294
16289 67099
43972 45546
4028 34917
61099 20354
36144 34676
64397 27146
21433 13984
64833 47950
38546 53479
59099 1705
58218 336
52776 17643
61856 39409
63559 58047
58236 29219
59570 7463
40084 24437
34517 20611
40817 21921
33518 66876
61600 23894
6720 8964
12635 2185
7620 53531
19031 47970
58157 53678
26600 56440
21192 38350
20046 43493
51555 46994
43878 51939
18767 46652
39490 16543
43292 28522
37993 35208
28041 7725
61695 58180
24521 39937
35438 48724
30558 25087
3443 55965
23458 26449
27376 21141
7247 20705
48621 35348
22587 11735
31807 34127
67138 68184
59575 26462
1293 2221
24475 28556
53768 11373
64163 43565
62645 61336
8263 51090
35637 49723
7037 64429
43632 59000
16662 39786
1411 54304
24843 33610
61026 52083
11027 68309
60370 35823
57578 26274
17017 30077
38181 49474
61561 16331
37254 63740
40626 41041
51400 32332
16616 58332
62203 24409
3917 15694
4070 2538
44958 31689
24728 39393
38855 2544
56370 64991
60470 1069
60838 42211
26919 11232
54159 23693
46965 11119
32996 64551
237 41806
40037 8791
31407 66121
32649 53644
29557 221
47828 63478
14075 7957
59812 18247
19872 68409
54265 19503
47619 23732
30579 25102
55781 62943
27263 47724
10902 40518
63902 40811
66762 6959
56825 22981
61167 49775
52999 24640
23335 4287
18224 57805
8558 44594
65034 17989
5817 59506
1783 67072
3223 28976
17229 45284
15016 36625
67702 39002
33364 7213
32409 54847
41805 33152
18168 47599
27681 14344
9730 36472
22971 49784
44340 48677
1090 16439
3290 38594
64758 36983
13041 60677
45026 67336
59012 19481
60127 29503
56692 38352
27338 14470
41873 10767
34725 66567
13784 32570
9496 6948
29469 13495
66861 52836
8179 1521
16763 55170
66793 63701
10231 61382
35744 236
59582 59509
18896 17475
4604 27123
13956 57126
16558 57544
14301 61793
458 32209
41909 8455
63629 52011
11160 57274
32833 57102
28924 25764
23427 15349
8939 61247
54908 1235
48096 35023
43612 58098
9326 11286
34566 28667
7908 38591
62992 7389
26290 59416
17778 1561
16618 1525
54332 47499
41464 23448
27763 3604
25163 30050
8165 12799
45645 30092
46206 18888
5425 52252
19365 62434
570 22405
43993 2033
18040 13573
63527 62425
38815 57823
61569 23481
63672 29731
41220 35537
47112 31192
20263 57313
53493 55510
60188 61931
460 2108
9216 4062
53538 56828
30349 66670
50562 32254
39673 40697
64328 68376
30214 6854
41717 8460
34199 8056
16595 38823
53017 27031
54676 61515
68416 40341
55498 38554
30105 14220
28539 58406
9066 3646
57691 58810
15210 15206
17500 28197
44109 55346
39974 47273
27514 3614
38081 60092
66615 15152
22430 12339
42178 56861
43186 60804
4403 39882
48129 50867
30715 66180
59984 48894
14289 54945
44831 48264
36590 518
52890 29964
28711 55005
55420 42849
65067 32128
33237 27789
22795 9708
52343 36699
47958 15644
14846 67529
67867 22758
15705 51098
26651 67215
53782 14568
2874 32024
25912 336
36946 25367
18997 54864
31085 133
19964 60326
57287 20681
31739 9114
35765 40245
53877 62225
52386 1407
4141 67659
15742 21534
31777 68545
27611 47486
6363 66117
25991 15165
51456 62165
37706 67684
3472 50994
26181 21442
1863 10161
31248 13938
56719 14959
61554 3260
58456 67763
52219 61957
8121 68156
57375 46000
7653 62599
30345 8241
1197 68625
65907 7489
24047 28763
26936 302
29332 59190
21688 26979
66600 49516
67006 41353
14881 1093
30779 9090
42210 4008
27943 24411
39466 17853
68262 21938
3869 47204
536 33716
59317 33776
44297 40577
16652 22644
21496 38905
3481 11563
18570 62951
53423 41867
62905 44226
41234 55230
30825 10495
54042 38941
16917 48823
38753 68802
3272 55905
1316 23179
12843 61680
29807 41225
11671 30643
54905 55433
43833 10372
21739 65107
5160 59264
14106 26016
49378 3978
64820 61455
53690 60853
65243 8615
14841 63132
61454 4982
27493 799
66657 54977
38610 13916
67046 25486
50520 47895
43414 7538
55014 49723
16305 904
9097 40100
53126 52911
57166 30686
45239 44537
35290 4062
48730 49507
55673 18591
49138 59312
56637 65237
59020 59370
30542 50358
22358 41722
9132 36256
54314 23671
12688 49159
26993 48601
53593 9650
64339 9246
3762 19157
68233 58874
67624 6418
25480 23368
39539 45796
48633 43825
6205 40314
57846 8056
36114 36661
18259 29503
19877 30926
48385 38688
64626 17813
3236 36633
51727 8940
61021 17238
47838 34279
40501 123
59196 27849
9283 23597
60728 50642
12545 55322
2339 53732
51535 30767
61827 62417
25286 8697
21896 66336
36200 10197
43857 28151
24597 48797
28941 47075
9317 56838
68104 2397
43468 36428
42104 52212
22276 831
17470 63356
27122 43668
58625 25842
21896 25867
54579 20858
16640 10173
19580 51387
38021 52628
22402 49178
27644 26878
23893 52656
52227 55149
56586 46328
2811 12993
1312 61528
49525 46968
68581 54237
16861 3829
45800 61915
58860 15183
6809 29060
14938 14842
46189 40436
4516 6309
22964 46675
14795 53886
25640 10466
44147 32101
12834 18339
41930 27360
23595 22140
10001 10291
39071 1801
8854 27453
51256 837
60252 51665
60844 6300
9685 61272
6211 41935
54342 40347
11836 51948
25023 51200
52258 63721
42169 33469
36206 6713
57050 43436
32233 13992
13402 1111
44271 61488
22472 58467
11700 63334
46944 61192
6642 36004
46426 38685
7694 58205
52465 53175
66092 56407
60859 10468
68260 34544
43661 61243
26678 51693
67632 27377
47028 1332
10477 54956
57889 13277
26757 22567
61253 44378
15583 3479
28305 31496
23340 49944
66120 8866
28665 67243
41851 26213
47775 24333
4648 58459
16096 36833
40417 4829
41714 21519
54605 8158
21941 34183
35334 43421
13590 51586
48228 54487
27524 21151
3938 38656
7615 54935
54212 33634
26836 12180
13608 9584
11868 9996
67522 35796
47223 50805
65232 39061
15867 2175
23330 26284
27334 67292
2725 15470
55073 29213
31899 7617
2242 2362
25045 25305
48605 46185
24078 4114
53974 59845
43259 2744
29136 10172
36450 4792
26335 65207
55510 58891
20871 18144
3518 64582
30234 15316
16043 5114
6538 66099
38448 1094
17165 61042
47306 40750
18389 690
67450 27910
11948 16273
2580 8539
15771 50672
42336 62846
21979 4988
17878 28979
56891 43125
13404 16220
48357 16328
52022 18035
40043 44485
22121 38748
26417 46076
61689 29390
58533 64937
10217 30665
24129 9293
7144 45933
5270 16353
56486 25108
14878 5862
32811 39913
67083 31595
67202 42542
10672 35071
43619 37949
49730 42423
6960 45686
17946 29033
26841 64854
34540 4190
63174 18587
10869 18192
48953 59800
10823 57786
11948 62281
21907 22380
20444 16159
6536 62683
24475 11174
10917 8596
50499 14272
36116 60283
7231 54744
34238 51927
28999 37060
8473 32070
3323 2535
58800 41712
41410 21656
43910 31548
58379 29430
52835 55492
43287 32913
56895 28602
66104 53266
35057 53611
67041 36403
34302 39349
1955 54638
6883 26828
15946 40668
38054 13265
43395 34686
63532 37035
16462 20628
29198 14354
3611 17722
68345 27442
30215 30025
38749 2133
63599 60225
14969 2633
33081 46112
48931 41951
17143 32882
43006 68581
65153 15933
58381 3913
36500 17107
1000 24027
45581 5182
57621 12197
1403 31519
26386 55600
60912 38245
16631 57864
36133 10823
43190 14655
5216 2779
6141 1391
44016 30428
66446 4150
30088 42646
22314 55302
5714 25824
31178 36547
8682 3968
25739 62543
34623 66972
45831 17581
28251 37119
9105 47457
37446 35612
4189 65792
14505 51952
29111 37061
42034 37535
65200 27190
56107 63884
12362 6329
6100 27573
21497 17072
62258 13214
43197 1385
42860 33301
46177 43740
15719 54286
41829 49132
37071 62658
42831 2266
13330 43039
20459 56006
62014 34257
41911 60772
29395 17368
31205 7509
44051 4639
19836 20155
56077 16944
60938 27203
62529 26432
32607 26340
63903 58966
18113 54180
61890 36599
33878 23741
33546 59778
67630 51234
67742 64064
40889 32659
38902 61969
49503 36181
17699 61047
62779 67208
53415 4190
62958 6804
68429 53995
17329 5194
20726 47131
38530 60904
67810 59899
64841 26421
64274 35315
23439 18164
18048 43646
21523 47732
60552 40031
59210 41099
20178 56092
35798 32072
42491 59868
29967 64983
43955 33592
65328 64085
21730 64437
67816 59419
46797 19403
56534 67994
42065 32450
76 29004
64535 20696
61151 21667
8514 36167
30440 19623
40812 68556
35839 46849
24566 4442
10883 32730
43474 34599
18956 43447
23169 67995
62946 42481
2576 24854
59716 33663
13260 10433
59052 35486
27496 58788
18879 17769
13607 63073
52753 1094
49244 40582
29674 23385
38020 65173
7595 67992
14098 31328
17437 52566
32946 64650
47151 40328
8131 5107
34559 39902
38760 40927
22680 21664
7503 39743
17470 10895
56174 67735
60940 52103
54307 52159
47427 35829
17803 24883
16551 61554
17416 58193
49421 39388
32218 55959
38399 38151
33116 21458
47598 60046
65530 33851
24352 66900
68732 55821
40773 40914
64716 68277
3979 54511
4968 32834
17622 31359
34020 48916
57220 45466
51949 52803
25403 6816
18337 39307
16997 8305
404 17446
17051 60562
47066 40193
46103 8771
58820 65864
33548 10788
1285 37320
34657 9062
59188 46225
46937 43970
18293 27062
16932 40047
35958 43114
41662 13777
55537 14736
57442 576
38073 34097
29948 35356
23449 58619
63678 62993
1671 58432
57800 2857
11077 46613
1004 54054
12134 30263
4899 2147
1554 44753
20600 54997
9632 34446
47747 34735
40110 28185
29860 45377
42106 65816
47718 39858
19302 53722
35344 3605
27340 52439
34727 24129
3591 18753
58913 1728
26628 65762
19646 52910
21711 62285
14768 14252
17174 35800
33435 26932
6297 33650
37871 17255
65709 28716
68586 46712
34785 14326
18324 30060
41352 49730
60504 17714
19718 8540
65023 53540
43785 21928
34884 65114
4630 11914
33670 32539
66462 29457
34157 33392
19743 49440
8651 26196
26771 62644
40380 46025
15176 28189
18620 61850
20245 32506
60816 15806
34526 20670
42703 52892
39143 42319
51116 30973
7771 29140
39867 34941
50502 37756
53089 44626
11430 39599
60859 19532
50304 26149
28925 46263
13056 26616
55361 4916
15879 11341
32950 19141
51177 47751
56698 11574
24743 64926
52947 58597
30043 46285
25224 37360
32482 20879
23586 54807
44190 51630
50885 66361
59133 4920
11235 16106
51651 62942
20810 65487
55187 57983
41224 61161
66193 10853
7430 11680
16536 5519
12439 29392
65174 12949
52076 57200
36521 51745
37715 37014
2146 51573
15502 44601
41205 64719
29719 48648
7554 29181
17375 18525
47929 2868
7652 43887
50472 47681
1886 36572
42164 68069
42736 61520
13402 15401
45380 62692
64295 16371
38543 52716
60397 58134
14287 19271
23003 31254
34832 36357
39357 7745
28054 41339
43522 45466
14157 12455
45844 56172
171 16842
33118 42037
53069 34502
60990 56369
15972 25543
43162 3895
9037 43311
58154 4298
51009 19004
57069 11646
47763 58143
65524 65470
1013 30082
63760 32364
23139 57967
5432 48879
14586 16699
41767 2549
61632 23688
16174 37725
62502 6506
14651 27052
19244 27714
64639 45142
17297 33775
35295 2836
17076 15772
1777 47701
942 29980
18551 33064
53691 58932
31188 24788
56657 6566
21277 5960
47841 2156
36858 54753
59629 18171
33598 68488
59138 14061
60202 23361
15637 34257
40627 18570
35508 29639
43538 21445
46048 8973
53107 21204
17564 19679
40393 11862
55783 40215
1725 58420
14647 21467
1756 9815
31345 2492
41172 13959
25673 9569
59149 18243
24186 59112
51376 4791
45803 65894
59778 44920
23113 14228
40622 30544
19150 6944
33849 17543
23658 67493
52764 68714
19991 6272
43639 67815
57875 34952
47451 48941
12002 43087
64922 24847
54264 23102
56494 5460
38307 40232
16387 7834
15985 40254
41405 42485
38980 11734
67900 42310
54340 54496
32822 20412
56630 11753
67338 61957
18621 3713
26278 44753
29624 64004
18533 21327
18156 38378
29145 43909
12640 31506
46404 63070
4881 53607
66082 50097
48516 45727
1488 30619
55557 60584
60780 64738
47091 55276
4052 63082
19008 21421
2730 563
25660 5010
9776 59135
59158 58047
18120 56119
30523 21212
9844 21150
8201 14205
6614 54022
53345 41680
48567 53630
24501 1787
20551 24572
60312 1713
17251 43194
43379 42619
3796 48510
68559 59524
27470 33806
9304 39082
32581 65081
66283 49117
2374 61829
6354 55315
68493 46520
30012 16361
25293 59435
7132 68291
4983 60215
61781 37714
31433 25625
19083 322
33932 47189
49600 45433
33581 52683
15722 64480
54238 35232
51293 46250
28781 66758
2817 42586
32744 36408
7402 30095
23868 6878
15005 34529
48063 51240
32170 1137
49052 31055
2909 4389
61631 55869
60349 36175
3815 26594
10008 56279
895 14414
30097 58780
23820 42606
24046 15043
66991 64608
65226 18072
53368 4711
22722 41663
1893 18132
31539 31378
6494 32688
58806 50564
13980 60925
9369 29942
55239 39688
579 42887
48624 20040
49740 8429
67876 67474
68075 8187
56370 26846
46149 33815
45695 21253
37089 17209
30764 49301
32332 44085
11793 17907
36999 50222
62821 6776
25856 51274
29695 62911
8162 43107
59463 2613
16957 22041
66583 47453
31533 10912
60502 50237
21775 66419
58690 32063
51796 27509
6684 7708
51999 44788
62764 3688
34362 14035
1029 60899
43176 57249
36836 22778
34965 31927
60119 4724
47494 30590
47524 53852
5297 64718
47669 19364
64599 68262
47853 49642
16300 56171
29877 61205
57798 8838
65623 38952
20444 67954
36179 66604
49289 54881
20120 53830
65424 16611
13401 3083
6308 47858
32134 39815
54091 45275
19845 44910
61285 47255
5931 45090
2359 6586
63081 59515
55872 19960
57886 57031
8145 45956
35737 40391
62687 43449
49710 17924
61348 204
7836 23467
57763 12575
8987 30760
27779 8914
38516 6588
24473 36180
67422 68663
48529 63463
56338 11959
19729 18648
43450 62151
31383 64428
55824 67131
64418 23980
55318 16167
20024 54478
56839 58498
21157 24564
6980 5206
11394 31601
11443 54555
30195 24193
44777 23900
60802 21291
41455 53192
25229 39645
41050 17169
62142 26235
2365 26167
30668 40988
15828 43309
56157 4324
26508 9192
45505 423
23997 39257
50193 53915
60123 9255
9433 30582
10065 40542
61434 55523
45184 5340
59618 53122
12244 64656
6628 14681
33529 709
1470 51800
42401 33438
27790 43129
12733 43467
7481 62117
34154 9151
9827 17084
36280 58380
47115 46344
8861 27098
32954 26678
47014 20343
20202 7370
40231 6500
56573 4556
19246 59910
10838 17335
8387 19813
29520 58439
37117 49303
57985 9940
35578 45741
44080 17579
32104 21062
8066 13421
5593 16682
19905 37428
2475 50616
11503 26649
21793 64000
45515 16981
11113 13460
6549 33701
23501 39163
33486 7130
10953 52523
43000 43816
14966 68252
57011 39224
3479 11618
43947 49042
15351 46386
16626 12004
24091 3961
31106 33755
61271 2408
56374 35127
3526 1057
47193 67103
27410 51091
61878 63319
65076 64439
50690 44797
60357 19407
29018 45351
41843 40390
30362 21301
61504 40762
68764 43537
45308 27828
10985 43629
22541 4357
63379 16299
52416 61380
51879 57430
55236 16322
2448 41921
28482 61996
18895 61603
34809 48565
33366 58061
8803 23094
23707 5063
46582 65014
54031 35994
14731 53535
13929 8611
57379 59880
28699 59238
50609 2872
48871 14120
68550 24056
26082 10014
51819 33409
1337 43426
49349 10907
57934 28400
66217 31778
29692 28439
30578 30118
68796 65595
49812 7809
25086 7670
10135 16490
5753 47761
64683 46441
24289 36657
53418 14255
33703 24708
4073 50702
14040 5305
59923 22649
35505 63544
61932 4468
64980 62859
18625 18445
23157 63937
38329 61274
28341 29606
53872 31398
4441 26596
31855 50482
45456 60297
39924 66212
35186 13955
50101 57938
15299 54971
67610 914
6965 47616
27076 63642
14694 16771
67014 42893
39879 41446
19876 23830
10691 33976
45149 36539
63492 7940
47416 54426
46774 57676
65251 4397
4997 10431
52718 28728
32383 16544
18447 22404
45695 8258
11599 59401
14455 19582
38674 52169
3582 35099
48541 28172
26832 54667
37889 31101
22315 25818
63723 54542
31723 57495
16190 18412
55625 57063
50847 52780
67640 40205
67498 20178
29786 37845
24259 17187
2433 2137
52273 51920
44373 67458
59283 8431
8899 11370
62903 2480
30124 53189
43587 28319
47121 30812
26787 51987
24537 46421
7525 51461
52413 25233
67525 55324
67932 49060
36097 35175
38853 62797
16461 66724
30772 13879
41606 31965
44997 12155
8662 37516
36168 29363
29341 21327
11708 21040
52117 23810
5007 37056
5417 46259
40599 68757
13304 65481
44821 40761
15628 19865
57572 21996
16559 45886
47725 47422
66416 32202
56684 44214
33155 42077
14374 6052
23061 47456
67246 40621
38959 68523
45867 18179
9021 54080
10056 24626
17205 41319
30382 13254
59366 8004
13915 46687
27446 46938
23402 64900
23095 35204
30086 37577
28367 57895
9121 2105
1419 15680
37122 35825
60246 7514
7511 8075
54319 64088
10489 22354
21599 49136
66396 38333
53485 52837
44239 66195
25424 34026
17761 21954
62085 48527
19718 44459
29390 46242
22400 40124
13882 54211
50465 15208
40038 64157
21286 31732
59463 30047
19948 26096
7030 28120
33329 55574
22076 14242
63478 68406
31910 14195
14373 191
34899 49557
47431 52799
68783 48267
9890 26904
63588 29669
28353 59136
41860 65912
3170 54800
50480 10390
25518 32689
19242 32522
15441 65546
37319 67836
11279 23577
49664 45709
29334 50781
61680 31887
50432 52622
65728 62954
24227 4539
29894 55702
28524 30098
11678 2907
50110 41323
53988 2855
40912 19634
43695 49999
12823 16973
46742 66245
54991 4639
3359 23085
31046 27962
31966 6464
16484 37950
65467 1846
5654 53919
67370 52630
5695 46342
5001 40579
43086 46038
53402 62987
28211 7846
786 28419
54611 43709
51764 36477
65131 44721
21805 64993
54949 15355
7826 50255
66428 6251
62113 50105
56426 12241
651 17846
30965 34595
50684 42344
66185 50549
42470 13582
8370 19024
35608 63618
39655 21673
45698 7961
26126 48048
24862 52178
42932 47736
24355 58470
26841 67384
29618 17453
61241 13920
25836 4962
41055 46086
30357 66630
28617 13350
64423 33136
63010 24545
66931 67082
15758 44935
39706 1042
28339 19868
36991 56137
15365 46145
46442 3731
5378 5620
7280 32127
48410 27318
52691 15704
23208 67080
29853 20747
56459 57145
37583 22455
16045 9060
13462 22174
31105 13189
58948 56257
15333 18464
34340 33541
14821 14088
54444 57222
25047 26780
8748 34685
44541 35988
34347 45107
31630 23255
26291 60392
9919 8171
7897 44446
13065 67299
22513 31874
49561 52920
6355 43687
28839 7405
34564 57874
17611 30701
21371 62887
19085 67985
38459 36778
20273 53775
49671 8484
29845 5199
23556 24184
64178 27281
31220 22719
16768 18924
6374 20307
48797 63693
20252 53653
23544 40446
27401 51161
43525 17219
36314 40337
53511 12832
23103 1456
13631 55833
45717 18935
48676 61
21559 7260
14504 35009
3152 51266
27089 26180
55190 51590
51525 2539
51599 65183
40449 33659
33265 62507
25520 30987
48995 14682
11232 66947
7369 47871
39232 10133
13415 58267
67889 48599
20714 20785
47782 19466
9360 34133
60061 40732
3468 6643
54333 26159
46178 1592
20718 62917
1796 2782
54145 67214
42274 54038
23838 27172
18358 51505
45437 60317
5068 16345
16815 61344
67609 42822
17597 15752
4418 41989
54172 37418
29924 17913
47929 47883
12077 47438
19068 41685
59294 10325
41749 16854
42519 27216
6199 6692
29116 29802
48261 23196
14319 1619
3530 62323
34503 3308
50868 45814
29548 16867
8628 20845
4156 45921
45417 39937
30425 44340
23210 62153
36275 30070
32628 65347
41565 8958
26669 51054
17274 18841
16383 34489
19503 9734
33214 54481
31752 48843
46484 17258
39947 52317
60796 58087
30503 36912
2104 3487
27024 11899
13993 11796
65722 59693
31135 59639
34246 65244
34407 59359
14745 2083
36468 25409
8428 26535
33850 61053
46405 52024
40429 53613
63935 40287
48761 4926
39495 55494
54777 42304
12141 65234
619 13467
46471 33237
19052 60943
42290 50764
52141 20975
52452 42970
63490 1146
14021 59461
63086 9928
25970 9655
12843 10096
21799 22971
1439 63748
503 54215
55870 29850
17540 66830
62241 43292
53329 21015
57939 16511
29349 55424
25134 2843
32234 24045
59800 9671
51975 21977
18581 17360
1419 39062
3965 488
56847 11998
35931 36996
10881 20716
65188 32817
46075 30026
64648 23885
52406 68536
23094 51708
438 16773
38671 55774
32677 7483
32182 50555
19668 31292
28354 8468
13181 21344
43079 60914
47955 30382
51963 4172
30300 25780
65137 27564
66123 5705
10079 39414
53838 63960
6457 15091
63919 31698
21559 4977
27245 55638
18539 63202
9909 43620
21200 8372
2490 8423
15790 7309
15194 11696
47978 49181
36157 12014
41300 4171
10422 16154
65766 28215
6271 27811
33860 25881
46349 10305
6693 61096
21282 18351
64649 30722
21879 55179
39659 24383
10009 24246
22800 65054
19669 63374
31901 29717
53241 25304
8046 11894
2798 14329
11155 32461
51879 31567
65538 25023
63833 34605
25145 13235
65807 52513
51170 55171
20480 9869
38206 17708
39616 50189
35922 30066
66933 47859
8491 36676
10922 12302
35337 53803
23091 23607
47249 16117
50456 23158
1178 4386
47383 39921
4865 68443
27289 27117
52633 57199
9325 23327
37439 11108
43046 18168
116 13956
41513 61531
27889 60011
47373 66878
7238 66270
268 46565
23243 58711
29136 7739
54252 8970
41713 30216
29635 6156
25122 27084
64604 35912
24995 41670
59362 59196
62335 22128
7655 3360
19217 20020
30458 66723
46729 19071
41248 45243
30082 23211
63130 61484
25864 47799
1106 11375
66150 7082
63384 13328
29692 13447
23055 36082
21442 21516
65017 15191
53000 51085
64004 53142
62053 61459
17889 27079
20336 40484
6801 27171
52755 56405
48317 44755
58305 46594
52662 57451
18166 6542
11219 47087
18089 30388
44775 27564
63621 52575
28707 17303
17080 68661
50285 41717
12430 67144
8647 61738
27776 41495
11777 28242
51878 24554
30839 9079
63071 50406
65923 20509
67794 9241
49975 32791
57207 23631
38895 9649
29913 50630
42684 54510
28522 20803
6315 1249
20057 30173
51255 19073
36993 31867
33083 48540
14700 40770
31962 66907
52326 42213
40373 13555
40856 38022
37574 7496
34696 38284
30607 40365
4169 64161
39912 67911
38894 8887
25416 61087
49807 11474
62012 62382
19107 68635
32090 49139
21462 14351
32109 8571
30763 45029
57328 8953
42725 27880
58921 42688
9167 43312
1344 5755
1508 20200
48895 63382
54097 47784
21988 6841
2310 18837
68734 35043
44256 49797
8462 2760
59265 23868
10257 327
3217 27994
56376 26735
21532 51557
7403 23940
61323 11744
37912 15267
52344 3105
29090 27688
66526 60322
30510 20455
68156 51889
60202 44912
16403 20981
19876 10574
32655 66447
49062 68393
28602 31234
59147 11189
57819 32415
16419 61448
50588 17480
18084 12249
54230 2464
11407 24396
65817 38225
5606 49376
16338 66592
11702 3614
7504 11559
50236 35630
33894 31732
45098 45238
35493 8155
49121 37210
44357 4525
42836 10651
34824 4076
53668 65737
5056 60448
47360 38297
63727 46332
42823 36034
36815 50752
29781 5950
27044 56034
61211 3420
43706 31964
3629 48631
42382 2555
6955 28053
7280 6165
42032 9355
42189 61963
51822 1705
12055 35623
60370 62270
49918 16792
9302 38208
25809 12369
25984 63904
39961 22309
32014 35151
34261 64146
23023 12932
22030 36671
45183 23909
38954 3096
55406 29025
64735 3337
32508 20084
5522 50741
20399 2431
24917 46563
41225 39177
35474 2932
27723 32752
57693 62701
61069 4878
32909 41012
55533 1014
26607 37927
40055 36937
53314 63116
24525 57838
45172 67130
5599 59027
58128 6475
20878 5620
66905 15312
17561 25220
1186 67110
31097 17457
59095 17582
14687 8906
8572 18222
51631 35037
14104 61078
37118 13790
8764 44930
2364 29485
7411 53243
66547 55200
7045 44813
9314 3471
382 5753
3736 59612
11846 32916
62943 45843
2 64798
46742 3256
39556 2206
66061 27887
67901 29862
59726 44932
61464 43034
25619 22767
50042 49465
14057 64957
5941 67083
9745 29137
29512 43562
67449 41017
68494 7163
63682 38507
2990 38267
62351 22483
32830 46834
25807 64687
36096 54900
62929 57354
3860 5305
2596 58917
28373 9924
9147 54189
57171 37910
12485 32197
25581 64890
47536 13123
6250 47539
49419 4771
44634 33930
13060 18243
39971 53283
1537 1020
1478 16169
50953 57705
19142 3120
25920 10358
21931 8452
48833 33118
46961 11031
59571 22301
36604 47099
39202 26328
47148 25698
61364 28030
48752 56630
48349 42915
68267 50720
25954 15848
27705 18720
52565 51698
7709 36788
39967 22526
39880 59309
68086 2407
53279 57340
18114 58377
34065 64861
42876 61696
19652 52919
22759 45358
14374 22817
2992 47871
44822 10634
41125 38116
56102 14831
38416 45581
57045 51289
38959 66170
41711 65550
64760 68410
59908 8484
56762 51244
26150 58811
14444 19608
38371 24436
11521 48345
2642 27051
63627 65866
49397 534
7269 47984
10979 57417
9979 52276
24481 58598
20053 59801
31039 17511
57282 35555
60437 8498
32126 34989
31586 13242
63148 29733
49648 38264
36505 65766
14481 43472
6996 21897
24975 46137
11978 30277
8744 38169
8901 42462
39980 30107
52349 46510
26059 15617
7918 41781
60273 6718
10795 67220
43072 62096
21328 2996
29738 21768
55626 53503
55157 56147
67025 38823
32567 63591
5554 23240
36037 52404
55037 8105
24005 17450
19132 34236
52939 33909
4817 28231
67203 31854
22069 62042
39649 21624
54415 18187
40034 26257
16990 34963
19872 42155
14725 15667
66913 7051
18476 42564
11226 8286
38134 66822
10882 390
38840 66990
58464 19955
66813 10750
50442 60321
64594 46943
9324 30977
19417 48435
7753 43017
55897 39626
57344 20226
29837 42834
44629 27029
14810 17074
24859 22812
1265 63637
59644 14310
45830 43612
19720 5900
17296 54453
29855 21257
49765 47851
628 17053
61162 6783
56899 52283
43906 38703
8799 24033
47083 2781
9795 31384
32628 67885
32449 59425
35099 23247
47699 9034
33421 22539
35398 40563
57581 14711
56102 9044
54030 44548
575 3433
26657 57855
11742 467
63300 56870
4320 30046
46033 46254
42219 5071
23184 52433
45836 23286
8698 65236
31042 12880
22337 68300
47259 19895
13171 8189
34906 28181
67360 22744
39090 47013
35834 38950
24890 40832
68234 10744
38182 25584
13113 55151
67144 22246
56330 31772
2690 33680
55695 47168
4303 13114
32574 30467
55831 13758
20226 44984
44089 67410
38713 67078
63055 43845
11690 45395
33852 3076
64996 25909
51836 9601
53128 7179
61966 26061
67874 4743
38452 35188
48433 24510
50229 50507
9201 15753
15435 67864
12765 57241
53494 54479
10711 59726
47025 12874
36001 58484
13228 42200
20902 34411
16218 58148
25663 37357
22374 5904
13333 3307
7854 32995
44811 66763
12024 16283
58580 5913
22654 19835
17948 67424
6728 63399
33238 5614
26147 4676
53456 36351
54548 30235
12644 26209
37759 3354
1982 27905
22770 19752
45161 18092
3907 68213
19008 28953
5282 11563
67993 25629
18285 37285
19058 36939
18860 19037
16462 57562
29580 46498
48092 55925
66630 9046
36427 8646
25698 53777
31931 39770
16436 4825
14668 52642
27182 13608
41191 8723
66374 29251
46883 14447
11169 68083
5921 17216
37664 44993
37863 567
46145 50327
47591 32630
18463 68186
46974 17215
5979 66676
56352 50630
36452 52167
56656 56934
18868 24677
67276 4647
54727 30861
40509 25131
61001 28595
162 27514
35647 551
42578 3969
14009 52602
13349 4108
37940 23612
38973 38655
12288 35445
10943 23736
56273 58120
59981 22686
65502 23818
6709 57719
54412 48215
51736 10195
11962 68137
33119 9414
43790 13595
56035 14661
5927 25343
11187 65461
39457 22336
19417 51148
34250 65585
33596 26159
35721 50958
54092 14387
8321 62695
11607 37565
17944 18278
30205 16683
22955 34518
27618 20886
23825 19010
65753 59528
57912 52031
9755 32519
21877 55843
35564 24761
38763 14790
19868 26244
23294 4974
66198 58415
42162 42724
28037 44274
30933 22171
55873 21838
31279 16412
48463 14900
7380 55774
40167 45633
9541 57256
24642 22087
11624 35366
45011 43718
57032 12795
65619 24662
37452 27763
44787 7243
55249 8456
53774 53783
57988 45633
27253 56585
18951 53906
2634 10975
8515 20105
6810 43859
33616 56587
25168 31278
5577 20602
31869 31068
36364 64406
59846 24895
55126 10620
42808 20428
6292 8510
19591 19604
19824 8689
9188 28940
10498 67568
43340 28742
30632 57660
33365 49216
41331 60795
61284 17210
62212 60359
65211 49428
40612 19725
40999 20634
29190 14059
12737 47099
43722 20083
25039 56858
50517 47157
42945 39641
31696 60621
29092 13176
14068 11957
50468 23553
65510 39807
61599 32994
31270 45463
3188 4229
2023 57265
21149 59860
46338 54702
43193 2522
4255 10970
11033 41750
30515 10840
23622 48326
17800 2331
41427 34366
55297 10409
15852 3681
8599 12452
45519 49336
50784 4327
6691 68244
29292 6873
10493 62786
2707 23287
59132 42671
8116 8720
49280 43030
28101 53004
60345 4586
35962 30006
17079 20691
14344 18103
42395 19335
51287 19739
63336 24276
53090 48979
56481 5482
57371 14926
27717 65692
56681 68626
24549 37939
18438 12221
13325 43236
21093 45874
67549 31787
24417 18405
34393 66978
47399 32707
9114 4732
61202 37534
42210 36586
41199 20785
14081 2212
34975 68239
40879 8711
8705 64764
7556 49310
13522 25571
15181 13180
45369 8265
27230 12847
16854 1491
30459 41002
57285 41215
50921 68268
43061 27584
63834 5481
27936 29152
32399 16276
43336 27891
4527 26825
33451 61299
9016 42707
34188 43246
62675 52032
24341 61966
28243 15467
66087 57045
27840 26943
60915 51523
60071 31764
21449 10674
3119 67737
65944 68593
39473 3212
62011 32548
35262 16256
39519 32828
23463 25381
4823 43390
14020 42007
65389 3006
42306 58540
50472 33270
7730 66907
51990 53034
44018 45490
51101 36577
6732 48256
44600 43696
19508 3065
31937 48858
61930 43594
11870 15865
35036 34062
9794 19634
38207 57956
49164 22298
26666 18783
67109 66802
24498 11763
44057 59582
59 59562
35632 17105
27843 57652
10843 29366
37540 52735
16578 23511
44299 33440
35210 57439
32497 42738
41221 21888
9589 18011
44918 33974
24820 43812
48132 55564
48412 17887
23709 48347
20171 16521
52084 56889
2522 54203
34285 67027
33711 43932
48728 38040
27469 60952
43242 46415
46173 30794
330 36156
40147 63158
7783 50274
27301 53542
65724 16824
45848 28392
38523 34992
48945 5104
5269 21194
20144 67965
61782 11086
62233 22969
36565 47603
57964 49913
62496 33706
47158 19540
27538 56961
2145 579
20060 7545
15574 10766
21567 9237
52749 50214
16978 26299
67922 12665
33784 58547
13376 48344
54792 35657
23746 62325
39391 16392
59209 15029
53180 59522
21336 48308
7846 43211
38509 2639
34107 15416
28473 59383
6954 47414
52902 41869
514 28765
11620 34086
13545 50301
66291 63598
13453 49907
60605 27169
28529 18988
56167 46259
17300 9764
8118 15801
25914 64782
41624 50018
65354 50489
15072 14868
65104 63577
23366 58909
23765 26679
43520 43973
37702 43253
41543 39550
32027 36581
13217 35222
683 28334
1615 57365
20916 12649
46921 15355
5380 23388
50106 64867
61756 4084
24220 65486
41599 32787
67005 8296
11194 44625
12882 29771
35524 21887
57070 42143
34902 47050
56324 59279
15347 58571
66131 34486
21764 29031
47406 2393
48575 6238
35123 49457
37303 12670
63425 36181
39095 21083
494 4106
47819 59863
52074 68585
59583 33070
11838 24279
21111 1358
20843 35313
16022 60056
42566 1833
58006 31189
35005 38011
7852 27131
28148 18123
29912 17468
12988 20392
62745 15426
65195 2294
58335 4632
9751 14908
28330 3140
43043 11051
28168 48603
34586 354
13661 12159
64723 21617
31768 2438
35103 36753
10285 43435
14726 56346
47353 20817
55173 60835
8203 59219
36475 41572
2934 7154
56729 44279
19574 5556
12867 46323
58557 9049
16850 23422
55458 65723
37936 13729
1622 46479
4982 9422
23397 221
8031 22691
45724 22406
44394 44513
14002 48782
50768 25401
23088 51491
29195 57857
63842 54756
38175 50468
37066 12092
52522 65432
52473 34397
7343 21530
35761 17160
30019 41038
57528 18755
28009 67665
57769 46956
56812 3127
3119 49923
50978 3058
33537 9823
56643 33552
3766 63462
53966 45257
33827 10771
35947 48887
66658 10663
8991 60759
37093 7202
50378 16457
48747 30842
63493 35715
59932 30996
62177 33356
7505 62824
49399 8378
53455 3136
50930 54600
62680 68791
3363 64277
4624 45258
30723 31346
57031 46821
65704 64849
68273 68492
43807 30495
22954 17145
55153 56036
43820 3544
58127 2031
31430 23161
55176 32487
22493 60356
58018 28296
30716 63389
5026 59378
20790 49314
49974 26622
30066 13494
65852 17830
23648 179
33275 29982
15800 64708
41771 20439
48229 18799
56954 27932
21518 55633
3800 34864
62279 9865
2630 66008
19373 39907
9708 6189
65314 60362
68238 2456
34790 46028
36691 60866
14176 15881
7470 52454
4035 68182
21717 40397
56200 55525
56446 57926
65681 11005
19572 6041
59149 11000
55731 58983
15538 50631
57090 28265
57697 35240
48084 48758
32871 49761
26031 52937
41427 8782
22151 37077
61731 51327
51959 23008
36060 57588
20914 30849
22635 4337
5056 17871
24987 59959
24096 31738
8020 29347
17785 45691
9630 56548
34829 47758
28559 63964
4168 25430
28950 39799
54976 42048
21060 35055
50692 16729
12045 65246
17542 68715
50700 12896
54841 19409
62476 16526
48191 28379
44978 49262
7166 25114
3478 64951
5939 14520
10701 38050
56029 29889
44539 47360
14359 35564
65389 41215
54427 49290
53291 7899
6565 50136
13203 28133
17491 52100
64383 50694
12177 54317
11355 51453
25201 41434
68225 3774
7202 42292
45823 15620
60275 16125
49323 45555
51975 22414
34001 359
9852 28521
50884 67547
38313 2467
2257 53735
35223 19210
56735 60868
50280 3624
3017 10496
5501 48645
53850 47956
23146 31916
63449 56675
47198 9390
7568 16950
54627 43197
4302 59663
52172 7507
56984 24467
67825 55614
4571 59951
3700 65937
44136 29491
55523 6652
16876 59445
8139 35465
52730 30313
26975 21933
26807 34584
23163 50453
44008 8256
67857 68577
65879 44223
43706 50641
45917 35592
17658 51589
8038 38441
42809 12281
54052 36865
8209 35423
68176 16355
43494 34737
32037 25767
57683 1583
48056 51423
36130 49468
15584 45726
24267 41419
29205 29100
9711 61347
47405 14866
13938 11319
39573 25272
7609 21915
2135 30150
54468 2495
17045 46138
57158 55466
56167 66891
35983 4969
64486 59253
12621 54194
33878 31375
17262 27664
47427 10011
20665 26774
58789 3077
14229 40314
49729 53850
43824 47296
17269 438
9397 15765
23652 5708
16405 19472
64075 56024
50320 62568
60616 49717
23914 50070
12158 31597
9044 34488
51688 56213
45427 38906
2814 45621
54794 43940
32055 49892
13121 56322
52812 43808
46163 61735
18449 52128
9484 43246
19890 16554
55051 8087
45215 58476
42095 8248
18227 23520
36021 25721
57054 55048
24002 26795
41349 48132
36265 67897
8058 28316
38881 2207
60677 36983
21021 36591
19139 37875
15008 2951
11382 10812
21232 10675
30691 13105
28366 7658
63479 7841
13718 25355
15872 7786
37793 31596
20941 7210
20763 13372
61098 14145
3090 31708
24291 40566
29816 31915
46490 22531
39330 31642
29340 13999
1549 33340
45720 8245
31758 14433
54053 67189
2506 47095
23488 51002
36014 54906
65184 55011
67152 67007
33029 64083
56588 57893
48933 60280
23118 19628
519 29284
46552 46899
55188 50994
7900 28057
45767 15960
31045 62955
63997 38165
45579 2154
59485 68147
1279 45946
6095 33700
27833 580
62387 45464
38361 8278
44875 63208
11344 9417
6688 5390
56686 30475
8568 13348
14275 60975
35894 30549
31242 62953
1284 19278
27677 41239
18714 26156
20798 39151
28585 9158
27814 7017
12181 24128
59004 60956
14129 50776
29869 17565
34105 57534
34806 48180
64868 27990
43859 35741
62074 13083
2769 67309
14551 39308
29604 42810
37731 10336
22318 45689
29101 19120
52559 51489
56953 13413
45582 22803
5565 46380
51154 21435
8164 25332
10325 63802
41639 62974
54612 53245
46520 28213
16080 6063
58427 33141
63759 2406
59766 61317
62759 24664
10121 27441
26968 18956
6332 47487
56237 24418
23630 42922
22475 67407
28044 4178
16195 45800
14078 67997
44345 53599
17028 25999
13943 1423
65675 24220
43047 40787
57557 5522
22176 7786
52890 37223
49903 6363
26072 29872
13265 38609
15274 7700
52506 12882
33665 62757
59907 19002
40652 20444
66843 24948
4470 57049
43809 9303
24085 22401
30440 52185
61305 67933
44112 67667
65146 51442
1450 23343
25036 2501
48772 9222
42684 43954
42472 60048
6026 9952
11124 49434
31556 64595
59440 5907
8301 13466
45288 58575
37819 12674
3285 50276
33415 64402
32011 42987
12117 36803
17503 41414
63634 43153
56668 47171
64506 51667
3291 39616
32759 28239
15469 22680
14079 15697
57839 58072
66267 35388
10739 23253
59917 28206
22979 8759
57485 18884
4411 18249
36463 54554
58317 15511
19104 47459
51617 21571
20023 25553
45280 47095
22502 48432
66504 61958
7342 62499
329 30398
17771 68515
57791 40358
22684 414
6846 10215
52832 37144
41220 46698
13448 61997
29350 66020
58210 31181
58817 34857
26623 56116
5073 68152
60973 64161
44286 51364
17148 39683
45355 6150
57507 57579
60919 18911
56464 66315
28613 60025
46407 48842
7102 6922
28640 58942
50864 63363
34400 10153
55684 53145
778 55956
1678 27768
2882 38472
38822 17619
46118 49740
50041 48866
14916 14739
65832 16677
56329 16914
52724 16212
57479 40911
53210 1161
22680 28474
59146 63001
2757 39940
16456 53804
42935 16617
25636 46979
16462 56067
11069 22700
16918 58574
68540 29566
5468 8876
15632 31153
19570 45462
21686 2804
26181 28897
50645 2157
30181 10248
47705 67722
21985 35801
33594 49422
30331 45402
47832 39017
13160 11992
11589 56001
15465 32057
26701 41053
10371 9316
3958 33511
51997 15409
1291 29956
58037 4615
3722 61207
33731 13201
20660 35816
23559 22886
17694 43966
21510 40317
25232 64385
48983 54846
10790 16731
19344 40902
932 28686
29394 59401
64546 64410
13199 45687
25836 4257
19545 13755
52468 23545
27395 39315
53155 68347
4886 24295
9420 55606
62166 34815
801 58570
7809 22855
1511 67392
52355 15808
27896 29441
44280 22696
20452 43076
4931 12724
19591 29988
25970 55247
29954 24570
40647 19892
40368 9511
67083 26641
209 54799
64254 29792
22126 36287
48575 13618
38137 68459
3404 45773
6847 39935
49385 41413
47502 37844
5514 34309
21395 444
15458 36474
22042 51256
32008 56539
26565 14323
48402 12466
8067 62286
31697 4473
11226 68364
11288 51042
64648 16756
48094 64989
1683 40622
15633 39317
5484 31589
41914 31404
68322 53965
26638 8052
62175 66246
55945 1876
2048 4859
15566 32751
64122 30074
56339 1505
14925 18627
38932 38641
45204 39414
26508 24525
2702 48135
40826 40646
67642 37407
23548 18865
10428 774
51039 60175
39691 40223
16138 5873
174 22548
31339 23800
10965 47441
2415 66876
23657 65708
32930 17113
8166 57849
35507 31023
18050 59574
47706 8446
41166 32409
27354 51829
55805 63573
28424 16792
43500 33574
54500 28964
33190 52556
68800 1156
65404 32244
45900 15688
53817 51681
2546 36267
37948 66036
29643 29751
33404 23806
35607 28794
59581 34899
65281 45561
33575 22715
66566 42267
10983 39517
42875 22715
53871 30359
10889 56754
50423 16990
34851 36929
50462 6648
27345 60694
6208 39366
22152 55449
8690 14004
18716 5041
62336 17208
19281 39943
8627 43426
52147 3406
22495 35012
49656 59428
68087 31649
35951 13248
35266 45096
26657 41182
43765 66896
34594 1184
36561 64727
52291 39668
12272 10453
64757 54061
63183 31826
11175 24060
6454 46079
56506 7625
59029 20341
17292 39479
28042 37104
63748 47968
57933 46896
37789 28032
53739 37858
17286 4802
3743 17237
45311 29492
40691 4124
10994 16910
44710 52011
6770 8403
46831 40665
53258 26802
14127 54064
33085 56235
60010 32098
44179 16385
15452 5989
7618 35659
67766 39643
39571 42142
1094 28916
65050 9526
39408 12023
38453 41325
40121 53229
27640 58248
49650 17884
61083 20587
41760 66342
17186 8118
6759 63861
56325 902
52027 27719
42813 62502
5866 15609
64167 13488
35154 39259
8048 3560
48531 42205
44362 7941
38368 30043
58185 54300
25065 57998
32231 26720
33953 18091
66981 46959
47606 36701
23164 33431
52066 3279
8919 29013
32026 22218
15419 34742
33677 63170
12871 50179
16016 19346
1628 63987
25053 32445
2659 35781
21361 65277
13389 68385
780 22505
8234 12609
27961 10381
67676 14800
37127 20328
35473 60902
43337 26891
17324 38371
37453 55866
40170 17381
36707 31545
54643 1937
53639 56937
18467 7887
60775 68695
5648 46993
7096 15897
25377 20851
6157 11488
16295 45704
26331 18365
64191 33397
40204 20984
36536 53859
55717 28200
34583 55911
52928 30648
10265 12526
26738 32665
39006 47964
44429 8000
1498 34957
45243 43113
48243 50628
47286 1050
41012 26430
12100 36625
20346 44719
8378 35353
56172 34751
40139 54509
34288 67792
1821 20116
2351 15596
8936 19686
334 23900
5171 13013
19031 5981
63284 23811
15139 67396
38501 28396
27299 31282
20719 1767
57982 44877
65788 10108
67070 1466
47947 36708
65441 4023
62489 3279
55490 50632
67574 35599
6634 62357
13508 2799
66522 60584
55361 49873
23996 54338
11038 65804
28109 42375
36644 68343
53650 17019
64759 10925
60255 5745
29978 23718
62242 17975
46661 62020
61788 9283
21906 5391
53384 4450
2414 25640
20159 22527
30366 68301
61309 34542
50532 31
26982 44381
40775 10393
7169 733
26010 61462
57671 12788
60111 51323
31561 55555
11509 23618
66768 52953
60757 58224
57174 68660
16231 2374
4207 20745
12014 40534
6987 15234
35446 44494
24787 31808
52474 13200
26661 17943
65258 34674
4104 54116
34966 51208
15703 2767
53199 45376
25399 20290
3712 20640
51439 9182
48429 15929
31174 28386
65709 65676
25168 58293
66057 2327
59912 2827
58492 10107
12155 4894
12371 3446
42814 60157
2152 57726
33295 25993
32368 22228
42864 48658
18962 64123
44421 83
8425 10785
19534 63378
44454 62702
65042 18460
24140 25184
65990 23195
50154 51281
36214 42687
33656 23695
58254 6531
34129 3445
49420 52527
48554 4902
8560 37392
33242 44588
62343 36110
37890 58540
32389 37718
12984 45187
47725 10924
34979 14064
12046 41976
47420 36762
34519 60411
13134 33579
6016 32869
11143 55106
21916 3862
48962 44633
8324 13717
14091 17178
20400 32485
12286 31558
25840 15813
22664 40137
30538 57832
18005 49844
62182 47975
61606 52438
21789 35393
14099 18624
23250 10335
10046 62656
8045 48136
37777 61258
51033 59599
25287 44256
15211 34617
35506 34194
56678 39571
45615 62294
7470 50036
7725 57736
26845 28384
5135 48565
16231 68504
30142 64758
49546 15652
48189 29290
62482 56433
54912 25972
25206 61757
47664 9701
32275 35493
7401 2381
43271 49753
454 18088
23798 63310
18415 66398
9261 29367
11411 50197
4944 57555
62453 14399
21355 22980
43612 18116
9963 31349
42956 61003
46492 32854
32638 49270
41403 13818
64159 44652
2301 41638
48801 37985
56013 13809
17500 37211
5096 42206
13378 34791
44901 53622
44 15250
59061 15602
19281 5262
19900 18415
44913 8524
51826 6197
27343 57393
51758 49400
19403 44578
64166 37678
8740 22648
14309 60694
58842 40079
58650 58866
34391 68717
18466 29115
58344 25831
16380 9371
29644 6189
40987 57644
67993 43789
5264 42254
38144 64749
60652 37343
59941 19504
11342 5945
57812 33621
53461 5899
33379 41341
35200 18505
45326 543
23359 26090
48717 20403
29709 2109
28861 17690
28662 8661
1871 14332
22183 14938
20477 41458
10362 46934
23768 16747
16688 3518
19991 7642
11056 13181
61605 39904
35117 14357
54120 48553
7320 6812
1390 17342
10318 8013
6563 14524
54246 2057
36532 26216
37281 10564
52374 68297
10439 56992
40190 28603
64967 30132
11581 51461
7876 43866
61278 21699
41543 52444
38532 11061
17743 6621
48376 14965
30224 27650
38991 21321
55621 31624
1240 310
32728 46085
41060 65134
7549 30142
1687 45682
37513 32813
8893 2357
9089 49066
5177 18107
42016 14403
27499 36937
67390 8730
40554 14489
66722 51462
36179 36435
45924 36825
34069 28581
18110 48536
59358 50295
35288 35587
62158 1584
25749 11396
24555 13975
31235 30056
21932 53502
50361 16912
24044 55866
29760 131
58762 47298
53611 31052
62763 35119
67988 17582
34963 22248
6629 68390
22366 12062
58126 12034
68596 37442
67250 2769
48593 35820
56750 34393
64381 31868
23858 16401
49148 58404
16272 23973
21394 59460
18781 59137
333 5231
35895 13218
39983 3316
32155 19298
39177 8874
17546 6213
36218 22898
601 21195
59799 63894
50874 57199
10244 25359
12704 63392
64916 31594
35989 20586
57104 27149
10698 49559
28199 44130
36621 41232
5761 45382
19318 10887
21993 61553
56783 42510
41798 46208
43715 8910
54280 5078
61768 64565
11595 19718
21718 67906
24090 11248
26390 43372
50570 3352
37561 19101
51760 64022
38194 46322
1776 48805
12572 10466
5058 59071
36152 15332
48241 46302
67795 10964
6277 20801
53231 49571
14257 61976
23376 33853
16326 3192
58902 67506
8532 49489
40935 37473
5191 63354
58802 52491
43106 15201
2031 56506
2188 48269
58582 24858
1036 26008
64847 52205
52916 1558
51015 27349
63377 11695
10809 18395
11803 2694
6278 37867
45768 54371
5779 32167
20094 47466
49973 34855
23582 61072
18119 13696
50699 25375
51221 39035
31275 32907
36024 20570
34761 12704
37115 1698
34407 41970
52629 21144
38793 47280
64900 29161
28326 47472
66726 2511
2926 40899
35959 6383
15803 25477
47697 14777
11329 44983
19687 42178
66967 49109
37263 28916
12362 58841
5178 59117
62993 3633
40966 17355
35331 36979
36352 58441
40031 1304
67951 21189
41995 2051
1351 43991
14827 58812
6986 584
22510 47793
33063 17691
61894 6827
3666 45476
7436 54634
15727 28955
28951 60419
13296 39783
48902 34449
41221 34688
25544 16722
56977 51540
53517 65140
37233 5202
28713 55445
22127 47288
20360 45750
55913 31472
28212 45680
38375 57044
49251 55760
61415 64241
12984 1087
3762 49272
11396 39128
46306 26418
47057 18723
26348 24405
7581 50504
68378 23941
55323 57267
368 9819
43841 52569
55954 50011
18390 60481
25855 64748
52577 24224
5902 57271
18559 12295
3281 10010
43565 23267
11479 9347
38621 3492
41530 50111
48887 10021
26050 10259
45967 4978
54393 65157
32342 7646
49927 38136
32005 48654
64136 25980
65645 6529
21509 6696
61941 60201
9198 60006
52619 66872
30124 26655
50430 22522
46810 28952
45654 60057
40064 33018
27962 54599
36691 44800
33270 60894
50156 28066
37828 34697
31014 58348
20453 6362
58326 7291
24454 37346
53619 46428
40716 13068
41570 21426
9127 16634
64763 40981
1887 31421
42454 56471
12912 9072
25408 58207
66116 67652
8984 52241
18927 3801
47232 62493
64181 52408
15422 66892
46322 2238
54790 29205
17451 50416
34188 35942
22752 46132
68621 34474
57550 65099
26988 19347
66741 17463
65798 39047
23644 17799
31742 16021
14456 28598
23581 41002
64507 65192
63884 5496
57749 36437
46746 59452
34487 50843
46825 57845
20562 58233
50072 60416
65838 38502
5723 65242
39235 30806
17570 57354
10544 31150
64549 25565
21217 5633
57123 61855
30172 38669
6643 20093
53013 12651
31054 21646
38107 54873
61505 25940
3720 32597
52996 56188
55252 55417
47415 64548
29447 49606
27628 42780
22831 24365
10778 35699
57855 28756
18595 5592
60935 23640
26795 25477
66915 45316
37809 46148
68587 39707
3745 53107
39388 48014
65017 61218
45486 29947
7961 7723
27919 17737
57013 15368
14489 26213
52176 46574
62314 56644
12898 27161
17425 28635
43304 28514
54163 48837
15376 48560
24455 3567
62044 5117
11937 51421
35440 54795
44912 53698
39843 20105
34469 5159
1902 41792
11105 15873
24690 28253
56430 9553
54125 23825
5239 32891
24146 67521
15897 31863
32365 239
7019 54647
21614 18395
32310 28224
56547 45457
373 63943
40818 32511
68067 14538
11425 59546
68323 60416
62407 30846
50458 13297
8015 30636
48488 63318
16577 8355
35119 12737
27650 46333
44926 41129
26390 12694
22619 30836
41305 21351
50808 46802
53080 13638
64472 43326
28430 21891
29575 50577
17119 53090
2290 67509
52401 35576
37755 62923
59312 64542
7579 14725
45397 58787
42488 23214
30817 2768
46394 67972
46848 43608
60943 13454
29037 60071
63128 12791
31533 56464
67165 19779
36664 58722
526 41604
25201 60721
46017 22449
56276 810
50034 53817
32363 17815
41076 19227
33574 56729
35582 2214
45483 55093
57309 22527
16678 54616
44652 36340
6897 15968
25380 10499
53632 58442
20487 50133
36076 30587
62533 44264
59962 42742
1328 11453
25251 37382
26343 11941
45602 22759
62642 65272
35833 2473
12079 31227
59402 40954
49474 33875
26797 1231
41943 36728
24936 53522
62739 4711
58423 51982
48942 36108
16874 60822
34160 50208
22123 43826
4202 65464
10220 60899
61546 44825
64737 37538
44941 31520
3269 30751
57812 36887
1056 4576
56460 1465
14504 57786
49823 56466
29838 9420
22171 20580
3123 10412
25903 7802
54339 21823
24936 67145
21501 706
42552 20329
57567 112
35973 8257
33130 5888
50836 40090
53072 6672
24120 33728
45074 50680
10530 29538
46163 47867
55005 36260
38478 61887
60404 64477
51340 56574
1397 2363
6649 39545
33545 49058
10251 24257
62254 18768
22613 45154
40737 37785
7106 49687
46186 10020
8664 4354
62301 1797
46456 63580
66223 6076
47675 6973
31505 31748
67099 5128
59270 10786
7893 17325
34092 13035
13270 65649
40831 43761
32171 35522
43374 22654
7217 32533
51769 24342
63583 33712
36277 66717
58576 30498
17821 6487
43897 20985
37334 62644
15082 65401
47453 32633
29872 1835
4488 6752
59138 7162
4374 46829
2397 9261
49230 1601
63589 39294
7130 43162
13587 9298
57219 54085
55024 6246
28558 14279
68404 21532
45440 45043
17613 27424
50326 42974
40468 49081
26832 32521
18344 39762
8263 54721
33041 35467
11697 50438
21734 39157
8031 62228
7945 64042
36756 68411
48242 24429
56070 61901
67227 54723
27701 50420
14457 10871
32783 42730
52104 44675
12798 513
61411 63475
38669 7245
33050 28249
40980 12483
57928 26898
26039 31979
56349 68419
11967 48146
3245 38431
51728 61376
2711 8648
3596 44342
44939 56380
14643 61525
15769 22395
65419 9180
40293 32371
5738 21581
12651 58861
13832 25334
67211 18834
6588 60475
57472 25814
7430 34424
15018 65406
918 52716
60386 50578
61409 26910
11017 57224
62947 16991
32164 62235
2557 64987
6585 960
15275 64431
20281 49422
7062 36552
14212 30898
7832 55944
32001 61833
68665 62537
3511 13494
58297 51550
52415 17790
62098 51753
17220 27035
59156 56846
56544 21445
60577 1638
45902 7594
55124 42647
32285 15763
27338 34189
66681 6526
18291 7005
371 66300
25627 55533
24580 63592
34235 44701
24561 55568
6639 48608
908 64064
44316 5192
61367 68793
22805 24496
18982 38820
3220 13218
47339 27678
58276 1201
67207 18681
22218 34328
44285 17858
15995 59860
7770 67791
41036 49100
52324 33649
30856 36498
47445 30381
10672 9506
7268 60016
46371 43882
61453 75
1194 9566
10707 61455
18818 24354
15911 14090
39470 64
19449 52715
66433 25223
24109 51509
1570 21586
35227 61056
37182 36690
65361 26533
12524 27857
62057 64817
50046 35882
60045 66939
25230 42759
6952 16444
68080 36561
18316 17085
3029 35593
57402 41502
40377 33888
14354 22102
11914 18867
256 11540
24427 50536
5409 26445
4205 41617
29106 37664
62101 3434
15049 47136
49619 13622
17190 44218
57843 6287
57293 19460
57885 17482
65172 37597
56907 10053
15591 37568
56803 45946
59814 5527
56383 42291
66593 41669
63207 7377
13187 47956
53742 35137
40612 43900
59166 24319
51159 20608
20097 16464
45454 1685
64580 64624
58673 50093
46218 51457
68212 13250
51547 52044
46012 16388
24560 32324
59618 368
17531 8592
5003 2504
51560 6293
55011 54138
62778 11954
24434 271
68112 41022
32729 15354
56336 20293
25106 27192
32232 5588
51218 14171
36443 63146
21649 52348
35271 12118
2157 55552
12245 50887
26207 46598
30669 22802
22108 34164
2377 18843
40325 29100
2232 34860
60867 14558
54538 43842
66975 68100
24124 15555
66621 2302
2853 57275
27176 7980
23141 62246
4018 59655
28375 30044
28629 17910
4778 3184
36124 6918
41963 54578
7250 27150
24595 30697
1046 43179
63604 61381
8104 31322
59407 42439
55289 68294
113 8458
30777 55900
68473 51867
57612 3602
4341 4557
32764 56689
59131 9094
28689 16710
63319 44566
1098 3638
65093 22104
42812 27578
64741 9190
45986 128
65781 44657
5642 61406
25627 12950
16477 48709
56395 49215
12907 58270
50388 27378
45989 34283
34379 28856
38389 46393
1813 47843
826 38635
34359 8062
65378 17585
5659 28329
28403 8842
29792 25283
59782 2388
6511 1335
55304 15582
41974 9000
5436 4513
37907 36028
41020 51258
2556 28165
34174 10875
65502 2259
14114 66397
9176 22756
30592 63038
35697 26412
44333 27832
54034 1028
1528 17572
37081 31364
57270 28758
66429 52223
17950 40760
13674 23786
65375 68334
65805 51817
3336 60709
24730 34953
17101 10894
5740 23438
5867 48364
45904 55070
18684 22777
15589 19905
1910 54492
24211 8106
48091 62166
30566 12141
65414 10332
59169 25456
8055 6006
17983 49470
2031 30891
5621 19173
5389 36219
36911 699
15549 17059
50531 21935
58366 29201
35205 50405
42616 55429
6536 50307
50084 35814
8221 4529
8397 19912
11626 6411
19868 36056
2688 51560
28743 53866
52435 15738
13942 31606
13499 7759
16753 59967
31607 19082
279 10245
53209 60540
5426 45508
26659 48994
49100 23042
60746 55060
52092 13004
4858 68622
20915 51268
41620 29940
27465 54704
51370 19205
17989 27657
57978 27047
67609 11638
6265 52334
54662 2679
4132 32805
29211 11425
25938 20962
20978 61102
41567 19346
32377 46478
61050 6782
11536 6991
31569 12920
21605 33480
41839 6212
6908 7203
12082 32584
12512 44661
36203 15476
1583 15325
14201 2203
15665 55172
68050 41151
62540 25349
2672 23478
41240 4610
25604 61498
14473 16624
32168 30608
67068 62252
13148 62610
64954 44651
30705 12203
63104 68773
18703 52651
35102 39975
36290 16472
18362 51682
28009 48770
19645 58412
37423 551
39443 50273
11495 54448
9096 31783
12885 25604
64091 18311
53796 56417
68296 36892
37628 16002
64694 37648
64186 53926
17786 29164
52108 23223
12315 29291
11499 5413
30459 20003
32953 9850
57696 44195
29378 37509
64143 14400
55209 1260
42465 40949
27372 42536
65439 58181
33074 5162
48052 30954
19570 40253
17634 21953
24524 44708
62981 9166
34557 19140
30210 30240
44286 63935
46277 13908
6009 27948
4625 33332
24022 12858
25028 59510
67524 65650
66420 52466
34332 30858
62752 48976
32345 46984
44559 38438
44844 66060
35953 1570
3239 47513
8812 10837
26550 34483
44821 48894
49511 49737
23745 10055
27726 54834
4607 48363
21923 29515
26354 8123
56254 31793
14293 34395
49894 22459
17973 35718
67262 22762
20134 60963
18437 34615
60645 65391
54923 32073
27838 18332
50275 67786
22463 30866
61494 15837
18414 17455
3608 33248
25693 43763
63871 36820
60630 48062
54614 57722
21262 16741
25084 33503
50359 32723
66427 1322
11503 41104
21379 36793
68710 61442
16329 43223
59568 35384
48442 33009
39672 4014
56898 25688
19115 45287
68769 30953
68266 28983
13106 64473
35012 9839
2907 7208
40542 56340
64809 42263
57021 64485
67537 56962
42684 47778
58242 417
32010 18583
24175 49222
13518 40764
25846 15872
47583 20390
62012 27811
40147 2972
14966 37611
41764 53768
56353 45808
46385 1292
14942 27068
20708 63452
25495 44719
63803 24220
16657 11619
65191 29531
49632 46408
67349 39830
5989 52859
42372 37589
55915 64646
4345 18347
29896 63030
19923 1737
10095 7340
31555 68389
58853 9031
48770 3023
62016 15631
65017 49577
27114 9870
44809 51428
42251 61916
59943 3115
59584 32399
14012 24878
10742 51600
59839 59664
4426 36949
59448 56859
34482 48025
62850 26334
12802 31435
32342 30045
5991 55092
5325 32730
59176 28203
42983 22489
36692 25149
35437 27392
39760 57402
28130 10499
24838 16711
45619 24105
31406 36682
49920 38386
59415 18832
19760 50754
34592 17657
54516 2209
65095 25690
57225 12145
33194 51311
22689 43101
7149 44051
33856 18594
17087 30158
7424 6133
28656 47983
37924 47894
64292 4895
38364 41628
58326 56018
66426 40794
30813 63041
36768 47295
53723 55385
52036 15631
65511 48932
15459 24074
14715 22702
907 50592
45373 50590
67710 50142
1970 33717
58440 9979
61098 47605
11373 25484
53837 64389
41528 34906
54734 26461
10193 45172
8522 57266
62617 62160
37059 28011
28559 33003
10226 11062
18584 3079
47148 65477
46500 47823
65901 2660
4981 63734
43399 54581
11602 57661
18138 20000
19034 5344
60679 8305
31162 43026
34330 66894
63981 66544
32279 58991
61778 12655
25957 29836
64783 51469
51472 60466
39763 2029
56943 37539
52620 15024
64516 17043
959 6900
52405 6043
17636 42848
29892 33766
25678 55599
68252 8291
38750 7567
4034 42156
40237 13133
2184 43337
14441 31977
24567 22171
311 66109
65550 11416
40583 62670
25971 41740
1490 28829
66572 48789
68241 7400
3856 52220
13411 40706
39198 39639
44497 52451
52345 64457
67271 68797
15773 68422
29286 65289
48403 44669
63063 50835
6735 2803
60163 25984
5358 67595
37249 53345
6260 44845
61017 46593
30721 27186
31888 28561
28775 38663
53603 30288
49597 63587
47723 12381
53088 20075
42969 9299
19819 57324
60375 32631
5066 51029
12218 66871
20961 18289
64718 40713
25590 62545
31918 65089
5115 36427
3186 51211
53629 24862
68778 63233
34759 20819
51144 12884
46932 40838
66031 25818
11073 33173
33936 31893
65579 1950
33575 7472
30371 28094
36329 58778
66805 22562
33294 6741
10102 36267
23082 30069
48484 30057
3656 24198
45285 34043
42307 9355
6349 49618
51750 56913
64234 50014
14333 15805
14687 59321
6008 66831
59107 39758
56356 21082
66784 32683
29625 24338
54565 38602
4313 26236
36160 50989
32754 22850
16466 44911
34554 55014
19086 27340
59379 61450
66832 45637
57062 48751
25956 38450
36167 13713
47874 20164
67718 14665
44795 61683
35799 22270
42077 33169
1933 57752
46925 3058
40858 64522
50139 32313
36568 17224
55336 41208
28998 37288
49235 11924
58815 45278
24904 54813
38024 31338
56128 4817
2210 14942
22008 41287
24178 45372
33793 9006
49036 55266
57253 60050
36554 15279
62660 4385
57755 15211
16475 56877
19026 50322
66824 63560
6288 33434
50542 67865
18451 24381
12413 33
46666 28076
53423 34906
43040 23003
26677 8889
28049 25181
15453 17289
24712 54003
21497 44023
58968 4886
3738 34700
6087 21774
5841 7200
57989 26109
57246 363
48068 63628
39657 62866
12936 4303
32301 18581
20191 3326
63516 26984
44700 59500
9587 36176
23774 21489
31704 58752
55592 4233
28144 24586
48202 53277
61496 39660
47114 6841
6194 66045
18405 51325
49600 20756
9075 22801
8340 56936
55176 45125
35893 31970
61610 37280
52150 25068
33198 33440
65850 27712
56502 66167
60312 52806
44792 21129
24807 63705
35804 49529
55687 7595
26755 11031
31193 40019
43847 14
40137 12828
39248 2169
52640 10707
48525 35512
45971 63705
24753 50124
17488 47842
46117 1797
27020 590
38143 20034
59084 17538
51925 67389
20241 5784
33336 47781
50047 42764
37983 66061
57690 57449
5498 65045
63315 29650
44166 1956
17928 28110
46318 38042
51585 36284
6636 65711
25403 36804
6140 65686
3057 39621
20994 64320
54318 19749
19851 42201
47481 68564
32843 22105
43627 48527
47094 6495
23253 42044
64616 68352
52208 2636
12876 43462
11969 47521
9939 33153
55708 38741
44667 52689
27256 59695
53558 38808
30144 51300
61071 54722
16407 51096
18979 14250
8043 66491
39614 43298
41102 8120
23698 1702
65851 50999
21666 13868
28942 31749
27994 5477
43642 61493
38231 52272
63274 35785
35024 4521
29856 19758
53218 65842
27371 67736
23206 60511
48478 35566
35447 5704
3188 40349
6376 29618
39838 25514
6498 24395
8619 60276
48890 62808
67548 68429
9403 52929
3417 47063
38875 31074
67640 27525
46125 54392
34736 345
7290 3129
13839 64493
64940 56696
17428 37603
66332 43546
39324 35103
7352 32010
68675 29006
67496 47042
4653 31164
47370 3595
11138 55406
38945 2261
68606 53015
40268 5057
64923 59471
60900 26246
31943 28177
33983 42854
16321 20324
58768 355
22239 9411
34554 60720
45827 2965
42582 54168
65493 37079
57456 6907
66389 54884
18645 13873
59851 27725
57879 30345
42093 67770
52798 16097
4793 17580
64703 23852
35690 65271
11482 64754
33576 59407
45574 22196
34702 20003
53133 46214
8372 5056
10573 12314
31242 13145
20066 29729
15046 940
36745 43031
59705 56429
12473 24195
50796 6772
14670 9519
51851 11997
32281 58
21654 40297
48208 50817
33328 52049
4102 23945
39792 6643
36720 43862
55840 33545
58811 12229
51890 28282
66637 24083
13502 40506
35648 40543
63248 8215
22947 46824
23075 31437
34233 8612
17592 24090
18240 66909
18738 23407
40477 15842
24516 63839
63101 24932
35112 58864
32667 44134
37492 51528
16044 26816
31477 62826
50525 85
41588 3161
39218 51463
35560 7786
43415 29984
39038 37854
49548 41397
36210 21487
28661 8907
9130 65958
51931 40607
5603 47329
39817 10581
7011 30446
25098 12191
51852 56030
41274 33863
34258 28531
60444 2245
56874 68409
24093 13700
67335 9986
28643 18108
40729 52822
65662 19124
24000 60101
3350 67593
52336 35972
43854 30447
67037 36110
31654 47281
11167 46020
17707 12496
41440 46353
66210 24560
39726 40779
2792 61639
59124 21358
49447 66334
4984 5447
18834 5636
47711 15179
48164 58619
48509 52354
37464 23802
48775 42389
4672 58314
11772 4226
32874 66508
14704 60021
44511 61735
57332 16664
45180 41155
9914 57153
62018 35627
42815 63052
5262 26587
35229 34107
47062 30233
45144 12473
22825 21259
4029 40677
54292 40870
50832 63802
39952 47114
53060 22297
16889 42537
9455 9695
8233 57656
62350 62435
54139 2229
41265 48
66538 6152
13185 68486
6617 45721
15788 68464
25932 30534
41374 67642
18429 29985
28216 17766
5396 45041
59127 6294
22587 49691
50638 33902
57108 51518
46612 36635
38216 60612
27677 25548
7614 53713
18139 1377
47381 1997
21192 64470
47567 56374
62633 21301
64952 23081
67571 20157
39554 44067
48066 27641
28143 59202
22218 32918
2957 28229
65512 13529
62116 51207
21208 66595
66725 38417
66832 20236
68576 21034
41314 39378
23691 3708
41156 32938
51264 34768
14986 29837
23707 46473
53365 30072
27139 62789
22694 17156
42908 10046
25932 3461
67445 20692
60820 21547
19517 36966
43460 670
3811 48107
36598 60899
31798 23168
49588 5367
53457 29503
8098 34247
29549 42609
10190 4204
57337 52037
54778 11936
60725 55854
1582 19215
3727 40939
52572 21177
42865 45711
9416 17970
24517 66197
20478 51252
24323 16922
29561 8801
27446 32732
6445 44497
54694 5850
36594 33570
8473 32859
6486 43489
1316 52046
12781 5434
15063 40920
10774 23611
49897 21595
9902 61907
59418 4889
24576 156
47068 49223
27104 56413
10291 18813
36620 21912
57168 38698
51598 66765
1805 57131
60729 9163
52781 56424
38282 41407
1147 46346
43227 22959
40613 21268
67092 64407
13797 247
3260 66583
20641 38639
35116 5834
28550 8948
892 50297
32220 8146
9351 62604
24929 63780
68262 3389
8738 11084
38415 32467
18865 29068
12029 3469
49192 9567
43102 46602
4599 66083
49201 50249
11469 28024
6637 37393
49228 50121
3880 22583
44344 59718
68118 32946
59689 9319
63377 61934
65456 60168
22075 28228
47890 37448
24512 5797
33746 4485
36426 11680
12411 9503
21944 58602
9062 38313
10738 63329
23386 17874
29182 39790
5388 49304
60821 25816
57664 30737
944 41021
64154 44520
48975 51199
50286 47709
34669 3578
29724 32488
13899 19539
33003 5388
456 17274
30084 66270
60891 29157
26368 59013
60871 37241
35902 52979
9605 59044
16022 24852
24886 48344
52379 36701
35776 29203
43222 60280
20920 60961
14789 62873
25326 15593
9606 11950
55958 29592
64410 14481
14866 36369
51395 6239
44628 47779
13486 4018
55082 63761
20417 35809
60278 29735
44737 31139
25115 63554
10459 39886
53685 64868
21450 62615
3219 48022
2401 60782
29381 64114
21832 28140
38657 64290
46707 21066
60097 29915
62397 31051
63978 10189
50060 5522
59394 6358
36676 28164
11189 1083
62296 59034
2930 68279
11516 21753
36274 60107
53936 4288
61452 32379
14270 58105
42261 60130
22903 5341
64238 6695
47039 65534
43413 49603
23846 40217
42022 2484
9992 65965
4005 5901
39984 37872
43968 26930
20606 34677
37466 16196
12019 25729
66133 27970
61480 67684
8608 41011
5269 17259
61971 58847
38386 10117
10727 46244
11955 33597
41797 8180
25724 48272
38805 35335
11319 37996
13144 13663
12443 59589
27830 67130
26126 26854
52579 42100
40182 20086
12567 63311
4361 47488
17295 53400
27363 1840
51081 57754
27292 34016
33908 14526
7879 14525
68399 11769
6663 51194
4014 67986
66318 6669
38950 64678
42256 62374
36020 48565
42391 20829
6650 60385
9498 3814
17505 45299
31299 34517
48558 55286
67632 19824
24764 28606
4627 20175
51359 36379
43278 33858
25622 13316
19025 31011
59850 45080
35763 58111
19418 64984
20029 38869
18664 3828
54967 13762
40333 33808
11879 59673
46106 31244
40663 17698
60657 5250
28674 32797
14565 11270
35878 65920
846 62752
42257 27535
10518 20701
58484 68078
5892 36043
830 27748
47791 10558
42916 53009
53202 64305
52195 41749
11265 30270
9777 61393
36923 34667
12161 65352
55405 62837
40829 49892
60151 7548
2093 35144
56651 27093
34644 46679
67976 34668
34821 67203
18318 52753
57353 34650
29842 6305
21562 24320
30885 45866
35770 9459
4139 57434
50021 21916
42862 42174
35697 3074
57541 45103
64103 47935
28843 16138
7673 56231
9159 27971
37475 8670
46678 27960
9183 58128
35996 19328
25819 47843
19716 17704
63964 21110
60817 23213
17950 18030
13227 54919
65978 39834
27063 50996
33596 32839
10498 68420
17201 38374
56348 35654
42689 65573
48419 43414
43544 24015
44775 42929
25689 13641
36922 54869
48387 28572
49368 38113
42916 26659
2043 14977
39076 41886
42007 65886
53173 30765
29427 64821
31627 21565
52239 8221
45225 42321
55372 56586
62913 32815
10521 66844
30720 50719
15418 42822
4115 47332
66405 2251
56288 47316
20062 48074
68314 67038
9838 55024
37046 44853
65963 34876
31055 62244
54633 48175
41346 59677
40780 41950
40508 39331
20174 65785
655 34467
42033 44225
16102 1435
4958 66339
27762 40493
39530 9107
60799 8618
48515 4730
38204 23695
4284 18493
40364 15089
28841 25546
63077 35973
62462 9355
46286 6221
38894 611
64436 24899
6764 51732
43458 39897
11972 46001
58589 66858
45628 21139
44721 25217
68152 37884
5086 19722
43967 46417
21575 20982
40900 17583
26839 29155
61792 22432
34620 23956
6735 5231
26451 44231
45324 10741
10350 2321
54071 14914
36215 26168
46763 48648
23143 55086
28576 19014
62405 31769
58471 5691
31222 9251
42406 3051
33839 41256
62849 60835
42131 40446
43825 58258
47921 31023
62988 13743
24905 64167
16697 6882
28136 27800
55829 51828
26708 50740
25232 46739
11999 26923
9094 24967
67336 4924
52560 41747
48196 51430
26513 53908
68394 9530
66097 51787
68507 20090
43660 55250
53653 42323
24796 35403
26071 50493
20759 40141
64118 6299
48334 22752
54368 25937
58494 52871
33612 21056
2115 40344
49525 42623
45442 429
8584 64430
919 64407
25510 8988
42342 18018
38260 41450
51807 64953
40575 36586
28389 41883
58949 11003
13023 39743
11224 25999
39665 25490
28392 39071
46128 64691
33911 6099
35695 43882
49426 7266
52023 45407
60504 26011
47495 25978
18814 9295
56474 32727
48339 20286
8962 7944
5194 58136
23701 4042
50831 56511
1290 53347
11569 26110
5305 59648
36135 35504
19055 68549
15251 12533
64183 21824
48039 35428
42438 41803
45918 22724
12760 46440
3755 66065
45460 30822
68254 17562
6551 5916
402 2406
39565 47096
60267 66631
45752 34977
8739 48069
56959 63856
1803 41407
4505 13151
28395 34194
1183 19053
53364 21874
46091 55894
5010 66064
9490 33662
49049 58798
16020 60633
50661 25702
18041 35471
23462 2510
28403 26888
61642 18514
5893 29409
57760 31319
28353 27555
53274 30934
29743 63822
22145 19437
31524 13938
43985 49660
23237 6332
39535 13952
20091 61411
43854 21936
39174 19972
57653 55549
41149 14778
64209 55661
53666 58506
52013 57488
51749 5631
43618 55234
45066 17449
53031 67255
30809 18719
65742 16217
41507 46762
63648 14129
2552 5678
31025 57746
23286 30250
15907 40880
23952 65789
67292 27248
67921 5310
61384 25823
44772 1167
59166 8192
50421 58868
10556 600
62882 44751
4643 59831
36558 62977
29430 24094
38461 43013
16487 46160
28055 19261
8005 8448
9941 53586
52908 68051
3190 64069
3914 43284
36507 67787
56499 61200
53628 28434
3162 1013
28144 68510
3447 22914
54242 63960
10249 18843
48780 16986
54534 33654
52549 37848
42879 57633
15183 6522
31615 67436
39117 23512
10414 40817
67115 12488
57205 63934
39871 51155
707 35349
67364 36886
18277 56120
14918 16342
58373 22412
45868 19530
52955 58167
49224 44717
33096 30929
43321 57780
22704 18867
50457 47631
24616 27783
23635 35010
43641 48775
67448 10541
68404 21059
17590 16121
67908 8766
40342 50866
37832 53989
62685 17853
22737 22592
15382 12384
42740 37308
66825 61366
53967 37912
43821 25520
53601 14748
20017 41355
61235 40754
49719 42361
46762 8138
11790 49496
39794 25592
6571 47574
56925 2485
51284 1845
33339 65051
61489 34770
61190 45983
26657 48544
25834 61560
17029 35097
22026 42367
42376 39406
33171 36643
27562 68023
26056 61366
9549 19882
12130 29272
31071 67235
3864 8743
40393 47652
11232 46217
56952 56566
33144 6428
1280 55111
4729 9290
35484 28132
35934 13021
15889 65782
53747 3086
20788 23535
19606 60517
64060 58513
40493 35591
61461 56685
67853 37746
50873 65296
19388 22930
3432 62863
45165 19951
29991 35402
7315 48848
60856 8866
58263 15085
66355 36905
21202 39690
561 31311
9131 60331
22581 17843
11338 64021
45868 47262
1689 28582
35170 34990
27034 6389
23910 61059
6631 45034
1554 7706
35118 68196
14069 48897
53917 55884
22745 62054
7857 51168
7907 40024
53945 42071
60092 10270
24377 53290
66793 10103
16117 35267
57235 8693
65523 30607
24293 66930
50848 45420
21176 12205
48027 61448
6761 44066
65616 33809
39018 1527
33088 40835
59348 35585
28921 45886
8434 67438
43293 63439
66809 51967
55122 27264
17343 26715
18802 16637
64686 3557
7105 11537
2821 28379
17296 28754
45460 59462
44659 52829
23851 35614
57452 17396
38147 65682
56746 67704
55893 14042
49329 27474
61885 18162
25954 60611
43647 50027
20307 41645
62717 42208
25639 64155
47248 39416
24646 33881
65033 53327
21052 37803
7159 13881
55191 15030
37963 2945
30272 43921
59148 24514
44573 8790
68553 24795
55092 33267
31610 59988
43701 38267
43645 32129
51302 13803
61029 7887
13998 20227
37142 58726
51911 67673
39567 42279
30183 52678
13996 18991
34809 37415
12439 25503
29756 61049
23871 1539
40628 13372
18812 67166
37377 22927
53966 4336
24250 63127
55310 54869
63409 62718
12707 9441
14386 36568
3916 26213
17068 28703
905 36203
34184 9715
60229 53277
60878 64757
38066 32728
44732 62643
4628 33671
36775 6499
1299 63114
55172 61587
16227 10029
57732 2148
46586 31504
27522 48788
58470 58725
29488 17535
1705 58164
28585 12838
63407 29362
34260 31680
11871 22247
3147 23769
46450 38382
12387 30931
58095 18139
57620 25624
51316 30627
37149 3686
50391 59220
7827 35245
13014 10142
47658 2709
17394 67953
47866 14665
4524 32799
17324 34169
68054 57516
10757 57044
10180 63869
25391 20536
15039 51844
34490 41454
33603 18334
8920 14037
13422 23214
46372 31942
20010 2747
32747 49980
19929 37481
28772 56258
13383 61955
65454 1573
43484 22405
3924 47639
60207 40895
6359 6636
40103 55777
21313 60070
41092 42795
45732 49047
38935 40234
41397 12840
68794 15882
18954 52527
17078 17339
62658 22030
35039 62634
18999 43883
17485 16285
9898 49953
44448 60824
7529 20106
68686 752
5124 54016
5732 42249
42505 7107
64686 53684
24963 11092
59333 17458
46562 6421
679 48721
3057 30472
10729 36641
67454 67971
46166 7561
13419 44243
50216 54212
8947 24565
39458 54815
43757 274
33384 56577
47344 43269
68523 63337
67345 58404
36479 66106
9362 13575
6546 51912
56103 16413
6607 35526
49086 57040
9758 68163
11497 32947
1208 66832
1891 32739
26928 51774
57687 34144
29831 20093
17606 32502
8271 9638
17551 61350
63483 66794
15736 9588
8267 28596
58422 16427
44272 44983
20490 25611
39939 59361
61001 767
11369 40661
9170 13494
65708 6360
42242 20944
22678 62297
21901 61688
6737 46833
8437 44146
57854 51163
56262 67077
50204 34950
31004 14567
38287 14606
24686 35265
44599 10073
20028 44284
60804 4599
16441 46323
57314 4985
60430 61276
48953 66343
43092 28108
855 60005
58976 59494
27831 49141
58630 44890
46606 40514
42150 63058
45708 18854
20335 17113
25797 48741
9307 35771
67324 25556
65264 26480
397 17601
43228 12513
19580 13210
18932 29681
41258 54154
19740 20912
3255 24350
5808 59624
27759 24208
8992 393
4989 18108
60519 36278
47162 5243
53454 18413
3104 48320
6344 41405
49098 45585
1632 6259
28254 7936
66029 19041
64815 26348
40591 47713
29664 6557
16764 51178
57782 14826
63662 62103
30377 45427
22129 51697
54883 7520
44077 24660
38341 25944
21231 63173
29555 22875
8386 4751
35817 33607
20063 9230
41391 10553
25932 43996
61263 29796
18021 42854
31060 7695
61970 58549
6826 499
13033 61664
57921 25189
20215 19470
9855 64353
44340 18364
8594 20298
5671 24995
57655 30453
42676 20907
49563 49709
24467 46878
58004 20189
13586 27914
7605 56714
26273 194
27765 20032
21261 68803
14954 25883
59028 16568
45267 27683
47216 32878
27544 22904
27980 49480
45227 8897
3456 30527
35597 61133
55818 28087
45509 2275
4504 41150
34941 6748
29484 28953
10685 63522
68357 64802
26194 41629
42886 47509
26745 49682
15787 9848
40842 24017
66303 1998
26318 4986
6968 53093
23828 61823
46453 18257
58325 50488
31054 11842
27297 19884
41926 28197
8242 17417
58892 65384
24393 44602
29739 5737
42417 24532
51938 23054
68518 33394
55518 56225
44987 31225
43483 34090
35538 60645
45604 64832
62821 45451
12351 5217
13603 65888
47185 55325
61984 27109
41060 55605
36993 57200
37554 54942
63874 51996
40347 33216
49370 42587
8091 49829
4081 51209
27219 21523
33298 41203
25522 16002
38689 50909
8528 11622
28512 56636
41339 29219
29742 65392
6135 20924
32820 10594
29519 5293
53077 16282
11231 64253
186 35276
60167 16620
68236 19351
58504 21604
49667 68001
56324 18014
4948 3842
49168 60075
24477 39287
31098 7275
1008 26766
28437 32049
8446 16869
43124 1325
43958 68707
51340 15096
57627 62896
52323 24748
25391 30016
36420 29407
45553 59672
28249 66262
2774 36736
38901 23269
51135 16539
39087 21720
24386 62777
36318 29360
56039 55538
34969 20297
50580 66804
38740 42675
37692 16258
40368 14862
54749 44137
30972 41415
40076 57085
40728 15350
9610 19201
19682 24271
54812 12796
49447 44853
8641 63745
15384 31106
62372 55399
28440 63088
60725 22474
11577 1309
47959 12622
67045 26407
19442 50465
2995 37144
43579 36431
63911 31481
36217 13518
45593 22746
4789 16579
28952 17886
46714 41671
33039 66115
13339 25936
43688 27205
9041 26788
35079 62867
374 34801
6142 34073
1898 45012
62076 54713
61350 45777
68376 28620
47553 36089
1471 37493
29598 6288
20761 25759
3767 926
62167 39645
12535 34536
41499 13079
52608 58701
19571 24599
50459 11618
4656 33206
41073 10111
9101 24476
41797 27370
48684 28943
28878 9232
46700 56069
14193 6398
24780 28316
16604 23125
64336 18742
11598 40305
17890 58085
29582 18269
22294 2684
49984 20331
21271 60044
1088 5749
28614 62825
1119 64943
12432 20576
37974 38765
67837 65820
4497 1773
39667 50911
27946 65482
55063 53310
28752 53882
16383 35548
8394 46956
3282 9216
40474 38158
62154 9783
59779 23223
36688 65388
13481 42169
48206 32100
24939 5337
25740 39791
28904 25415
44893 27517
15303 54138
59749 57085
12140 47811
15036 42287
45813 12334
19491 44739
44406 2422
11302 4870
28476 1311
6146 37835
62925 63639
63742 19659
40355 9315
42615 14032
15400 29147
24047 33028
9588 26475
33310 16159
15562 27130
36702 6727
31973 15560
33975 41513
49906 50111
4183 26598
18894 48890
52529 5546
49964 63746
2911 68355
48374 16047
68781 43705
57568 7350
10511 27907
9680 27226
49756 67937
1045 3921
58064 26474
64850 32847
65018 68706
49586 33042
36092 10751
65850 46345
33502 57
3320 20313
47154 55714
27906 525
10822 7204
55124 57428
33776 2876
12531 54353
12013 25499
22272 22492
53083 21631
66641 58697
37282 54962
39210 58981
50182 24473
33231 67353
9114 47635
41261 13941
20391 42331
6159 12026
41827 6446
22930 9487
24744 50750
19663 857
41235 32079
50285 41491
52712 58757
15934 51122
15849 35273
15171 12653
63363 26864
45523 54424
2483 53826
54386 63162
47637 25723
33172 15473
55264 16111
47861 64887
58853 30942
39507 22967
43956 3513
5110 10478
12099 34525
14089 52649
4745 5652
24439 37821
39816 5133
9007 61540
13051 54860
58394 15492
38380 5824
57265 56619
5629 19053
56378 58013
33787 63004
20460 23146
17654 18140
11984 7555
45025 36779
17999 67163
36122 60310
54868 27526
57864 12740
39256 47413
62190 48091
48788 59706
59619 33731
13733 60079
5153 62061
18925 50653
29870 45869
62352 36510
6853 42694
48593 11437
10256 61090
52000 39016
30771 56398
21726 3019
21065 36279
8021 42846
58034 10733
19375 6911
27668 44460
1941 14792
22505 53767
22024 58799
54006 54740
16928 25742
54733 60757
45352 32738
3514 37680
12894 47309
31610 38162
33453 24223
44161 57892
30266 8109
12201 57169
12363 59688
13636 50987
55529 63483
38179 6483
38325 24570
36163 46398
49001 11998
39872 42343
38642 2796
48843 16408
17456 27384
17127 32132
51339 56848
63825 18712
16599 22095
4043 28394
29640 24828
28936 32460
24998 61328
25111 53928
41406 60451
15146 55643
15046 2561
6645 4166
57259 3963
63198 10129
66894 60660
52192 648
66034 38598
22973 49101
33420 6374
31957 36838
50093 53299
57836 6130
26238 66924
5584 63851
56972 16938
20954 47985
40214 56600
20805 23464
42536 48078
66856 49784
45156 30915
21316 32850
32307 18451
56466 59132
37188 52728
45374 48730
37541 39214
18378 61253
762 53079
61433 12237
60313 29198
47499 18465
10824 16602
46640 48822
66634 18489
29539 12638
62305 32241
39316 54269
49844 56360
44353 24897
25710 16225
59117 15003
66202 66503
68618 42799
19060 21663
41659 6739
10307 67327
8728 60992
28552 64563
32613 32820
47083 42017
61373 60578
39450 32756
41624 9429
1246 25562
38223 68785
60472 48535
51744 11160
27867 10428
41565 54285
31186 46156
54310 26086
48255 21423
46257 38061
11081 18074
29152 46236
30515 50521
32150 47482
56337 19491
27534 9559
472 64829
6537 9825
53569 14797
60855 59102
48737 50415
62364 36144
56360 16395
5285 35733
11530 42007
6906 34722
63240 29292
2137 33585
62618 18153
2007 17552
31928 38128
30281 66401
55056 31625
41524 28854
61584 48169
39988 24371
40327 55270
58640 22063
34896 26740
32778 59026
11888 62813
23777 48213
30661 39042
44906 3234
25626 59437
36569 34403
63700 15160
32337 65875
36862 61684
2656 8984
27577 23152
31417 32114
55902 44612
29451 2021
37060 39683
59178 68702
7553 23450
47229 26746
4870 14870
4952 28198
58553 35867
42117 21619
41146 32105
65650 51027
40721 16532
38243 57901
2097 21876
5601 61067
2589 13611
54880 39359
16777 43399
67441 46070
30267 10629
5427 55891
9308 15941
39949 37696
20218 37082
7860 16525
2956 8580
64976 33498
66454 59842
5504 62266
47829 35055
36120 10474
50952 12294
47445 55137
49386 67798
24045 50350
51192 44860
35245 2684
61991 65311
9637 21369
33897 6328
39814 9495
54089 39200
41694 6765
34052 12174
42430 22109
68280 61529
22062 53925
30602 49488
5258 16759
28625 18020
62136 53944
50634 66014
384 30120
40947 4920
54494 18203
60734 20357
17104 63710
24812 22832
21854 21475
4689 25629
12274 32515
7990 56460
23227 4116
14895 61059
49016 63004
53244 549
40063 65176
67106 38158
33227 47252
62196 57716
9532 13664
34259 27307
5333 33507
65740 2567
14633 31987
38802 14598
12061 30039
29566 35396
23740 29665
59746 26727
31878 18165
57603 28073
43345 2337
28624 15076
1821 64190
48544 45687
50160 26732
57114 56991
45937 37236
45438 56286
47139 44221
56620 14802
13233 37798
9823 42704
24575 43555
25445 36186
5975 56498
15855 6818
53222 1299
47542 8378
9012 17658
49410 53780
47902 41047
3258 48082
36712 33623
35366 11661
51312 47832
6102 42478
45311 49163
14139 15468
49852 24420
64998 65399
5775 16099
8523 60014
64583 49285
25653 68805
52732 54258
14387 31674
50007 55969
12903 25882
8898 32995
29361 14819
42907 53922
47589 46676
68226 4562
64910 36566
51579 62334
23346 23665
50423 790
42212 32808
15640 5161
62447 47293
4807 33137
39849 68132
38541 32140
54213 25774
4749 33460
34759 22042
3285 1633
38792 51322
21983 12277
10466 33071
43971 22432
42364 43925
49008 33573
61389 44079
68819 46450
27284 21865
11432 1340
44878 749
10026 57467
44489 21903
22912 8183
1564 6540
33322 40710
23475 68032
38487 40521
52813 1843
10908 28299
36220 2696
32861 13864
7577 29016
50007 3630
26532 66044
56994 51771
34148 28696
50064 60933
62344 11317
39598 41113
35150 28022
713 24118
66612 40490
27735 66957
28488 28054
4056 47184
20846 4939
43914 11545
29758 121
28703 22222
2918 25291
47561 8076
35458 4951
18080 21228
24698 65299
3098 6004
11592 22982
11407 5443
41774 39070
49922 23643
2287 61695
26151 39839
11574 33514
44186 39564
66053 17824
59139 30553
2980 58372
3081 64959
10982 560
50354 10347
5253 7859
65282 16814
52671 57758
63925 6970
20394 66823
26199 31390
54045 9721
41201 57793
33661 35608
11385 65256
12603 51277
68159 60392
54167 28564
53127 15831
44630 30762
25828 65086
58970 57199
4174 56099
62411 23543
45423 49220
5472 22803
20129 29684
47085 21448
10991 61847
35136 44831
58775 34087
62015 53366
19262 6064
39656 67802
57902 33717
44406 68274
15761 29626
39279 26330
53803 44392
27025 28184
48754 64127
29321 27058
27041 9944
7803 16846
24400 58749
27783 26943
17939 12154
24180 50474
40595 9720
7477 40779
38833 59488
63326 13771
55815 40926
58646 43556
55555 33094
8474 26687
10646 11806
7311 57908
47629 4654
46963 45173
14477 41988
26352 25933
46611 8475
22090 54541
30486 25300
32250 34276
9370 43406
66280 60853
24238 49820
31342 57091
37802 45482
3791 34595
42709 51404
40443 4044
12876 27400
36237 42207
67298 47429
19937 44300
58454 39992
37811 41641
20077 20064
55786 56379
47364 30180
8498 37908
48374 4206
34065 60479
62183 24323
27807 57440
8993 60182
5115 46461
60378 14283
29805 2717
61849 26155
58666 18195
11444 101
68558 14799
11316 25311
60350 8361
27017 9172
53554 55776
24344 45268
35575 6673
62158 34627
15275 37779
11452 18099
41128 49423
59006 8676
66963 55778
7552 24356
30723 40008
39413 21447
65159 1369
30559 25787
58546 12130
1669 11356
17637 6387
11709 7712
22753 8451
26998 65055
18405 25945
61893 40787
63028 14227
65358 15884
2271 40535
696 10463
21317 34845
12703 53868
3726 53230
20471 24788
44967 7966
50559 51527
41027 59862
66728 48122
13395 35753
62924 51894
7930 40501
55847 63586
39818 24733
45933 49653
24716 18051
27249 36291
27793 6434
25577 53904
23985 7706
39734 22937
67301 46020
21462 3194
35121 20657
28166 26754
12873 52149
15936 36770
62252 25162
21711 30730
36842 47156
5126 25629
26199 50196
34911 42487
3803 66570
50373 19100
18166 6125
33231 7813
3797 55246
62034 50425
43738 58558
39245 47118
20703 17861
39547 37549
40087 34622
61905 20397
21850 50207
63847 22804
26326 20453
51898 19920
62145 30048
34057 9138
14660 68326
49830 23033
51629 7496
61963 54214
58527 38417
45279 66559
60720 58200
36636 61690
49712 58701
54400 34400
20230 42787
57028 59944
28719 36941
58762 5410
15453 35476
2245 54936
68066 15229
10301 31034
60412 63497
39082 23679
10702 16757
66060 5764
969 42522
3192 3332
64752 53523
22829 59495
33076 44810
17666 45111
38838 32472
56181 65019
20219 26662
28836 16449
23036 50909
63402 40374
63625 41149
30640 17990
36187 12854
10905 52887
4976 26103
60193 67685
18934 50064
38203 38070
5566 297
384 34521
18108 29861
11363 12534
5414 63088
11778 6061
66711 18869
38744 65358
16603 36478
44701 43307
38485 30898
33618 37592
48718 12544
21410 32723
66196 27756
23170 2908
47749 5828
54602 36400
60459 36568
21160 17789
16354 35468
6172 12648
28872 54761
60216 2200
52544 27621
34488 62778
66578 22497
46993 33514
17629 16071
36148 34992
1688 6451
19506 29753
18701 58001
27565 41028
36076 2001
58296 66969
29307 39552
13734 56240
38188 68725
28361 53715
10098 56125
61123 27659
7402 20627
32336 40774
67946 25271
67867 49025
14336 19345
20402 50557
677 44605
50066 63665
55583 26826
62456 17899
729 52161
54867 28939
55663 59751
6384 35350
56547 45492
60144 43148
55345 43513
40252 7073
10653 41824
3366 7588
32177 55961
35335 38060
49845 9949
58122 26410
32267 56765
16368 4142
24223 491
54682 12364
4085 56800
42183 1060
6763 52807
66777 36670
49584 61588
7951 60924
2905 3312
9112 41699
64515 58064
48026 730
4121 44011
15410 62028
57760 28686
60137 10808
31858 49287
16053 18971
31291 9908
66055 45566
55819 46118
3584 58804
43762 57241
38023 44055
35340 16625
41056 1845
51738 34681
29261 17258
6234 32290
68181 57226
46740 19479
60613 58142
24618 56233
18661 63778
39747 59625
39718 28053
45103 11679
47157 39566
20697 40296
52423 63955
22393 28901
68561 19482
66918 33785
63170 61948
67879 23202
67173 31204
66390 57796
45301 24842
49316 4947
29106 65438
38342 38286
22491 8365
12084 33102
20853 11386
12293 23320
16426 5173
32004 2525
25674 53342
29697 63820
28263 14013
68087 2488
56497 16355
42077 60244
42825 36213
27714 31158
35468 24210
67550 48044
41969 61120
39766 18195
17914 54082
55997 27667
14436 19665
15101 67688
4435 27396
50038 66395
21455 22467
39738 60100
68703 5561
39952 30032
23058 68074
36784 45213
34370 1285
44879 57256
51713 45691
62588 37395
35297 33854
28600 3790
10191 4645
58017 47064
47396 65526
65794 44409
42949 66416
65018 48764
29705 30085
64776 5580
51208 56524
64962 17663
15798 57137
51726 63354
60413 51066
56806 8518
26993 37318
26041 10953
1161 30286
43740 52977
9869 19785
28547 36885
28566 52796
64342 48202
56053 41243
57035 19070
16216 18670
49677 53626
67636 19444
60705 9582
45990 37493
7219 48856
2912 63891
23552 57264
53477 30357
27527 6405
52125 1832
14845 43420
7598 30753
49109 4546
33293 65053
62593 40206
49895 1904
7596 58870
59183 55088
10421 65069
58633 64996
49276 64041
569 61127
40211 57206
58509 5503
338 64365
31255 60576
68607 34847
47821 11714
29296 41461
56957 68747
17396 61137
51977 41577
41369 36035
29111 46961
3935 50141
8091 55098
6875 25369
56366 3713
45290 4759
67073 38620
4242 43733
64398 65350
18699 41814
22864 37946
34159 51454
12846 67619
49085 44950
36127 46663
24791 13455
44387 38085
62254 29934
45735 24125
2588 13335
7671 48690
49664 35386
64724 2427
146 17566
28728 5691
38533 2099
67665 61805
32172 16996
52085 56382
53072 21770
5573 53735
65658 7845
50252 46792
28520 12948
64830 7244
5384 63709
56194 26231
19672 24406
64085 58567
35267 33487
60204 35861
58327 56499
48823 28976
10542 3171
46225 58951
13254 22805
43466 49171
44729 60063
11134 31956
8724 62419
4234 12860
57166 15881
10306 41387
67744 11475
65105 46473
68578 54509
37194 45120
47937 61768
52772 48142
858 41581
278 64841
40292 57144
55556 32404
19404 17401
39418 64623
56955 12790
60413 51433
3960 14887
26861 26783
34745 21560
4485 29419
16392 26870
57817 28738
61616 8501
59427 36518
23878 3785
45834 12771
25760 12369
53648 49691
30211 33145
65299 33123
58213 10030
66130 5471
59319 41303
36820 16439
28272 35879
54721 55105
16190 67437
56066 61587
6181 35866
27475 26336
33125 56956
8561 34001
47112 31559
19422 2688
58445 23523
50750 64384
8666 65226
1811 49218
27848 44805
9873 60791
26567 50715
89 15668
32517 38233
32660 12410
58316 58817
38681 53014
11100 43585
9435 23735
2754 68149
31070 38898
18064 9613
66138 48927
2776 57267
59508 67936
13583 44738
9619 12501
28906 8761
11460 47289
18389 13219
21535 15533
62402 21258
56913 50455
16145 10457
47071 6885
56684 28493
9800 28252
28012 26980
24627 58406
55167 54853
45617 59910
66556 37310
23267 4558
27887 30265
51951 3309
3484 38918
44897 50529
13712 18947
56702 55325
60948 65557
58677 51933
40182 45995
40367 44399
64575 1142
65735 34933
28087 51536
16614 46445
13481 7462
60026 34777
61308 23761
63160 35396
41430 24545
20541 56277
57101 22642
7512 63819
56071 41027
9684 37944
13513 29798
41769 18198
51773 67940
6945 36571
35955 4773
11496 53154
30475 17592
56674 24061
36627 13437
39552 54848
52758 6175
53087 49286
55592 9259
59670 35422
61547 63838
29386 63975
47051 12596
62875 42686
46201 18756
22518 47119
41756 66692
30716 10810
22321 15293
7146 19359
65934 43749
66293 33090
16810 17345
56238 35846
5329 6310
51174 57733
19959 67791
24951 56666
28355 60384
23413 22836
62925 37033
38734 61476
59609 18017
2739 3777
16437 12889
3583 50387
15889 47102
39373 25091
48777 41646
30753 30892
66701 23156
24621 37372
33526 59159
51619 11203
42578 57565
41474 13184
34590 5169
35812 1889
44841 25112
3327 48987
19431 47955
8668 9540
2966 8330
33887 43137
56441 32913
18166 62108
41981 44084
46286 5393
56299 13921
49182 62977
33681 18590
2359 10600
2244 30451
36346 47448
11657 22011
9760 18371
14190 1008
67848 50120
44150 14427
30768 7643
25115 6842
4468 22461
5327 10344
28908 31709
14981 40815
20932 25965
54200 8441
38976 19217
10525 67192
1388 55635
43451 8063
29105 35950
48510 57153
2333 57738
48883 33657
26066 60684
41083 9725
640 20987
55461 21856
9952 63099
58107 35680
62908 53647
63251 18108
14826 28560
59203 13142
61155 1506
9025 2352
46402 46876
67594 34843
62565 65539
52235 45452
22450 35367
64263 13177
46076 57241
34456 42667
27199 63104
26052 22780
64307 64762
31750 67530
15913 50343
49457 53758
31364 28954
49949 29811
59035 40198
7954 36760
47507 26606
13955 11779
64002 18688
68505 8895
63954 42210
51369 3305
62581 56826
58836 49391
17699 1484
40214 41667
61250 31628
33620 47507
27508 47630
38266 7996
64909 55207
23752 31890
2697 68479
43130 1720
39305 48860
7479 45032
24235 964
15477 54590
61345 39306
39084 47056
34192 5927
56207 59352
14520 27680
16873 13676
34616 7376
54520 40559
18900 9614
63531 32630
18268 3971
22488 67931
21085 8603
7874 19111
21975 15557
59787 19200
49442 24727
37485 36379
4020 31881
51969 35965
28735 14724
26799 46288
44712 35770
57916 6397
44043 65389
25582 35171
64400 27861
38362 50442
20851 36218
63995 56569
23980 52256
17834 3062
59871 59636
2444 24399
43524 51127
675 7101
32950 32065
16690 22336
53032 38817
33757 61660
49621 3411
3242 25725
40547 12965
56940 5357
30918 39137
17476 8396
63699 37561
54062 8680
52680 51112
65055 13458
38811 58377
45624 27266
13553 65327
62157 22813
30231 61720
5887 11830
33298 60581
24620 6938
4692 67526
33291 39136
45155 19024
32158 21029
40725 1794
372 34920
58660 63921
42053 14510
43410 50551
22268 42727
58873 61668
30742 10880
45040 62390
31093 34980
15137 3833
27900 12692
67395 26762
7295 13552
620 54193
63118 64679
47289 8975
38421 35339
58838 34307
49229 54751
33992 36468
21312 9350
58361 32027
21062 28121
14486 49566
42811 49763
1068 38522
53500 11469
5755 29098
15071 28939
44920 25542
41025 42817
50254 3342
673 2856
7476 11266
9805 20965
13138 58581
51932 50756
68591 41114
39621 45546
18146 4323
60299 49879
18223 26692
5531 36084
6374 45449
44330 2973
48318 54803
43935 37542
38806 3471
12220 22424
32902 30126
56780 55240
4561 38092
48330 30610
42811 49172
20255 12676
1138 50162
28875 56185
11409 65879
46394 58974
58091 32148
57283 36567
38074 60465
5191 10726
32389 64790
33445 4107
59805 23341
15558 5476
31214 40319
21248 55296
6239 52422
30033 7946
64146 6432
45320 43337
14866 10768
60571 64030
49049 2400
25298 63577
16033 66855
38623 62341
796 59854
50640 61975
23921 31489
65350 5326
67569 44386
17155 51667
49950 53517
18222 41953
57606 66084
31439 25581
24113 44514
27105 24348
26350 15567
34377 39083
26720 48261
60125 26684
33076 51538
19944 60115
62948 42178
54596 34520
59732 50977
64100 25166
45857 64170
59055 64012
38034 27711
1552 68079
67503 27074
47236 34838
26012 28957
34708 33876
5723 31096
43369 67019
54471 6981
12434 44761
14688 56323
20090 27462
31789 43526
18282 33448
66800 10402
19691 21141
33330 5800
41772 51052
67555 4355
22642 39009
16281 13125
24431 2465
44491 64822
7719 24678
65224 30431
37475 40997
28882 62097
27097 18590
59251 19562
5473 39121
33363 27523
24278 44754
39660 48232
20072 50954
1666 48678
18670 58520
5302 60683
30725 46406
21425 40277
19139 34081
3380 44712
6379 67721
3312 48495
6061 27607
46429 52533
29233 21700
8710 40360
53153 19356
30397 54627
66961 68814
48919 67013
59252 30431
33493 41382
57056 35128
17109 65326
10390 14540
44852 28306
2364 40696
67079 39915
6805 40183
30927 34066
35146 59539
21507 28548
4808 18491
64126 31813
52299 46501
25078 67570
65850 59823
62052 14907
39416 33250
22077 50858
54135 27711
30514 38253
29287 55974
49385 6072
7111 52509
30094 50257
7451 51231
29668 53513
59197 25127
60687 40193
36141 46898
4880 47085
932 50884
21239 51103
68180 36911
17603 50081
11455 10184
48476 41690
44999 18031
50194 53647
66787 56817
29981 67495
24235 29142
47720 15486
28706 20938
26317 10209
7080 5879
44811 28001
63563 19416
23028 38806
26344 67923
19107 64664
37583 18839
24749 54731
64140 9131
19077 25986
33058 18295
39469 30901
16309 30033
3086 23840
6852 10564
49523 29024
27944 23102
19405 24998
41811 33485
1406 50050
32551 23298
8762 37383
166 37682
20110 20899
42940 67651
14850 34533
34835 56128
57735 51832
42114 28855
50628 3867
1770 12674
5698 15900
20620 38004
33218 58241
47383 58466
9180 26592
33292 6150
57299 11714
3398 65741
51772 61456
64788 48909
61137 49549
4693 45185
19692 27294
17536 7991
20350 65738
11283 68369
35258 28668
52802 56419
38608 65546
29243 66900
67290 15777
52253 9952
32796 21083
13203 20531
54957 10796
62069 10516
38380 15474
11929 36191
19618 39621
2882 21968
25552 11571
36425 37971
28338 40630
44015 67062
7069 2668
28878 27507
40905 19433
50402 63390
52990 15707
49313 43337
68653 19455
30776 63589
29198 42780
39529 48035
39986 22093
4474 53340
34187 6786
5321 7911
11129 3138
516 41290
17793 47876
49913 22359
10437 60771
45466 56735
49856 39748
34511 44284
53736 15972
22485 30786
36650 41139
22780 3754
1173 61574
68560 86
3298 17787
20033 42431
56051 47509
11503 64384
49903 21239
60221 16015
60947 21341
62090 49550
7490 20976
14271 20182
63295 20130
32543 32719
45323 30156
11874 51793
43944 24622
33449 21989
3944 12511
3804 61028
43441 6270
8188 16976
23335 23975
46789 54004
63011 50064
7932 50772
44034 12558
42361 33650
18739 7404
68733 58570
57600 26564
64704 21767
59391 57274
21463 5364
56519 42080
27539 22596
35532 1350
51185 3752
56086 8392
5416 3654
11714 34850
39108 413
8007 43631
1406 18459
44782 18383
66240 12885
8364 49841
66528 20841
64201 19589
26424 61784
8029 28708
62139 59963
23266 10022
688 32009
56540 47016
21571 41854
12116 66055
48012 16853
29152 55658
60597 21092
10722 12435
41665 8469
27807 44126
50804 48116
13153 61852
63769 61722
20280 54840
8278 50514
57197 39574
16222 56453
23636 59958
48475 17856
49194 36412
52983 24793
19537 35996
23965 52378
6940 20244
6750 9161
42976 39592
47624 54358
56137 11971
15235 21304
16057 45438
834 475
52218 41435
50418 1165
16026 57943
59378 7114
28007 44474
62595 58341
28089 38779
36240 8438
9705 64742
27060 13129
27614 968
21121 51078
51532 19986
34632 62754
1665 38471
13853 41148
52485 13393
21634 42614
28181 44532
21398 59956
28170 16310
21681 26629
31132 45790
19190 52754
7977 319
2413 68381
21294 40647
1020 49767
39689 3018
40004 63526
43427 16553
61161 22856
35626 56796
14376 63902
25778 22027
58505 19206
49878 29832
14427 47789
48393 5018
30174 14138
17590 30554
29419 53055
20829 63698
453 46965
35289 58919
62605 63486
122 32852
58581 21807
6374 41844
2562 26755
21553 49931
62458 3968
51003 1394
62207 16583
44993 57229
31537 32456
43460 21696
7544 51012
23579 32296
4579 5711
5977 60323
66680 44983
41858 8725
58795 18673
12558 51079
37729 52540
4376 30177
64874 58533
32656 4157
25980 14269
67531 3540
31441 31190
34094 13104
62119 7828
27998 28115
26531 59350
18498 48973
22784 45712
40938 7740
25069 4336
47282 24926
26458 8064
61521 30928
66850 46695
23791 39627
50992 32938
6603 57127
51257 54434
65153 32526
53390 35603
47874 29221
39791 56739
51671 66077
4112 3263
9644 26306
9945 34533
2670 55201
23129 12679
59217 180
64310 6625
3083 56520
50883 28334
61469 46459
13246 6297
18310 46791
17474 23866
62071 9975
62976 68748
51586 52702
61704 8181
10490 59536
24546 1158
7965 24151
14850 68042
57373 24667
44292 60634
9113 50323
42493 58671
12813 64881
39022 3314
1856 28371
27188 36409
33393 29504
21158 715
26096 48059
51381 27583
44603 37672
67010 24820
16100 13402
19319 14224
30932 34830
33371 22445
45829 16105
61857 35048
68169 25905
58709 27643
52432 11563
48031 30337
8593 6920
41704 2555
61836 5762
9119 8240
59447 11713
56741 23312
27277 42577
805 23621
27712 27021
51853 27041
57790 18382
3663 3286
10221 9705
47922 65856
2340 8509
11349 59684
41972 35489
35899 3346
46182 60883
28104 58724
10330 30706
64078 28986
39622 7217
1313 22598
34378 57149
27868 10014
40500 64604
32354 67588
58133 47266
52193 38648
37816 42521
50786 16579
24219 50423
56693 30322
16500 3060
52430 35056
62884 50953
17966 66959
30476 65992
21018 41964
1548 25028
26266 38398
36373 41489
22216 44375
59112 8067
7704 55843
5685 2980
66729 46568
64644 9612
3918 49053
36163 6648
36030 56539
60018 7692
37189 50876
51811 4240
2611 33513
43895 24934
42988 33854
7145 4734
19281 57296
47337 67695
3935 56225
55519 40919
55129 65815
36562 27724
4422 21267
4756 47666
62827 52844
59766 52744
13519 24023
58309 477
35327 21398
16019 5845
45072 19553
42701 42251
25058 13984
46170 52957
20930 4831
24775 44828
5975 18515
59165 42952
22593 25646
59723 64446
67738 8830
13288 736
47433 28989
9448 46710
43403 34448
60567 16480
31688 34188
42524 21571
2085 40270
61556 6449
2252 29252
49281 68087
65382 11363
22372 65758
59150 49168
37018 32990
52382 1625
24088 48284
12238 24343
12766 9435
5655 36840
14550 46063
32438 1244
64903 24280
34183 37193
45133 43405
40227 57855
20265 1939
12037 9974
9796 58714
50947 41900
48637 16173
24732 29822
54401 26609
32170 63571
57916 9808
44143 22399
23028 19265
63693 64144
9593 50356
40110 61626
10296 63348
8962 52163
59305 2422
4433 53539
9873 8559
54374 50646
61111 8655
33944 29369
46434 21874
51671 44372
1879 61341
32450 60945
46390 21414
49402 48446
7446 66913
43197 53305
22485 39381
53118 396
27937 45956
67883 26916
34740 11855
39397 56403
41472 27505
50418 67759
21668 18553
45885 8906
65818 35080
65070 9607
65923 25560
29383 47960
62567 57002
39764 1866
44871 38657
53149 63570
15966 43927
1860 47231
20259 43848
66962 14864
34277 62693
36540 67982
2078 47320
22452 24040
55579 38609
28641 57673
9131 61402
37036 53567
60189 39944
41872 11336
8628 67179
66874 66353
3677 17682
22539 2419
48990 60936
52148 46114
17176 61495
40364 14703
15946 4650
49050 11858
3365 56596
62038 66548
11439 1813
44543 36438
17994 61876
4973 45244
66068 45511
18762 7053
60363 1136
15109 1431
39967 21552
41866 36312
12061 56880
29717 57925
32735 59140
39856 27119
55090 20242
14431 41701
33521 51999
29988 23006
46444 49285
55243 4691
4451 44507
68341 35710
11462 21048
44809 24708
53239 25014
10688 68272
50373 62631
19526 22072
33496 28167
1781 25020
53654 26476
37187 46586
53818 8882
57872 18185
15298 941
47813 46297
28060 16718
31998 39291
65838 62276
4857 40015
45176 6024
49481 28030
13058 15059
52556 29799
67038 16070
14809 18399
53271 27477
31069 38732
63852 35798
3456 18028
58230 50628
17022 4443
43874 13610
63968 4398
32344 37358
51781 48461
17857 65633
32185 37417
21005 35655
11098 50136
25175 9368
27448 21498
43289 32916
60322 29804
63150 46178
31788 25426
68781 49381
59347 36371
37009 59484
52455 8320
37126 8782
51540 12820
24633 3779
3203 9128
25959 16630
68040 3131
63094 22203
22415 24492
55340 54727
22267 32133
36461 33767
59094 27857
46374 10859
51354 11961
25940 50445
24500 49975
17024 39790
5052 63661
38899 31880
266 45059
16917 13435
28312 8593
11957 43819
10742 9460
13864 53159
63887 35729
32022 34616
28564 54204
66738 37494
59357 44437
16234 22812
7614 19218
35495 17439
56213 31817
51449 23986
20235 10850
24385 11311
42535 48816
31652 9660
66584 41048
47507 6239
33812 63944
42637 9162
14767 47189
46336 38310
17315 56629
44528 1766
26729 42167
23882 50594
47793 44531
21944 33211
17372 8991
48764 29051
49638 45374
66510 18197
34404 62249
56281 15760
60196 66524
58806 848
18422 36012
56214 32374
56117 13581
29182 60016
23754 19983
61284 64505
60912 42498
13927 46992
1041 16694
41909 15352
53473 4690
35619 56704
14830 19730
6612 1023
1023 28626
3128 51299
23606 13175
62552 53472
37505 19839
4226 46289
65647 44774
26222 65787
42931 53956
23212 43806
5941 46705
50489 17668
51334 23887
27401 8130
44545 38503
64379 59791
62158 32547
26161 52562
19550 12646
7366 24536
1446 36003
35551 36638
33418 66622
58262 54220
27523 7103
25726 17232
24626 11943
60324 14271
19146 31465
23593 55286
1071 67852
35332 10383
27539 20522
12785 51515
44752 31473
39305 25181
40633 18744
68609 68754
6675 58509
67824 4754
48050 15432
28261 33906
8562 21340
24826 52069
36889 24821
41342 1900
66755 37619
61439 49362
53897 47483
50620 23189
51734 61795
33962 67279
4632 19874
59461 7042
47628 17028
52048 3030
25440 10748
23086 36423
20326 41089
51616 47769
14808 51441
20609 14276
30600 68628
3518 6687
25259 43235
18517 65721
12943 48071
48084 23644
31920 37703
12958 28373
20767 19858
25352 24328
42190 25269
8327 2019
46174 31032
35853 59490
58436 48257
50102 3923
44590 21660
8999 60594
59434 67899
43987 44208
13310 9173
12300 29183
17932 41423
55166 50727
46790 55254
57747 38186
24682 4232
61741 53081
26679 31297
21173 24275
67429 39091
29071 51681
19537 819
6634 50815
10315 7231
23447 44124
46907 35838
20081 58930
66560 26322
36226 66881
4436 6622
39048 19238
47101 36856
36618 15454
39786 50861
38800 34630
61175 5094
38327 66006
32015 54069
20443 7318
12422 10302
10812 37559
26145 53374
51249 13792
33225 63427
5814 14055
23649 4906
2420 51528
42111 4543
47416 57624
47586 31575
34647 24112
60857 13649
39860 36173
55077 7890
33163 8420
36896 61767
21050 3760
34313 9873
1803 21325
44868 63739
60498 55390
25611 40673
20216 40579
52335 66739
60900 5827
59408 17778
59880 43613
37272 8794
62769 13528
35344 67897
2882 39714
18576 32101
51403 17516
46394 57859
55262 11735
4484 16796
65809 29483
15744 64139
45689 48791
15497 64488
11455 3682
45422 50581
21089 3274
5587 60151
42371 7636
53980 52170
19361 28418
55926 32448
22860 36453
26658 9418
17075 47823
5548 61739
27832 11060
54098 36459
42684 26292
11363 164
45958 66472
61921 33101
44571 12640
2984 15034
1780 5280
60299 49845
49896 57640
11238 15498
26922 41342
48729 7422
40288 20285
4980 60625
17712 61457
18559 8867
25216 49792
10231 14664
21582 16518
50876 35737
58660 23483
49518 26955
22849 4032
21509 46660
64478 12916
33701 33297
7302 28900
58227 3429
63631 23861
1509 34881
38970 53805
48540 40192
51720 67990
39557 57066
24291 22442
39242 2285
38859 22703
12283 49143
13188 64146
10069 65825
4891 24148
13975 6482
43159 46373
24574 4049
14163 15363
36394 1256
39269 1124
2747 19974
32257 37876
19623 63234
48282 6086
9632 37131
23857 38506
63443 15105
31907 2160
45854 47165
41570 62110
55551 47298
23719 39701
34399 54260
58894 4670
54065 13455
30720 26718
26382 8956
15380 17962
44130 17880
28325 55645
12366 8474
505 64839
47223 28291
41224 37400
43203 27967
47704 54978
58934 54977
17239 16624
11446 8494
45527 13231
39487 34762
13284 62064
68288 34162
29396 60106
11878 39270
66667 53403
54739 24538
3112 36864
37278 22952
40162 57157
4633 64443
64212 7541
67938 18202
8551 30559
105 47612
25095 12436
8090 40772
68144 43766
18666 39124
65085 37174
30349 42258
34223 57463
55634 13789
21658 27433
39452 7494
14345 60087
34850 53515
46182 837
53866 46682
59516 47191
57028 27312
9313 8328
36760 43609
54078 39767
28807 7379
42571 15766
66716 4477
8965 22905
67806 19214
23885 51160
12136 34102
65398 3710
15384 46305
42618 13354
58340 33043
65394 65924
57148 67288
67184 22350
21151 7420
56331 16719
5283 1436
45382 26963
54545 9425
48805 43512
33233 23963
8284 40790
26636 7196
297 10062
12051 68030
47277 11688
43293 61421
64706 62968
50062 38123
34908 15533
173 38055
54420 64986
5633 6249
66302 53906
46433 54102
54963 67251
15745 10794
59822 25956
2403 56793
47493 20179
27102 60853
7347 37484
31031 41122
28317 2426
51100 67463
63246 48625
51327 30710
22710 36925
35654 58058
5125 64554
31609 9573
45520 18763
46722 59657
50941 9404
44654 67311
47947 10201
18430 37931
33457 9740
49763 10569
21287 35705
41621 48866
66473 1699
30213 66823
61573 15940
62159 16590
21665 16212
29494 13107
3071 53185
59022 24592
24265 24218
34684 50430
38518 18861
25700 24583
59849 44897
12094 32111
35755 5040
22198 15639
48495 50495
3630 24737
33886 48153
3741 20198
44076 18641
9991 41633
31671 26785
11206 15331
50861 43545
42715 6490
10677 56038
17947 16506
59611 62366
59792 37406
62930 17021
948 4801
36148 49584
20985 56794
43076 7172
41637 10510
37980 35988
35199 46671
13086 9983
14436 24114
60974 11597
44616 13500
36681 57480
3468 18711
20585 1467
41950 19309
15789 50582
13041 22059
33505 26455
36047 38247
57320 3954
61137 7613
62962 56632
10329 11429
3848 6794
56468 28840
24029 64070
60699 58687
5721 31754
25555 42725
52682 22488
13541 25526
58856 37569
21489 18052
29752 54736
1460 39354
43320 13359
1906 42472
33966 34748
27829 34367
22037 16695
47203 46340
56124 43377
56220 24190
67728 33572
50980 61743
26536 60930
50345 65615
57787 39027
31629 41204
1984 18036
13475 42871
54965 12396
18131 50756
29588 65939
36257 11199
12318 6671
23908 28575
61351 3043
24080 1154
31892 1649
34872 43148
57231 58818
7415 32377
39668 22521
62877 25199
51893 60012
13561 43183
7516 40203
6148 18253
53210 52170
49511 11216
49277 37177
49417 18606
26333 6179
11843 26936
20362 53678
12469 65837
57147 10919
40140 12229
48784 45910
59937 62779
66105 6865
7573 41252
55859 44258
52507 61332
61701 28261
44638 24117
38453 33395
1951 8086
41758 28588
35710 57408
17764 9893
9357 31270
28342 35158
58028 48195
38929 31569
56014 10732
59770 67740
22079 48471
54748 58161
63939 28179
54451 10129
39870 51920
68667 23374
10395 49877
38799 68367
25030 5337
33997 62242
62639 29457
64289 33415
43185 62797
45091 34251
67975 49889
35956 19177
41983 52468
9712 6361
260 56017
9826 62137
17901 59730
22688 8599
28655 47951
54708 12309
14695 42404
53022 34413
14822 19395
67734 37095
30036 23149
23400 15480
23086 62933
35266 41871
5404 19358
16855 59568
38423 52583
38670 54051
21181 16208
21860 648
45622 51550
17739 68408
36724 47684
65465 38064
36708 52704
59341 17656
17530 49830
63380 62321
66698 35061
37930 18529
68705 2229
42734 12956
25856 55632
2171 49395
36628 59154
36039 30658
4039 2731
8047 18407
42225 45431
65987 1688
8855 36959
16145 3858
59263 214
22425 24771
18418 59251
39745 15921
48650 59025
59607 33699
19280 12464
3465 61744
51551 67906
26164 5378
58758 5602
44491 62500
27412 62949
68776 37220
38009 64377
43852 66437
1312 42877
56314 43246
20571 2257
22421 34870
35207 7057
36933 20297
64440 32812
50340 29787
11477 5770
53600 12788
63612 52631
49685 46668
32827 28759
44269 49079
55772 19279
25095 42101
68721 146
67499 17742
50933 1965
39458 51868
23433 56330
36956 64110
28466 42113
37063 31948
30520 12451
11658 54727
30957 38435
59143 27618
12535 17046
5336 28146
49483 19369
42715 45596
17308 26130
18186 22078
30369 13082
20818 63851
66049 18964
46733 58075
52722 46252
29970 53085
56973 36847
63339 48695
12218 53696
16495 23717
6474 35962
27097 18176
34398 33374
6039 39753
208 64517
25323 10456
41463 8886
59520 14557
12861 55102
50744 29487
31767 377
18618 19122
59380 49888
9378 22199
43133 36532
55938 21198
47730 10845
20921 12127
12047 3992
63930 49390
48209 56197
61191 13806
39766 7250
61216 18690
32538 67233
44191 36899
35026 43746
14590 12145
44564 17359
11376 41654
13817 3317
27798 13732
66680 5467
17047 16931
12935 6710
52145 45772
32581 9593
14611 51156
45636 217
44768 63591
68527 33251
57566 42542
5077 27152
52916 14490
21991 34672
45511 10600
24038 11243
2705 49721
15243 20181
64318 6882
1156 1497
67086 20627
49674 10770
37039 8672
3882 51612
46412 5944
20643 39739
41156 13276
18656 65353
62616 54889
45190 37768
4075 64805
37682 26268
7917 17201
34000 9926
62068 61838
46482 37985
20666 56211
4214 14603
7247 19708
66036 3100
60012 16826
14066 62532
16438 33505
57833 9920
2278 66163
27943 42512
33243 58960
36685 35606
49218 36349
32653 48673
57547 61442
18694 64259
59733 56431
28003 29461
67282 13694
35005 1334
64309 33623
65697 55227
19 36392
50349 8756
65103 40965
8051 9417
15171 46744
14480 13120
54904 63636
31970 36311
48367 59977
51175 60590
9861 31344
24467 23291
44250 40011
38578 17272
12757 155
16520 28806
3211 68338
49995 36772
67485 17773
39077 15739
63557 52404
6310 63517
10266 25968
19227 43133
26929 15888
56470 15228
24114 7097
41876 31039
31358 52355
63188 19084
64124 67186
54491 21009
58347 21224
24685 9836
3196 63194
33534 6744
30675 20884
27246 66886
4486 25124
26704 28962
67284 15592
40937 21829
53701 22288
54842 4361
10786 49348
63016 38736
47511 440
53211 27949
21528 22198
35341 5952
6345 7896
25642 20947
62038 50508
64746 12756
66772 1410
47098 32119
16123 55612
52588 4527
23084 3049
43421 41680
4685 24015
60108 14402
15367 23484
8981 20160
59842 30643
28907 30507
55702 4961
65735 45049
64526 12449
30922 27679
61378 24119
67401 4245
41940 13109
59861 1029
43952 50871
44568 20677
9256 30989
40415 17997
53892 1195
29336 37034
33553 12930
38986 8291
62295 29078
12145 18552
1477 20525
40415 10219
39960 22754
53073 41252
58124 29787
18058 51355
44934 1049
47678 49416
8243 37347
41086 1199
66028 11093
8474 64559
32639 18237
55508 25976
60906 7284
64343 59907
16881 58530
42715 204
67708 4121
15154 25255
25951 10082
52538 6061
29375 62678
59740 5568
28625 2125
67213 60770
46328 33726
52424 33477
44621 10546
39738 32153
67466 56943
1251 47917
63690 57170
52711 46659
59967 6792
11574 14283
33469 61257
62717 45884
46776 37278
44092 11303
55222 26840
25675 3170
59134 6340
63146 4042
45153 14840
4621 62950
26016 24589
40416 18135
57145 9132
50481 18814
54169 21595
23901 41537
38331 64737
34323 38090
24137 66797
23062 60091
24682 51411
19463 60797
56661 52690
24416 36783
594 43697
66105 60576
65772 64075
20192 28720
45907 61588
25056 14316
48142 63239
64635 53677
14897 14745
35384 17373
30826 17829
18630 48819
26454 46494
42782 55635
16838 55896
43095 16576
23455 8275
2237 40246
18897 12997
64508 2508
43260 25494
32416 50800
9460 5644
63153 33819
57566 31578
66653 37473
32684 65228
37125 7530
28667 37283
30032 66779
33662 11706
63231 49012
51897 18645
22928 9570
33514 9088
25997 54466
12873 13650
18039 20432
40132 15130
4787 61140
40956 51983
67501 41584
3789 49899
39437 9499
43329 5615
37916 28255
4457 42590
49841 24608
47655 49723
56878 62097
38571 46118
39347 57779
7330 67230
13414 40105
65649 2671
11115 11648
24333 64564
28614 51021
65262 42609
35322 263
60567 25977
67599 17363
30724 39698
60257 10616
16088 60081
58277 36413
47622 16933
192 64852
7376 25787
21677 9892
48307 17452
25684 53575
47996 19831
53637 29127
23016 39494
51874 33221
42386 11561
43919 5796
46014 2286
56208 48494
31757 17794
31779 18695
61980 41019
40507 2654
11953 14311
44540 36640
33715 13788
55154 18110
58299 21890
39067 25943
13473 59817
27449 22202
56879 21242
66017 1297
39537 63512
54477 13804
67166 53633
36821 9918
41704 41070
4999 17624
50080 36201
13425 45627
37690 3674
67409 17674
51926 63712
38288 38246
47163 3150
20223 30221
41915 65956
54144 65060
8625 557
23943 61382
24486 55601
62068 67261
17834 40948
64824 67303
26360 34196
53900 52785
4217 19186
52397 9603
21114 58385
53754 3057
814 66290
63015 26698
1370 40693
64891 32175
51657 48531
37338 57025
6067 4828
67652 41669
52767 59696
20841 65938
3443 14029
4834 44482
8366 61833
17666 57844
54083 50874
58438 38910
66042 12859
18648 33509
40412 37726
59090 45809
11336 8952
40021 37920
25191 65584
55822 18932
54031 20151
20486 12381
60751 53076
67271 49451
41347 25902
42268 7570
6479 6603
44547 19333
3120 39390
64862 17244
64133 41743
31499 54973
230 54229
40143 10648
65342 34355
42003 739
58848 7850
6153 66731
24783 18795
68368 49933
58638 1736
59131 57989
3796 21526
18260 14864
58886 24536
57618 44504
6112 48408
28242 41064
21122 19653
63207 24914
56860 8176
37284 18439
26353 9801
46662 55506
17453 62857
21409 11792
39200 42994
3428 53554
61778 52403
39755 25616
64428 50843
15832 7885
66138 49436
16259 48631
44514 54298
67267 42973
21586 42551
52684 1061
10717 44710
10120 11399
14405 39578
30065 29050
26395 43325
38837 27692
46190 1002
30594 55186
37244 38831
5763 49773
18979 4111
44985 60162
46597 60269
62594 16808
41974 2940
24796 36103
8857 63633
16946 25043
34022 24174
30369 42634
16240 8532
21648 31962
64452 62810
58739 66754
31277 19260
64437 27138
42351 62781
18957 45641
35188 44369
67384 57327
12184 19829
62070 10459
59479 19729
14945 4853
52988 36499
44428 58685
63751 13728
50574 2243
16781 16031
14962 30838
64947 51341
35794 45788
59375 41650
53693 44566
3872 36810
30466 9497
4958 64467
67878 542
51024 64107
11820 7324
21620 20821
40468 52882
38486 62566
67887 52387
34918 37321
4279 38721
54419 32014
24488 44712
62495 34968
50402 24791
3577 13606
68676 65066
60111 17763
15835 61568
48574 37110
6591 16350
56214 40479
10424 60709
60747 66616
6592 47477
32060 14705
48650 37465
67385 29843
48227 24867
44161 40259
35270 33506
46091 43286
13297 28581
12263 56844
22207 48572
64437 54507
43606 29035
15690 58702
64565 68750
17987 34683
63485 50074
5761 49891
41120 51863
64439 21951
35598 20396
37647 4815
22468 55078
45508 2506
42040 25636
46074 23209
10397 13249
49261 50693
53990 4033
8331 45329
23886 15596
17320 15795
27921 19315
62745 45420
57296 2861
56541 22798
26926 12934
51401 20091
47284 22119
31851 37568
65730 37853
16369 36077
21008 12379
60865 9378
48649 53031
51850 33607
18356 27493
14691 1784
55543 20975
58168 55344
20288 42043
7699 56925
20989 47219
60571 25475
6960 5437
37045 39451
62296 10811
51147 12859
28199 30580
24525 32142
13381 2707
52198 4135
67235 35413
31811 60889
9220 13677
34169 26387
12744 876
4503 18232
32895 58649
3936 48620
67439 25631
48333 26338
45939 51992
7722 16687
17880 59091
52331 36982
42244 36804
59151 986
55759 37175
14951 7530
44709 23826
3592 10158
39222 12299
2758 10037
67814 61100
49122 55406
9965 49074
59639 10367
11808 37617
52285 33585
3857 43830
28926 63259
9447 62949
55686 48792
11465 56196
59905 28709
42864 50039
56268 25061
11336 8080
63615 35315
62707 4609
16696 17383
67680 34558
22899 27767
1924 34336
34912 14773
21632 40784
66714 23700
41482 9921
68208 36994
18991 42268
45361 51001
9408 10480
53362 12137
39443 4883
58411 5313
60398 38273
57580 53701
30437 10236
6518 1412
41860 52971
48499 44465
64008 29750
59129 17674
38709 58910
5013 40803
56288 28151
41528 15138
61871 37849
20807 63813
18488 40073
8808 56020
51462 16301
37520 25215
21538 37314
1491 652
35554 29265
23078 22270
6805 22380
5171 17147
31903 59963
35902 45165
51128 26362
18727 44833
58477 47263
28608 29865
35538 62066
11547 61233
1511 34701
8187 22583
32125 63235
40522 12495
66801 15829
14318 56614
13828 4652
64186 52014
14191 54207
37137 190
45572 14619
51232 6952
49131 23540
39603 68797
66127 24924
51313 14983
5011 14192
45537 65686
33771 58860
21894 56693
4014 58249
41370 42534
23263 11195
22178 28864
36225 45079
45057 46817
55152 7688
26493 8401
15424 52092
62411 52652
42899 49529
63252 26401
13629 34102
61023 35120
5684 52587
42993 2219
127 53513
31607 58666
13229 16548
15949 1102
15247 61290
37295 37187
56603 52349
1706 27923
65574 64174
37008 30896
27975 27815
13524 49688
56931 30733
34919 7257
36218 22897
11796 42703
3113 14419
61929 1012
52381 13849
1044 36660
58917 50043
9962 16133
34263 42491
53997 31628
34984 67308
38662 32918
19054 3123
3084 14453
12650 57958
1011 20049
42406 4302
66845 51951
37591 13830
68465 461
22000 19158
57846 30196
64799 45971
26195 38305
55678 30173
34934 52111
46341 8693
57539 15525
24870 8429
27276 68693
15013 53733
26949 56311
24989 26737
57286 53208
18698 5472
13418 13942
62470 56568
19631 49102
58731 14702
15526 6548
53511 15396
38415 13908
12986 141
52618 48895
34397 20451
9237 17998
67921 48847
55001 25889
21965 42966
58258 20176
26512 61298
40319 6686
34574 21949
39118 27531
32850 50693
19636 8672
63565 59650
22871 41784
9553 8488
35706 48361
39977 52507
59507 47803
67252 22245
17774 8000
68615 47348
60488 27866
32509 68640
63899 13095
52479 25061
8311 15820
22141 8993
34822 32370
54333 29231
45240 38219
25306 22290
67498 10392
7942 17710
17170 28961
54476 47690
25654 44473
43617 36595
15106 49017
60544 1366
48181 50025
12646 1118
12031 59107
24729 41526
35452 27461
35590 32635
50089 24309
30689 28000
1798 27806
19853 19738
58945 10777
8345 26212
53075 47622
34436 45317
30831 34767
64754 2726
32540 15539
8161 26032
68803 23371
983 20106
63714 51425
60800 45915
31064 13792
54950 47317
42999 25810
18978 22042
31726 37470
27731 16650
14259 16941
53477 29513
14781 63449
67795 48955
13140 15692
8088 38004
42930 9967
60301 33369
64331 19791
43290 9983
12143 20876
36369 37529
9770 4458
20423 7471
6170 30367
41538 31985
25809 8142
52979 58118
50877 32818
5207 40434
7417 33133
27608 13440
35408 39925
36046 48245
58182 29947
31373 38047
28340 1559
26994 43496
39930 47019
10075 12033
16233 66206
45110 49702
64053 11319
61340 53331
1536 65243
47847 65544
34072 23658
49443 38061
55736 6844
48828 17193
35075 57119
12179 1735
43247 46953
13610 62694
1337 43424
41075 7332
23806 43984
68091 676
51633 14871
45283 3448
28346 56709
43850 20752
18650 36675
19041 36981
11811 59410
24837 46712
26667 25595
47557 18598
32018 16744
55199 16528
41167 18899
12905 12628
57826 26666
50634 58451
48821 19847
39515 44479
45448 9258
27324 57303
33093 51958
43980 16265
35041 15349
21814 38193
46845 44597
66168 8926
8686 66162
43445 45393
4498 38785
39168 3518
5263 21161
17419 12403
1474 39653
26428 14822
51845 16931
13977 31291
2304 4589
26289 13474
68579 28616
30615 12614
62524 55451
4187 6182
12741 13356
2910 3288
42156 58242
62847 3538
60944 65012
34959 14605
44541 12360
7440 18694
45768 54610
25975 43476
40572 59800
66606 39008
56095 14447
24455 17796
32856 42189
54428 51584
35275 32887
29533 49734
2602 67181
61329 43160
1844 3422
22983 14620
64133 58513
659 840
30154 9690
65011 33050
57052 50638
21170 64953
33622 36611
4521 47440
33756 58592
24892 9645
13939 20936
12525 58556
52599 59676
64396 1372
26324 47866
15447 22198
22664 43642
41398 20314
13531 13721
47611 36664
43632 7027
39462 36850
67078 62906
13264 16556
23760 57970
12977 57807
6121 65070
33333 65330
19277 68776
20862 49903
39239 60753
36816 55779
45097 13899
68101 52037
34594 3214
66089 50956
45120 66177
65352 53254
66094 36788
27254 51598
53205 61670
30333 32300
56817 6244
41898 28383
18941 66260
52395 31180
44516 19315
44836 59098
15190 16182
43958 19092
41474 12453
5952 67664
49759 34117
21333 39713
32707 62726
56628 10820
55746 41636
33199 1628
42053 66265
65607 5421
21799 47913
35527 48672
63070 31006
58915 42217
51488 4615
196 16032
47993 45495
16120 9255
1409 32568
17415 66283
61504 21160
39717 41710
1436 53824
67361 3568
60714 49590
64326 66827
26545 19213
47577 34428
40043 43665
12786 28979
48882 49181
55532 66991
43815 14130
16072 38784
42019 26772
23098 22358
26581 66675
35561 41040
40596 2095
47912 61679
42951 13056
22454 64231
1343 51218
13825 39269
13965 5174
39145 8557
12287 24611
55454 53135
26252 37991
56709 32209
59743 28598
25404 50846
9177 15784
34245 8300
61766 46017
58524 59263
25910 24267
68411 2808
5020 28736
9018 36218
4221 36087
35486 50759
8472 18545
58436 32435
35373 21064
20118 44640
64713 37239
1348 45002
46226 47658
18147 28264
3695 26673
52576 52514
63496 30407
67000 64189
61748 13317
18534 2216
3872 45336
27163 38998
65020 24749
4074 54289
43141 11905
63127 46716
6346 17970
24060 30160
7350 36652
49480 28376
22986 10519
38914 55066
15366 64015
25533 35752
14932 12343
62380 17309
9070 8550
29064 55051
6292 66253
46251 43619
8652 47348
29062 15256
55308 26637
12492 181
30622 27175
39313 34101
7121 63461
36441 27826
17687 53100
49409 8050
22278 40161
5493 13146
48845 2308
64667 67789
56438 54417
52687 58952
51962 59180
49529 34012
45667 42469
10663 37151
1875 41207
16002 61815
32392 14103
2368 9600
7063 27312
30564 32616
15028 14964
46644 14415
60505 944
19182 45532
42643 60109
44688 22656
64252 40405
56932 6294
41991 19354
5553 35332
43623 8966
38346 9211
41774 5129
37392 23347
8809 7889
48028 18450
25561 33374
32553 67479
42606 36925
15623 39797
38685 55032
13890 62676
9139 6206
4794 52796
8531 29482
18937 28496
11411 17968
45883 32769
2223 51019
50163 58203
58990 6242
31833 3058
63630 66409
4532 8026
12289 60405
14131 140
52975 66854
20076 41375
4717 53279
45493 20548
52082 13151
11614 27941
42457 30125
58797 68374
18018 18580
56231 19447
883 44221
41288 18933
35242 67504
1577 38436
9600 13655
122 49465
23550 47002
6893 58263
59956 66335
49855 54193
16858 41147
5854 7055
54376 51214
51195 703
14221 52345
39793 67716
6853 42610
54289 39244
51360 7324
14947 55233
48898 64886
38881 6500
4036 21045
7450 40495
66513 12640
35572 15725
12417 57060
41396 43675
24536 33371
34431 49517
64716 25458
46920 43359
62102 44991
41357 35831
12393 57057
47882 54075
35086 12011
51075 30946
33715 33890
51961 58013
42342 66953
38664 59463
63778 7383
11720 5636
63720 37010
38794 62744
64167 61873
19235 31605
9201 6417
53617 19917
56420 52380
48399 44931
47308 14261
38360 32554
26055 64163
7855 62106
49668 58475
7912 36733
7724 23832
218 66133
13482 40315
62059 26536
19508 56903
39718 15807
21413 31251
17533 65250
32906 26902
569 46903
11557 16756
3881 25990
18764 33189
46847 36600
43361 28020
27509 53888
7381 53822
51663 31391
66275 34044
63726 45027
61237 32802
23580 1524
47454 32522
41823 14791
42853 19966
44471 50955
25717 2803
48311 34863
55239 25218
61742 2892
27873 54365
31063 6068
28097 21987
40637 41910
42408 48823
62347 35714
3231 66734
15749 8469
67972 59382
48856 57526
27379 4381
20190 12921
16600 7867
14995 35850
314 7162
63262 6157
13600 56535
14659 61811
46321 26246
20871 21980
12356 29155
28715 15954
62401 49084
7777 12172
62498 62989
30245 17908
13656 16562
25483 62616
9972 30757
61864 44688
53369 25694
40623 33120
27627 36993
3758 67083
57181 28828
58734 56786
58815 59886
43934 7386
49968 61780
52136 3863
3351 51899
20044 5264
3687 15778
42911 47425
31645 26054
57504 12061
31435 15396
46722 818
53269 23136
24135 12099
10723 19076
37686 30835
15880 40942
53438 33003
3223 17942
57924 68317
10769 16391
54523 25964
51595 18684
7108 29647
18710 47828
13557 33815
8920 2396
1887 57551
50567 58459
26937 27190
31418 9072
57589 58796
62856 64003
25783 68618
38727 60289
13720 3644
38854 59714
7265 8367
43052 6235
66443 40525
26414 29079
15674 16294
53040 12198
4843 42074
51936 33484
60021 7806
16672 56454
48877 4088
36233 49828
40681 64615
25536 33958
6805 31879
57877 1274
41382 7621
30813 45071
55685 29311
58278 26470
67801 60684
55848 15406
3754 493
67276 51899
52549 54606
4356 19106
44731 39808
7103 11570
7140 39505
28042 56112
29356 58803
24025 67626
21314 48824
2572 10987
14539 22391
18128 67188
56646 15507
58449 623
17332 18329
59970 52969
59613 93
37139 2600
57079 54935
37675 11846
1872 24282
25716 59015
49537 14972
60619 16469
19088 9599
66545 30643
12327 32123
43679 24572
60900 40088
10161 61176
46814 5287
46574 47587
37036 52286
50782 50614
37464 56736
694 43106
13910 15323
39900 50395
43532 59050
10783 30085
3575 65685
23855 37051
44301 17762
31966 60367
37959 42798
38540 52006
19286 60209
31277 60136
65097 2381
40662 39938
42468 40887
8755 54130
40172 33516
38048 22272
57943 7478
31094 39259
31488 50392
7974 26070
68280 66865
19343 13299
56267 61728
68450 36375
2067 25371
17624 24050
60328 7173
51383 27156
18760 33749
21619 10452
19739 49373
29151 10844
17309 64459
58423 18987
57529 52961
60958 4990
60636 67961
7322 4338
49904 5602
38886 5863
34466 34209
7273 13727
30313 8732
14811 20298
2464 65769
60093 34418
9518 22614
54369 52489
16396 50437
60219 12380
53430 20103
31750 52662
19234 47600
19348 13336
43184 56759
51352 62526
50690 28913
24637 54617
61364 45610
57203 37296
28056 43697
63077 41606
65189 49203
39062 22522
30607 48789
57620 50820
45631 33377
36338 48895
39482 42345
11530 6764
23992 55878
16967 3295
12667 14083
21845 59920
3765 46673
7894 30521
50009 52870
15252 11443
522 3581
37502 27134
64896 23382
25708 51829
25060 16638
1445 64389
7672 11406
43334 24039
45673 56347
34149 48285
60460 17491
11417 19856
67456 8603
10052 63815
53341 52133
4136 66380
1114 47834
31621 61238
49988 40034
60917 7246
41996 20781
11859 37176
36322 67064
65498 26631
23580 34831
68169 54230
56584 62503
63280 44139
27110 4143
45201 30429
41436 3299
11786 9516
59039 65622
62780 24060
6298 37525
15411 38061
68694 15796
31942 25519
4311 54151
50790 29552
52342 65146
38042 15169
50584 7407
66751 38396
31766 30629
50503 3655
13544 30457
2168 59881
59546 59130
18652 62493
41030 52253
63773 3500
8908 57201
51312 6183
10879 61191
62010 54152
4817 36272
49603 28416
10526 9736
54159 58830
11477 65274
26643 27111
43028 27674
5301 63930
9296 33455
61964 14610
18201 52528
11567 28835
45569 16893
12154 60977
34547 10619
22453 40253
50739 55363
36522 30074
22406 41819
62366 28943
46384 51004
56813 41230
53281 30344
1768 28046
20306 53203
41067 9117
40213 9542
40626 52198
46928 27241
2456 36150
67174 68004
16089 24765
30925 22337
26794 958
26806 22312
50026 10862
48184 46799
24447 32566
18384 58981
58225 25877
58804 43812
2674 64386
39442 12356
18703 45742
24689 9782
40964 32474
62903 18565
23054 64565
28899 45872
59039 41946
31955 52885
39373 61020
47875 22516
28047 7801
6402 33573
58648 51473
52696 12939
41070 50156
15381 67338
66664 60013
42278 3579
27158 68815
47888 12071
23426 5458
42947 16331
16471 53946
8769 68477
32961 57424
3919 35851
21948 49789
60085 46505
52442 20196
59894 57323
29619 23605
25777 67541
36253 23216
1852 11883
55820 64836
52610 22989
1427 9199
37694 56816
34555 6711
43280 29058
33161 41672
15528 60711
42599 41659
12135 18470
61731 2122
53215 65644
4170 42026
22754 5763
8247 50821
37655 38951
63446 67482
67222 35998
28278 59430
39803 66587
22462 57276
62840 38206
12774 43391
13953 45441
12737 70
39247 18447
30476 60018
67929 24641
2764 57357
53955 11400
59474 41143
11345 55956
24070 9734
25626 32853
21507 66807
55519 3520
58084 754
23714 32564
56719 59653
21284 63421
20537 10997
12414 58821
63181 8856
39308 36138
20355 54686
27801 8944
28452 11394
36923 32398
21837 9513
35999 8831
59852 23647
41598 22018
3315 6436
23678 46675
33948 9837
12156 1039
13065 1441
27705 8356
41759 12979
36450 30663
44183 10438
46726 64927
38299 46281
23965 49433
38917 58813
33869 29306
57682 43910
63286 2565
48253 53652
9256 32406
47495 47716
12983 62078
11882 4818
34437 32159
44115 25699
44966 51568
10593 40831
64867 31999
54339 13516
30650 6749
47979 46262
23479 8562
24592 19583
33453 41217
36463 1074
5130 37714
40491 12644
3070 46555
13315 4583
11342 50996
8985 21671
15388 13034
39791 34851
5047 54595
66033 35781
47137 43557
34439 20182
25981 22428
67353 11032
22634 48751
51095 22674
12809 33612
54774 36602
3024 67253
93 67289
65433 65886
30267 13365
37841 7607
67346 34871
59887 24077
61304 50797
1635 30802
27867 5571
56746 16761
51495 36118
21834 37464
38813 50826
6689 50208
31604 17596
17391 3790
5118 54394
40241 28586
54217 46513
11208 38222
38152 25758
10101 247
27547 64135
68720 25546
9233 521
26882 33199
31389 19952
16321 36463
53103 21801
26848 19421
4018 13997
58636 16059
64682 32709
22541 57032
29421 58734
63461 4319
8653 32931
68791 1708
12713 26758
23879 53858
41271 7624
6975 67275
34706 25287
59660 8770
899 20923
67572 52905
662 2761
51125 53490
4898 34640
30081 9274
20522 57280
62570 15134
34393 42191
61047 30832
18544 32749
7329 35975
38249 65992
43064 28562
8126 9411
17996 29597
33482 9117
68489 39663
36780 58941
8186 38075
61297 17380
22170 19566
40502 1982
52137 42185
18863 59459
42388 47723
7140 64614
57499 29283
52669 60566
4164 55284
45712 20424
49078 24798
39317 49367
29062 27002
50109 62566
25592 7889
33559 36383
19045 54041
25781 5530
66628 33893
13341 20694
36742 51342
51465 39528
59291 22448
62924 11943
53509 16651
31072 52846
47359 62264
9755 31983
37027 58637
9460 2069
39613 67243
18217 16825
11417 32168
27185 41537
47965 44745
39796 17218
2190 1314
14483 35581
65252 21030
6127 67987
4799 30609
21870 65654
26132 12538
10897 21402
38691 10929
63716 26454
63608 49394
50624 1110
53722 5077
64595 53706
51071 41920
64716 42741
35153 60349
31013 11721
17619 59076
37503 6471
23825 3346
33231 52583
47906 54315
25440 15488
67693 21869
66699 24113
13971 36758
39866 45335
68098 47917
66477 55941
39176 36974
19891 33510
5583 42879
44804 47378
23630 2372
19223 49756
41250 60315
11903 2146
46216 62578
7951 61840
57500 17993
57050 38719
63578 29726
68468 54007
33163 40891
13749 67725
6903 41838
20798 9042
8030 66280
72 7347
1286 62516
49900 30890
32059 8337
49893 24114
39951 63559
1761 57916
49914 36839
57797 9772
24475 48268
44289 60770
10741 39663
25081 2237
2408 43725
60090 16075
6875 49364
67506 15266
17862 46267
19592 29982
5998 30865
37792 62726
53831 40058
15341 12953
23392 47091
62791 15073
42039 37191
29141 51063
887 26750
36444 54313
35348 36812
16046 62272
31508 12185
36841 40453
6750 53520
50565 34075
65363 16134
57476 13822
9248 1123
57080 31682
387 46534
31444 15936
24706 20424
4895 30802
22640 25292
50489 13570
15578 36895
63472 21817
6238 22749
48756 5910
54682 64939
37962 68265
60941 35146
3171 6573
24528 1444
21123 37546
6367 37495
59374 37527
11910 44389
18096 11494
44620 62627
68563 10000
34650 49411
43383 23009
12682 66668
53679 11055
36726 14744
7361 9117
23423 54408
25606 31659
14680 59680
36907 58586
39990 63660
8595 23004
8707 68810
64382 4145
44703 7227
13281 7868
67185 38035
60425 14261
49868 14829
60794 64051
2526 31669
53002 12860
53457 39610
45717 22853
66505 52362
10138 15273
46353 65155
24000 7123
50942 31912
4886 66012
33217 48544
27879 51621
63097 46295
27018 45127
41035 56128
46074 59463
42125 68479
9873 33456
56827 1532
37813 16877
58330 25662
60655 27580
3234 26355
24130 23135
29498 7762
25451 40480
8574 45064
25795 46081
1664 109
40304 4282
53670 9129
16282 26684
54624 18701
53322 50259
8984 46270
30875 59805
3053 11089
56170 33220
8133 64097
56355 31729
35378 58913
40267 36472
1282 48356
26397 51873
59794 66295
10685 47258
51241 9717
48638 3003
49678 53092
67146 54488
40611 61930
28296 18092
31387 11144
2959 65492
66656 43677
55921 37224
60958 17310
10239 35013
58363 2137
50523 8038
63232 55161
13405 68509
34930 8523
52949 16380
63841 61936
67812 14480
61806 5920
42028 15068
30379 29700
48203 3139
26190 62552
44948 66011
40621 7463
53397 52235
62134 58557
43700 11568
15909 12183
36498 55477
33966 43172
46153 33578
58650 45913
38854 41079
8044 64250
53458 38312
53506 57904
56425 54102
55719 5470
65926 20312
40363 52770
66617 8422
22073 30217
18467 66796
34997 44256
15090 27147
55694 50699
16485 37147
58207 23457
60431 10022
37294 20572
32832 9944
57104 63560
24230 46377
60469 6738
2892 21391
231 54062
40658 29454
66883 57198
31100 58354
62668 27144
32997 43161
13647 2791
41762 9831
35742 12117
58223 8694
19611 44584
18631 20146
14075 24856
5451 32743
14528 1777
14425 43529
53202 10564
64701 1751
10262 67420
47698 52963
65328 32929
65499 10274
47992 20473
40545 51834
23154 56808
25580 32062
14123 38262
1127 25156
48119 7815
49822 22644
57688 52396
14171 42146
16000 27075
27447 50376
17407 56359
20381 41443
53542 22073
67365 15011
25963 31339
46364 19812
35438 28513
38738 32240
8378 56135
11535 13641
32863 546
36405 43264
46661 2675
27049 47676
57241 20772
46941 27594
42884 14369
51530 50709
35978 51694
47884 29126
54648 48781
1588 64072
48729 67160
29858 34408
68257 19624
56509 53666
22335 55659
50783 48572
53782 31525
11596 50046
61993 62734
13347 3991
49754 50588
20611 48382
38715 58874
50852 64057
49048 53218
12080 29936
6808 48586
32052 42857
59477 45838
49889 36136
12911 49072
7521 7627
36425 59943
66860 51221
32979 21875
23544 45780
6519 656
26017 1090
36616 42393
23425 60427
17451 55343
24019 24034
45496 40092
3304 14021
24046 41187
41832 37100
48665 30004
21216 9188
63065 61384
6241 16591
16962 40634
30433 22887
50324 25954
7761 125
6729 43982
20160 66281
40495 9657
30674 48279
55029 46587
3981 44045
39076 45646
46691 46655
58607 10527
33880 37022
25574 28476
10421 4723
31386 38263
66069 3729
6752 2592
63192 56375
36631 17677
33802 37814
25702 31858
32178 33056
36608 24273
8825 21254
25655 17208
22112 53880
15823 13856
38573 366
23225 37627
23233 5151
58663 65066
66834 52125
32038 9030
36208 21653
19991 13490
57913 45363
24957 34110
58100 58578
5046 23817
38032 2957
40288 46078
50616 48512
34246 33919
30082 13040
33368 8779
53710 51093
60784 65671
11790 29918
61808 63196
7857 24056
53555 21312
25319 21690
67471 63130
60015 25321
43536 54164
55928 68397
3243 27289
67425 8167
36271 32615
38633 49759
57513 44044
57965 4172
58871 12744
48792 4629
15538 1677
3535 66970
63433 50633
56465 56374
24918 7862
23183 49453
57172 2322
34481 42115
44367 2039
59058 47627
67205 42021
48518 1747
56270 59417
21656 44907
48312 3961
11904 61097
43274 24818
61630 22766
52274 28333
27429 58597
41673 46381
13825 61337
47338 20506
56428 57630
36926 36286
46489 38142
33409 17429
27383 12830
24158 47420
58870 41681
36523 23947
30563 26998
15920 8935
6787 12058
7589 60215
6588 37870
1720 67219
481 65585
51671 49126
62306 36813
45354 13290
34068 20876
48416 66687
23721 11393
11641 52194
13907 55877
26081 26892
40178 62224
24866 24284
53292 27548
50327 65562
6918 12034
21846 58682
60368 47423
23585 14346
37615 487
44895 36308
35754 32216
21972 52279
62904 46478
37920 55714
47979 64458
24901 63099
35216 46184
7024 26759
15162 37596
20449 29116
40974 48575
231 5037
24304 29711
17621 34959
57331 7877
67801 42652
33321 21305
59925 54047
50829 16057
15315 17460
29564 53417
57376 12402
39079 67209
66943 43417
19912 11499
28975 14594
24711 27096
49607 21538
33692 349
22169 37235
52509 49617
5766 52004
36349 43316
65937 66564
50144 64756
55677 41850
47276 43075
17655 40846
57984 54261
16555 1815
63512 50980
33446 29913
56195 61734
65769 40119
107 24266
31253 40824
40856 31554
26819 30194
10267 67386
152 309
14182 5
3545 33530
46604 29495
38153 24502
66833 44170
13404 53486
19390 61109
41500 50026
47346 25013
412 56563
24927 8023
5223 24697
53572 43911
40536 25873
54502 12385
5431 33240
35169 32320
60197 4868
673 64433
65982 20618
23281 42984
48889 21974
30178 26712
30379 63795
68108 31336
20037 16487
9594 17236
30793 25509
18429 50788
11669 43199
32928 12895
26120 24260
60195 23531
59343 54714
10445 20931
57857 16339
11173 26736
18960 60547
23078 24839
58878 49123
53268 52756
21192 16334
73 36743
19437 13750
41884 42619
50419 33228
27457 54
3379 15660
65265 61358
35836 62098
50611 41866
39336 65898
43840 8065
53464 11059
53293 53252
4213 63022
29446 61318
36597 805
47180 40565
3654 66233
52846 64818
50152 17505
17911 18009
13922 32385
39526 4167
10088 62083
24314 533
63359 250
39353 89
16311 40536
14275 16598
708 65368
13898 57165
4202 62021
67692 64222
42781 49761
3781 57613
4837 1661
47593 1203
61573 27908
61293 7036
28152 4659
47003 45884
57911 25696
56611 18095
15066 26305
27655 14266
2350 29220
24215 34859
30575 22704
55614 30028
66525 3897
46571 67869
49777 41981
1959 14138
16160 25798
24696 68055
53687 65686
23964 64284
46146 56109
60844 24982
6450 49050
61518 2960
9702 369
25393 31484
12911 44295
24266 24233
66345 59693
7757 28918
35567 49958
1308 19573
45931 48354
23023 12240
54836 35983
3863 20846
36553 60255
61788 44676
53293 13913
20127 44544
43466 48986
44744 34584
28850 45283
13794 2355
60260 4893
16386 15755
59460 15672
55990 49058
31703 34443
31087 7141
3356 21628
36678 2346
40568 5956
1337 24724
36364 42102
33379 16431
9257 4933
6098 37007
66440 24365
12338 2478
22710 24909
42353 65717
20804 56466
27364 31690
65701 10468
57639 46211
43281 7043
64361 17343
21444 65562
6433 40421
12857 31710
45456 41359
41084 41347
50990 25715
11631 29851
38548 50124
57525 10292
18615 52517
12199 54470
57410 62477
47744 23877
41804 57522
68058 57545
24643 10316
36173 39945
16083 36873
58082 2837
32293 66968
9647 28438
30657 7722
11670 37724
14142 7519
21503 49549
33350 31689
38324 60414
33770 9584
42278 61623
18240 57748
4698 50841
24794 42203
44762 22853
63089 54368
50914 15411
61310 51021
20564 18129
47986 50975
61300 28961
3778 60472
38586 23737
59483 62915
21761 36421
23639 24067
22888 36547
50974 15497
37083 42709
6957 25975
16828 65608
57569 44445
47683 32388
52855 63396
59854 61525
23054 62307
15214 66821
1045 18402
6354 20501
55434 35607
12107 18218
40096 61283
5001 41232
39634 13104
3411 53454
6487 23670
45581 52449
23329 62748
19769 4793
7190 20359
49313 20700
56195 27111
55480 64992
50414 40167
68102 58571
9380 39019
25736 10089
41547 13693
30608 44407
34013 42290
62381 2981
49403 19287
47304 66464
47404 43259
31198 64776
59901 38550
7012 30133
11987 23911
49744 58939
65283 38144
885 14097
29301 50168
15895 27653
18763 44583
16920 3186
45694 62520
40809 6473
3467 57127
62740 44931
63426 49236
1139 56854
55323 36952
2413 34461
63250 30810
53383 62005
28110 54696
27513 2793
47998 42080
45959 24208
53154 23561
36327 8785
63236 46194
17890 51467
1600 67784
55563 58063
31648 33836
25296 8006
53754 14015
37487 479
51282 63220
36126 26859
55451 17312
59669 32029
21975 51522
50061 55740
11402 22391
36699 60029
18890 24003
58500 31859
33925 27620
3878 55958
29769 57533
50941 60294
34115 59433
40208 2740
64752 65175
9281 39083
63006 43294
47662 27594
58609 33001
14454 27761
60447 5757
38387 50014
20 30958
30023 16036
44724 8079
6871 63784
13229 37767
37833 50888
37490 6784
35908 6760
18281 36775
19773 46067
11458 32828
32540 52182
19689 18331
11260 45997
4760 56125
41725 5759
8800 43438
39695 59415
47936 18874
56326 35256
14653 26219
11378 26544
20854 51260
47583 60505
60734 65838
19540 50123
67058 44024
17835 9832
44143 51516
44075 30139
34363 8316
8869 35762
59678 9544
55580 33246
60213 8097
56091 27468
51377 48762
30263 41737
11123 62469
60038 13113
62283 60475
30684 16131
137 46591
65720 44674
37479 27801
16414 63314
50405 33872
19433 27346
53041 30705
58171 12938
45240 18094
64778 31007
47958 10171
11321 41207
20458 39102
68039 31780
62989 50918
7949 10951
67422 52794
46441 18094
16181 8164
1455 3415
14335 57260
1794 6820
9785 44103
56404 62673
31844 7892
36491 23161
32163 20856
59839 29273
14285 48070
35182 49690
8669 19727
43998 49316
60746 46180
53983 57196
26819 41897
42725 54378
29824 1944
38026 61597
6144 7065
43915 54560
52875 26057
31209 48429
59553 39859
39513 60927
49478 48149
544 59536
51599 56721
7429 468
35609 57443
45845 44942
35372 14045
3853 68535
34695 4105
43989 39094
65272 50612
28915 35964
61113 34507
37658 58803
66065 38877
8856 5689
63559 34631
52377 44504
66589 40859
11421 59624
11903 39328
53825 7411
62776 19420
48600 17849
58696 40213
24368 31632
40594 13313
61143 56160
41482 42243
42412 22221
15553 60685
20065 48664
39925 41766
29624 7567
8843 26064
53303 65124
42936 50310
67254 44180
63978 48458
16812 28241
56974 35270
61767 28006
68172 5044
52690 57461
15346 44256
11813 12530
15691 53524
37593 58559
34037 2970
55671 50391
15026 11645
17969 32259
6704 5773
46898 60965
17004 62410
17581 51937
21154 8118
45458 36635
48704 22429
61853 3795
24187 1119
14398 25420
55359 6063
66485 40356
31064 32087
61188 27273
39047 48410
16413 50421
29091 37242
48429 8793
58915 13228
66893 20231
25758 16067
5974 57822
2005 59957
35262 9882
42246 22420
8214 13620
64889 54672
19155 61741
66982 52032
46534 8795
29448 7041
61186 37124
28826 59030
17811 15445
24084 21779
64476 36491
19213 6991
22591 63281
3060 42016
33442 51879
56100 65356
61516 34851
63695 66590
14974 51956
60700 16364
40093 4657
8212 30312
34624 65973
11896 33250
37909 49754
15085 56445
60346 33787
39266 33881
66934 60565
1418 635
58254 61938
30973 24146
45524 35145
24964 9287
61784 55887
10575 17377
61306 36239
21725 36736
3266 44731
14116 26154
54079 6050
4704 15870
42193 57403
42975 14510
18794 30391
23758 28885
25774 3594
23860 8969
22015 44815
39207 13772
20675 4182
61763 64776
19339 66118
32356 57511
425 9979
63061 24284
65943 63256
10023 44061
45478 60466
28246 44213
17619 16745
8303 59633
7412 63933
10500 8472
16187 47331
21097 1588
3158 33164
67360 28557
67528 17841
21607 52118
24172 61221
43950 42356
51673 33012
49332 53382
22716 7656
44355 47798
62876 51082
50371 22209
19344 20907
20278 67068
2648 65994
37700 32747
53474 61024
57745 53250
65090 50003
51177 5836
44109 22852
32663 6730
30497 43277
6979 21756
54476 25552
58143 18461
37168 31428
27648 44309
16196 28896
61249 66366
30508 56721
16901 51377
51825 9990
37429 53848
46952 19834
36028 50020
50487 3407
57773 45637
16437 28590
25325 44554
7058 61047
58123 4806
22791 59937
12402 25312
41922 11311
27875 29675
42336 14527
39834 1980
29 4600
65025 53903
10700 51852
36582 22070
51358 38531
56570 35400
46853 41357
43647 124
37756 40693
35280 25437
39428 9764
29553 13462
30625 32602
57848 54084
45940 13011
42754 62743
58542 42333
43735 65987
2893 45148
49688 46454
7254 34346
33389 18264
37727 30027
21165 4415
58347 35401
13644 48010
41638 45612
43810 56348
67324 37529
53404 43556
1988 56433
67719 35570
34922 40112
8391 45126
57714 9864
33586 29615
44457 49210
6370 14545
64990 29273
24408 19254
27031 34663
44426 30307
46670 7666
46230 34184
41284 28267
14024 68196
46310 13730
21074 16053
25108 48828
31934 138
62348 49118
25154 27536
2990 67955
9010 41312
27684 16332
17106 20665
38453 14347
30532 55397
42172 51675
27997 45741
13913 54784
10277 36794
59702 49109
55045 43068
48834 41620
9180 42265
41362 38182
35935 18447
38418 30163
17732 29417
31758 45751
54328 6150
26915 46021
47760 58997
27902 53067
28195 51906
13221 62290
59891 61445
34893 36762
53104 33834
68159 54551
64686 48501
30782 11575
35988 35881
3426 60669
7233 3344
26363 62570
7756 32282
1213 27447
27467 55669
47231 21405
65503 34976
34658 46724
16473 64058
50849 752
52093 10708
12557 13820
17864 16579
38613 68389
14006 22721
37084 66729
62570 22126
65167 52756
9880 6885
44716 4148
38871 49526
44794 41086
40823 19911
17524 21258
60871 33633
39881 35303
17839 42826
16475 17393
18523 54983
15586 10992
21828 64244
51443 35736
51496 19896
30478 60463
19043 24448
5828 65972
68465 12990
43082 6091
52441 52425
2096 16734
3458 55857
61106 58392
55681 49520
59919 18299
19173 28266
49975 27691
64447 44018
49874 45400
8848 39209
40082 17630
40292 15430
41091 32295
64337 46140
14399 46060
2940 5756
4468 57080
23340 15393
53816 32892
28572 45476
66532 23680
37451 50518
29361 54505
5044 17947
51763 7767
19567 6580
12506 65729
384 61041
34297 59164
22337 35936
54027 3017
16720 18717
26005 2577
44531 20955
24815 10240
51429 31066
8509 30792
1508 3734
20387 24865
61043 17797
44125 2034
55917 22071
44982 39467
2781 41391
42154 19407
3172 32707
12027 62854
54230 66016
63105 50439
4231 33251
58050 34567
59868 59033
55116 49745
48320 59024
11723 43848
64142 32232
31461 12087
41876 63882
20176 60739
36452 67057
6002 49824
3064 19789
37011 19017
53169 343
3625 14855
16332 66910
57444 32539
31766 23100
50811 51664
48125 64004
26084 25740
12062 66779
18913 5163
5072 17760
23128 22135
45636 41097
15637 67652
45597 36448
36930 48577
40408 38308
54615 35822
1929 3161
58972 40376
13094 25780
43758 60564
13764 28432
25590 66140
55881 7539
66159 48969
48632 30374
59810 18688
15102 5204
54351 61220
62884 38415
40563 28222
20652 39967
35897 36699
31193 40309
41141 52592
60486 23557
22274 50647
59801 20004
48335 37168
46532 47718
1411 7783
5085 42729
35576 20447
65686 3499
35744 51349
2517 38239
9419 55071
64369 5827
51860 10750
46439 36459
34525 67138
53483 62909
21498 45034
49592 8526
5854 21456
57059 26413
39459 31283
6398 43523
31178 57617
20894 22273
1011 53676
61173 27928
1144 8120
53215 50406
36043 2405
1931 50812
53939 47988
45176 53848
63287 52448
32746 61368
39424 26409
9529 64665
65600 27238
1632 27558
61147 47381
30818 61606
53246 58689
50889 38653
67930 66309
18547 14630
66461 28982
30371 51922
41524 7543
16438 65381
47196 40983
4943 39993
33834 32552
14410 39627
27742 43601
10816 23859
59932 37677
3468 22934
25866 28998
62213 47535
842 2775
68213 51942
3672 24027
61810 11615
39751 29345
61171 51766
45983 13639
26018 61652
51660 65628
20548 4394
36161 34390
51363 33144
12897 39118
21256 37271
60441 48899
48540 38643
36720 52259
6368 53818
13387 47187
29200 57887
777 62484
27362 24071
23159 57806
47080 20302
39267 65056
36059 16612
63400 46054
18961 12460
42736 34524
25714 27423
9335 373
14990 35628
57436 66288
6818 64247
41882 27096
4712 15588
53101 37358
12946 29763
35970 4978
52572 51954
36333 41124
47286 1762
61167 14835
67819 16188
42238 40610
8169 45962
37677 46010
4423 38916
5419 19625
56581 30413
12276 36623
16084 19949
35119 60024
42584 53369
68226 4048
12391 6528
55461 1113
62649 67750
971 11585
5018 61375
39894 44484
59024 50862
5854 51625
30837 51141
12844 14197
52359 8365
7229 26737
55486 3745
47314 21289
39834 26530
66474 2577
4750 39826
42118 61710
5098 34486
58505 58413
11103 68585
58494 19112
63927 39572
65960 64484
58383 45281
41620 37003
11139 7681
53836 48791
57785 41602
40181 45658
67108 15462
52336 14017
48127 13997
6444 8163
44831 59720
22826 45980
27986 67028
31705 4436
36684 15697
17008 48387
24898 27024
15054 45207
19576 4589
63673 1461
25856 29789
11047 30654
62214 22904
47317 38987
55947 5949
60139 51660
68592 47659
1575 61008
13937 57471
58095 41619
66595 55428
14375 14615
23788 62162
57885 35643
15030 27924
27130 67367
42525 40521
60932 28724
33044 24197
14554 50585
23864 7789
14032 42639
57969 16894
56767 7783
36319 15727
7560 17245
2087 55224
23390 37821
50735 19638
67076 62693
23153 57862
3236 23998
5642 34756
36575 10480
53127 47485
42734 36333
23182 15930
22963 44020
13990 64480
29668 5074
38152 42856
13134 25407
7599 19266
38724 4006
16398 26444
61462 17191
20484 53750
28705 7620
37085 31133
67192 16758
31562 36413
2977 22603
16099 13717
19685 13643
42436 66296
48703 54847
42547 3049
41127 11630
57546 26295
59283 50922
59287 27193
12795 15328
42112 58968
8221 35143
61056 9754
55074 9240
30431 64536
48176 30967
21490 12650
65561 7225
17388 9031
5361 64221
1122 29777
49211 7343
28693 15385
9851 49603
37768 25136
57251 67656
42544 66362
56961 24465
53825 33783
50318 64874
66530 64421
2936 60802
25160 42629
29275 26120
26925 6687
37266 8468
59379 29407
4645 21792
33939 26004
40306 64031
19163 5082
57462 3368
35661 3759
64218 14920
44638 43010
62324 35521
61744 63276
30692 12005
17569 68007
14402 50682
3886 29564
54940 40257
31479 21416
28054 21150
28680 3543
27152 10234
26660 52507
2104 61159
20005 36323
50374 65212
52103 1693
16288 5552
13798 64164
60841 52139
60793 14086
66929 8812
26381 23706
22318 31264
41632 34825
56725 39166
43686 18464
21760 68770
11149 23322
45274 62798
24552 640
46277 63031
44244 12551
60756 23310
38297 67385
53074 42591
18895 19674
26942 2689
57659 49208
36091 3170
31404 45388
59940 58743
59161 25254
35227 19439
40681 65936
9710 60354
5708 60968
66230 13113
60526 64893
58954 66664
13265 10018
62450 33844
46134 36646
33444 25043
28549 47944
11149 62518
63581 55435
32500 11431
20088 13939
20111 20895
41207 9664
46775 58126
13182 6078
34536 43418
54471 67297
36587 38963
52942 55960
24686 28164
68530 13498
53319 30859
58193 11996
3206 27498
27951 20047
29886 68361
1951 61136
55697 11886
7533 2114
13912 4607
66975 6712
10465 44343
38423 45040
4385 17292
18268 50748
46519 1579
2051 34179
58114 9206
6466 320
52405 9680
14542 40407
57922 61880
64534 67493
37048 12246
67018 21644
1233 10867
2812 37536
66406 59204
48784 51983
6176 18108
24168 7747
37057 13481
45020 37570
50629 51018
7219 38765
53646 25735
55354 46204
35891 24665
50483 47915
64669 9159
8140 60222
48850 66220
17533 8368
25020 25683
20416 4179
228 11908
37368 60073
4619 66697
2259 60811
11022 35485
42966 58605
875 39427
8465 46985
24820 58637
19012 55559
50622 4664
8788 49556
54371 47891
27297 46378
54100 3696
40424 25820
63567 1364
62259 15912
51959 36657
45420 1253
49512 46085
25955 39280
7570 4424
63644 46688
12156 53033
42841 53830
23832 48021
47789 22387
26982 12003
17293 47462
39486 37516
21009 67698
44982 2580
7839 19010
3516 21563
34738 43284
57742 23262
61050 17659
66954 29573
55189 28333
42505 53920
51566 1630
14845 19556
55421 18214
64314 18786
57557 13061
56653 40410
2308 31747
53668 14656
31370 24511
23043 45102
34118 58807
55811 56941
25936 53749
11856 62633
5258 19550
63438 21703
20735 2122
45042 11935
42132 60176
27474 56391
18999 63651
1470 50573
41685 35558
28741 39221
32025 31716
48191 16687
38431 60588
37771 45246
47043 46671
67615 34303
27837 11141
43164 63000
44819 33201
62584 22776
52225 56873
27410 16841
57567 65688
22355 59286
67126 23654
31492 23481
44777 41565
63624 31368
30091 19723
20504 64812
5065 25225
45895 31835
23145 34753
2227 19844
1509 36329
6907 49186
64248 37281
63653 19931
24785 41939
30669 23615
66958 53941
8290 883
33549 58641
7207 60585
43409 60991
67982 19716
6600 12692
26473 42434
37481 38271
11135 57363
47323 43192
66004 53303
31243 62241
64219 47107
37397 23762
53357 34540
4586 28119
42665 8485
56506 40486
10001 4016
39591 25816
34189 45612
56538 66119
41137 33343
52741 48025
44985 33470
59091 14291
45596 59496
51577 56850
62701 34324
22353 44306
55596 635
4526 7510
23787 56342
3618 5657
29111 33297
43086 23937
19726 57655
40031 68330
40836 36530
26180 32366
20132 64362
33524 50925
45945 11749
20523 50195
39929 61425
39398 62301
50939 23947
35438 67841
10238 16033
22732 24708
21584 29748
19043 13995
9770 56101
43594 57493
39062 59367
28716 47274
23421 19007
20023 14119
16069 52029
57277 38973
49837 46410
58608 54093
12664 11841
22551 49053
41488 68096
63651 49819
5070 19511
22363 26468
34522 10137
56680 17995
18165 26719
748 47182
34720 27202
4169 51496
17534 9345
5041 23466
24602 19078
13089 60376
44079 50464
62333 5058
37745 27010
44549 23452
66598 67337
7217 58000
23676 42465
345 5959
47026 12532
26858 18864
9728 39898
1318 64489
61185 39735
29249 17864
13055 22744
52482 42914
38806 42739
10546 35962
45200 42698
11602 28126
3492 13778
10223 11772
59433 27517
41525 65170
3754 52657
63365 63039
19130 60795
23263 2789
40355 43130
18250 52245
44287 17828
67936 38342
67144 41270
22549 67726
835 34146
59514 67382
19337 17977
18301 67851
14833 8263
27641 15252
4473 27322
52855 38150
40708 37527
62217 13148
19697 20594
7165 20956
43004 1582
61311 44480
34659 33800
3531 16737
1271 55858
29740 47868
40041 17696
30119 55692
37893 55325
34031 57988
36103 10428
19830 61261
9572 47768
34455 5177
11732 48926
7379 64378
52947 47106
32079 11185
18428 6807
31183 58606
28543 62662
63305 4334
67750 18635
41276 311
60000 35495
34634 38016
27766 13682
12200 60694
26980 6859
50483 39741
62652 68821
39420 47340
9046 49193
10282 9622
53616 46446
21833 58004
14142 36355
28071 26028
33885 34859
14737 60067
65268 27063
8655 22157
51270 9648
23983 10880
22179 44096
33111 29219
24601 43894
2594 9612
24363 42031
3397 2494
55803 5605
47166 13406
6840 48893
19568 65232
47150 54145
11634 54227
45731 39412
46218 2485
39764 34634
5030 40375
67527 22731
13840 30035
55979 56173
41907 3744
67670 38918
44133 40007
64885 45835
1687 19489
51723 65584
45579 39055
9022 33012
917 63620
13071 60198
5025 9815
44905 50450
28853 13880
56183 44947
65534 5977
68358 6079
64774 41826
38169 24013
61276 62926
30522 31206
3860 60831
14621 41226
54208 45248
1783 45718
43891 37636
31169 53632
5606 40335
34671 67958
50513 14528
31120 62331
51697 43974
36136 13917
22370 18810
51745 67739
53127 21305
55956 16428
3431 51746
3503 25288
1399 48005
11210 28518
11811 20214
29474 63582
64425 17705
5946 61882
48783 66676
51619 37497
50611 2505
35926 25242
40577 44928
27252 48005
14588 52481
52397 49209
34606 15937
47143 22961
15650 43511
48768 63129
60523 62963
41835 51581
58469 55914
23019 20208
8736 8937
10910 23507
19936 35778
37378 42653
37176 556
55605 12454
47283 40001
14430 3887
20766 18213
57523 63746
17122 48658
54194 10838
19937 50223
33913 62844
26232 17246
19586 7839
16042 3701
14256 25021
50688 14477
4503 57626
48789 45127
11575 45245
22746 37349
17513 14494
54521 30751
63209 37154
52269 55571
63155 58883
12050 47806
45130 68397
8533 62311
49926 13060
23042 12806
26206 19030
55072 17204
58675 23961
32572 42534
20254 37375
50060 36219
28847 29422
56179 43062
53782 40745
34284 48124
60435 66416
43160 38863
59723 31043
10807 67033
11774 44181
55812 4776
38789 1811
21949 40967
54516 8605
25128 55423
53201 56825
28383 60390
31165 27766
27043 65789
2554 5871
16452 14956
35741 4113
63649 46424
1162 66618
43477 43708
39740 64949
55395 55905
37909 64379
59099 38199
26654 55655
38261 63886
2264 16108
41523 8099
33230 59170
41068 65109
51840 48255
20845 61858
20811 29087
1576 46020
9407 58419
33551 21725
27307 57284
11632 32169
58528 46473
29972 51838
20525 25318
49372 34569
20291 45563
3761 49242
55610 5119
19317 62715
32569 40913
60958 20738
9903 63731
28000 49468
20828 27317
67826 40387
68762 36155
29169 61802
66850 48307
8775 56424
34264 45950
52520 57433
14806 23187
17011 27920
4264 24126
55703 35568
46710 14597
3480 48717
9009 18700
6550 47657
4277 57789
61578 21062
38024 65582
27361 27057
62433 4684
19005 9729
50205 53375
29957 22576
36411 32422
25486 15859
19222 65643
33532 19019
47724 27663
19746 50365
6751 24371
61222 6283
21707 4413
68384 59865
56206 8650
4814 27508
25745 19278
19316 37643
60658 22179
1851 45497
19850 32951
46887 57657
18192 50653
7521 23767
41651 12586
50074 13223
59432 40144
25065 22426
21489 5852
14017 32210
1005 34517
55835 32046
42636 59699
46011 26736
13773 4413
23204 28769
19503 31803
7011 29871
18034 44409
5812 8408
62652 57282
16134 12211
2429 50791
8182 68812
37771 8430
60008 47
49373 36853
11661 31242
66519 48683
42251 9721
17656 31606
29963 18685
5033 53838
39767 30082
61698 2546
65720 20906
31172 8477
26782 31118
63835 61828
11147 58495
10298 33622
24370 19115
67294 11995
10549 53314
2247 14624
58044 46722
12473 14806
66083 64459
39680 66652
16942 62197
59231 44396
45561 26783
66667 14690
47122 37594
52081 41324
56770 19448
26790 31413
42370 57456
13509 56534
40730 48451
57481 46841
10677 1634
21684 39835
49537 30989
11909 62696
24431 44742
16354 39891
47154 54569
52595 59368
36161 45981
25793 2049
37052 29010
13695 11195
56373 30624
28858 49429
61094 25765
33763 62861
36455 12924
35880 22506
30100 10105
55408 12035
44327 67309
55367 1299
889 22098
20674 19624
686 8964
7680 51535
25806 17533
8800 25303
2495 54666
23050 44203
1926 17830
41481 63436
2387 16509
30295 39306
11655 39641
41322 54242
31635 59177
56695 27725
42443 6723
40033 34634
62871 62940
55990 15869
31901 56293
16472 33846
62168 13468
21457 825
12677 41315
110 11210
30168 37576
52435 8139
2503 10001
47069 30013
21911 21584
5185 10115
20759 38794
39156 17212
59529 21922
27215 3607
66989 58212
40985 44996
48065 33001
63339 53544
23533 67901
62984 64573
42502 34182
163 10248
53792 43681
54449 50556
21337 65056
41528 12552
67862 47382
29125 940
11596 28397
1522 52471
63709 33912
57477 59025
6316 68135
38541 2205
32490 14497
20634 68008
65589 9209
17227 35000
35310 24300
51656 26248
22521 52354
30353 67458
66502 8246
51783 35683
59443 26406
8570 48439
56693 31289
34591 16087
9899 20919
7099 1319
23304 28436
60234 9413
32819 12423
9955 49066
57292 53285
17087 65577
31933 47557
66645 20286
40827 10898
34063 12680
43952 19984
30519 57554
30731 11992
4457 29550
13360 15454
18805 26252
37531 17505
34136 42758
37348 55589
49339 15555
31332 54044
67989 53667
63610 66266
44098 4456
12090 59406
59663 21717
32999 59316
8911 3196
2534 32529
9882 33227
47408 36627
6223 37219
14071 40392
33608 28603
50120 57031
6513 13486
38378 59535
44653 4172
68517 64863
22408 31458
9129 18301
63441 35492
53360 40982
40541 42659
18886 64887
36883 7122
28555 44554
5197 68039
28899 14157
33891 5016
61904 67406
23803 47982
44847 10448
55165 24259
18234 51072
40169 14462
9688 26038
11436 38462
16148 44032
34709 16447
42681 32320
35284 52159
31192 43153
34303 14557
3477 44408
3205 59738
23792 35752
35333 2747
9410 18746
30497 37642
22281 36088
58443 11709
34612 19386
45294 36088
18038 21371
60732 6666
8414 63825
22252 55915
38126 5524
6179 35067
6506 61994
51170 19492
23273 12855
35536 4657
2863 41013
41581 13995
16535 61563
45940 60960
12800 60535
17578 63241
41429 44563
29607 65669
28115 42788
48094 14073
63681 31262
13607 68445
36595 49377
4125 37308
55428 56223
54358 13350
49892 46301
62240 17847
39663 25109
40943 25341
32878 13428
42526 64721
56502 8878
43707 219
4175 67998
51345 2213
37632 35971
11672 66988
16435 48143
52545 54537
26807 53557
59241 48183
51144 47517
44140 22786
15333 7161
54392 55249
13275 40114
52010 59575
42902 14753
50542 25428
48235 51738
52430 54060
29995 56791
10554 28864
33156 32265
50108 61577
25591 20841
63981 51279
1007 23477
66423 34118
29035 14853
19131 15625
17635 64373
40061 15408
63895 67999
35040 1448
7316 4460
50293 7855
20656 53036
15326 5243
58298 1129
6128 49997
8697 50900
48090 35156
26053 17749
9702 52469
30525 42426
48092 62269
60522 29415
23388 52829
26983 14856
58977 35701
33884 36500
54105 21472
46495 61562
40850 39748
9784 37536
58041 32912
29049 55183
22409 9727
26023 10760
631 52714
3523 39156
62421 49300
24405 514
35160 28617
57185 26770
17909 2939
61069 9164
42155 62894
54399 48012
2741 66029
46900 60814
60064 25842
47988 53405
42980 63571
62539 41949
29429 38208
19345 24448
48589 47551
11674 40640
347 32807
14537 25601
61226 25050
42608 59116
50444 53893
24621 58321
28262 10214
53785 40707
51339 23841
31691 21618
8635 59502
56774 41503
46073 68196
2680 29844
31939 674
54206 2425
24344 9638
7312 9614
56678 34164
50574 5799
46826 26468
4817 61064
33636 2928
1142 67161
51655 50732
6688 22325
57757 36090
17584 22151
59881 56672
48146 18459
60696 54107
50538 45351
4875 34077
35900 17395
52690 35533
15000 27291
60705 4444
7749 17064
25479 29568
40800 56306
19093 26259
49050 6825
9562 48316
18695 33056
43644 57850
11445 19042
8391 36435
47582 4125
9292 48735
16675 5584
57199 49849
24524 20433
64484 14881
4853 14090
9985 38174
26757 33004
8054 52359
42771 54212
7926 62492
56781 63208
36246 56392
65420 28832
65594 5242
48827 22919
29487 64913
47508 49597
56728 25839
51110 3816
40290 44839
55825 641
27634 33581
58086 9166
66552 60799
21593 43923
18834 35728
58114 29574
23283 10307
58807 58828
1336 22618
67690 27695
58458 23898
16368 16226
43857 36948
5160 54662
59045 4427
18457 12652
63712 1015
45786 62631
36424 9011
29729 24213
63258 38089
35663 33637
23070 19021
21120 48990
4837 52079
62929 17450
49258 64467
60425 60319
41143 59319
7090 35531
32241 842
51541 34225
1697 40554
49453 68537
25217 64427
36501 53928
37433 30513
16357 46354
36858 23845
30853 46421
67205 5291
68567 10002
54114 45362
13198 59820
54425 52180
882 43682
9079 5750
49385 23626
35124 67782
2602 38497
31528 42611
19859 25075
1855 21601
4061 30513
38010 25035
24230 1492
59506 5194
3358 13099
17073 24485
66887 59179
62109 56891
41173 13127
11662 50413
9337 34464
68787 50901
61446 59617
52431 56472
37495 57917
52720 14964
26219 17747
65160 17937
32051 53149
59498 16106
38035 50317
37040 60676
42141 4094
45143 45802
57308 67314
15649 41098
4985 17893
37367 26208
60558 31402
62201 60858
33152 12678
4209 8939
10330 68006
6957 17330
16941 14969
38757 6495
63382 44823
60718 56236
52612 51030
62988 28650
12631 14784
33272 40913
40078 2833
33512 15927
32614 56456
29017 55172
15571 30868
42230 31831
5993 35289
44316 8432
33930 16773
55499 7062
27019 45020
62851 62890
14810 32869
38631 39742
48147 64047
64885 8932
63152 60446
30037 14198
54400 48937
38443 54310
26488 58930
32475 1354
46687 1352
67989 9806
53560 8127
2986 26672
45242 102
17685 45554
33678 66225
7682 39896
39331 20050
28929 4647
15901 20161
49685 23455
61526 33797
12299 37195
15870 24143
22169 39890
54195 63879
1540 26413
10693 12927
10053 18404
64965 1021
13756 10974
64458 47818
2829 52764
2877 33788
5091 3494
8411 54589
36785 50132
18919 35248
31307 4239
2615 19761
43320 64674
14544 26604
14449 56777
39415 4534
17202 45723
31816 56967
4681 31950
56917 664
40500 3010
12266 59413
64089 28851
63784 32700
18642 38953
11651 35035
54170 61754
39700 38572
16537 37215
59254 19341
18452 52864
53786 27218
909 38964
5312 45663
56243 68
9520 16036
48994 51749
15385 47152
30648 18065
27341 5808
21280 12154
52759 15748
40012 18480
47127 1772
53602 19204
29233 11888
25249 60490
2212 57132
56711 22544
24274 54020
14689 61355
22981 44436
22903 41007
47198 40894
2890 64985
54664 40756
5485 54562
19609 10275
5633 49000
24071 34434
9960 5160
50019 41748
39756 65484
48543 47950
28238 24567
56941 24249
39652 61006
67118 39773
50455 36096
18360 7110
50088 10147
48163 32194
31843 40043
32935 18904
10260 8399
29652 32304
57251 48573
15741 9119
26235 61313
31424 36028
15642 42372
6560 62468
59497 21303
38519 67706
57826 52242
19992 20793
14341 28652
25137 16677
10360 3032
47027 58478
27722 55146
915 57031
58724 62753
63205 61141
8621 49578
59715 60270
60350 154
29201 44066
61234 63593
299 65890
53539 20614
35665 30748
25272 24399
62447 56076
36685 49106
10135 25815
56114 41384
49723 31277
13666 5823
57605 65983
57591 24427
4366 59048
45308 57164
30146 40577
13623 16288
25980 36489
57311 6257
29306 50739
67282 40561
1792 37604
32305 27134
56196 48246
41851 16898
43728 4415
16174 67433
29708 49056
59424 19494
8353 21577
38647 37900
27694 33564
62405 45392
2844 31027
46608 10941
10413 9679
34012 41738
33500 30180
3675 3183
51210 33772
596 42565
58947 29326
54806 20836
18530 19797
57802 16259
61012 27072
52947 32474
17 42005
23120 30114
57349 16681
25699 60817
53571 4193
49028 30652
22172 5514
15888 3228
62687 60520
12508 36006
11413 17991
55156 13687
43728 24499
43114 62007
3940 62197
55027 36023
19531 51150
16076 2236
64086 30304
66985 23779
45983 46616
34602 53637
573 45406
66473 5714
11348 30937
6916 65755
17194 40830
25246 64267
30875 15706
3683 57737
32884 22634
47518 59018
40612 17840
27935 51191
28580 36152
54436 45850
53873 47711
42709 23916
34212 35398
5263 38234
31230 62250
13108 33765
50022 23161
10914 7587
33469 67653
62526 20266
22434 64702
36866 55878
25941 21216
24529 25647
49424 12495
16438 6729
51767 7575
56037 6339
57447 29799
24054 448
64510 21911
37049 58243
35770 63877
5898 61721
18298 55128
61352 66077
20206 29131
12368 63122
3970 60527
45431 57026
37194 33507
31204 18022
28215 16006
67676 8405
6201 5341
43953 44224
21338 68394
38234 16242
37873 47163
36270 45205
61034 67857
66403 25793
32 20046
17252 50730
49353 57622
26443 62493
18161 49206
22809 44895
16849 2958
52440 1471
64117 57375
19424 14096
48803 22488
17801 19673
18333 61003
28025 61365
44289 27451
55445 38918
13352 3746
19981 59459
30188 3344
37774 51242
43291 63363
61620 66367
20080 63166
32053 17153
14986 26481
41877 16370
31022 30396
9769 14629
32006 46529
9575 2297
20177 36064
25153 62483
29759 39147
20187 28810
64612 49013
15538 43626
50220 9742
53839 65691
44850 17851
66607 60856
31448 11865
41487 53723
67101 42197
36698 2626
56770 43550
14552 12807
9549 15508
35997 56154
34914 9101
47008 3340
60365 61547
62902 38589
41283 40900
21814 42460
11052 4380
53115 32822
49484 18344
17200 12940
17285 36606
9093 14094
47953 63488
47917 68536
49198 12507
1011 35042
18923 42276
32436 32592
55197 34556
28762 5448
68247 7204
20093 22818
62732 889
23010 56487
37276 67431
6939 52283
64409 61712
51709 68378
42621 14611
18226 35004
47565 63864
67046 8840
64539 53652
49800 40866
64803 50854
35889 43818
22086 19028
60340 14278
55232 30003
64135 68308
715 56197
16404 56244
46967 40134
68353 40370
47449 29806
45615 60488
40475 31827
51597 47737
26554 52453
20194 2879
54792 68616
52580 47691
50327 44340
26769 6814
3912 24372
47641 15953
18776 25256
5153 67604
64642 36967
68646 11601
13601 14594
63354 40345
11916 54519
65604 20683
12814 58167
28175 3140
41298 68286
64623 13451
33183 34507
35744 11677
6866 32931
21129 53183
18630 57397
60629 45850
41527 41087
34948 21190
43986 46144
45903 26113
12096 35253
48800 42436
26216 35375
32664 63235
52378 23782
64 4463
61072 49783
52446 31163
38464 5113
48682 50540
63285 43849
40679 23365
8459 64365
67114 8478
33731 17506
14223 53877
29112 46760
29239 41078
37500 31714
31404 34770
38240 58652
31287 12518
3942 3569
34778 54205
52395 7248
53463 29475
62671 64532
13835 8151
59132 2510
8490 28313
31847 56279
19953 14836
36873 44207
7916 46147
63396 53021
65211 4089
59035 13129
10260 54772
7148 12166
49425 26845
21400 10347
54964 42070
58684 17882
65372 21267
8747 41697
65921 33555
50408 59795
34586 50641
33396 15851
23784 55481
40764 52782
50110 19032
44169 62481
48649 43437
13739 67971
2685 8003
29512 30140
67938 54811
18460 41244
60218 20334
39881 36481
26335 49173
49977 11492
41739 49978
33097 12975
28861 65736
65538 50899
36937 39205
15086 37430
27745 66027
23704 14448
33391 17208
41558 51246
63413 29768
63598 55853
42958 121
5661 2109
20891 56854
64822 20115
32876 64843
59161 56132
44015 54895
36537 8393
1162 26014
38700 62771
23265 22859
10584 30299
49299 5922
42907 17789
67757 49463
45723 37468
8914 11630
24483 4753
51802 15237
43801 40864
9569 36126
24276 57669
62598 44046
41770 23625
15002 54396
6566 24469
50107 62770
61621 5202
67938 62288
38842 35711
31408 56803
10251 50773
38206 30789
13925 49186
8155 20881
63247 1480
29828 66247
7215 4333
61321 34220
39986 17213
1494 51949
52108 14053
20267 40702
64983 18992
18329 24763
40380 32181
62251 54911
5179 21119
52769 25738
2351 12064
45231 48103
41422 27748
55793 66552
51170 26480
55734 26073
32615 37551
67803 37200
37469 49583
58374 30118
5790 7426
44592 24828
23823 41406
1232 10775
12561 61485
16261 5636
59862 50974
43805 66434
28927 22342
6043 34200
64414 62541
48825 27948
36634 44436
65990 41753
42786 12005
39932 14762
5612 23383
50575 55888
50662 29
12978 5257
42252 2421
6345 35055
17515 19771
5011 65904
12095 34018
31611 8014
55239 2404
49697 21513
52162 47931
18205 36568
44182 39813
33020 67396
59947 64176
60558 41211
20882 1125
42504 36697
31079 12829
15629 14913
442 9904
64274 33485
45319 7662
49628 23630
59294 66204
50142 43150
47217 16156
23610 25926
27390 35021
48735 45073
14121 6927
67459 16831
51118 7853
7039 25290
6277 47461
47247 28913
35611 10170
55074 3455
63376 48168
28853 2020
28262 20305
14919 68617
10339 4317
625 52278
41922 6191
45527 61740
3439 8521
8876 16125
41442 9301
25339 38668
18908 40188
54547 22882
11033 35018
12236 11907
2625 27343
66080 64138
43890 60916
210 234
17895 6254
48996 60949
29093 37693
20690 26675
28569 18356
21632 35785
12634 24742
21598 22669
36667 41816
9962 49604
8396 66893
62176 31353
66915 41214
28066 58042
48902 11430
12006 33447
31842 24445
21458 36410
17730 5232
1865 65252
60504 52603
41378 61984
12264 60277
30235 52706
58395 63724
67075 31897
147 5567
3532 31786
3733 66373
59620 54520
63737 8018
47528 15372
38859 27898
17109 15083
50665 68302
23028 65059
49906 27526
9901 13397
54530 35936
7181 67763
50994 589
3160 57690
25086 33016
15554 20360
59803 27190
28721 51718
30810 66040
57471 4311
21396 54571
39432 32842
10684 34811
40083 61929
34043 47878
35173 62027
20523 50816
9977 64980
66743 63966
33501 52902
57555 61278
29405 60745
40100 18136
39328 16492
51385 50471
40104 22852
1035 53833
53055 49869
18715 37093
63583 2860
51111 7115
29932 51472
58618 9218
60263 27812
63854 45076
8135 45506
49269 27417
64813 66956
49652 61540
8092 40349
36818 11478
64748 34791
38779 30797
7681 36993
33079 38702
31843 42269
68720 14249
8236 55553
26351 60206
2218 6337
63758 27100
51771 67236
40050 26967
64089 49041
33746 38559
8686 2417
43402 34779
3680 51182
33810 8127
19698 46555
13187 10733
36685 2878
45390 8311
41949 20313
16166 27753
18634 35783
29797 39401
12186 37827
43187 55485
48479 1597
66709 10983
66448 22441
2599 10539
6595 64647
57716 32357
67244 35161
7036 59881
21223 8478
15596 8286
26332 44311
40464 63117
13887 58469
26855 13855
41199 36651
5314 17362
48877 17003
3101 31173
57372 37470
3758 66938
578 26632
21224 67287
37553 20494
2537 31585
25563 35771
32140 33034
67011 40642
40066 30677
33266 4194
56002 57759
34523 59880
1175 36500
33280 29187
66831 68782
44297 13273
42239 23377
50667 19167
43020 53845
1182 57723
42581 52132
57575 26042
55984 31004
67699 32491
56489 37981
68506 8053
26935 38509
34710 16177
6684 5773
32083 22794
40457 55247
15561 4453
17888 57728
37075 20148
21469 54477
16020 39186
25488 11007
3632 15531
36165 23620
22756 46304
68052 44038
37593 29451
12421 16719
12500 53129
18724 47114
40045 59089
20446 12321
45321 8981
47233 43776
45778 47135
18429 50063
55066 2343
61989 68657
35783 11839
44790 61666
40640 14412
21335 37620
65187 11608
42735 68111
37380 7165
49626 3644
15863 9872
39779 32879
38952 53573
37491 42740
33441 58802
10903 54920
6937 22452
68382 49764
5495 35466
54639 60863
2864 61906
67242 29412
5091 29888
59231 42695
33235 57543
48444 33084
40156 47011
32720 46851
60205 23728
12538 6504
5005 46467
63106 22603
68534 29503
40570 25167
39460 20744
24143 62077
51583 44691
52903 64971
31265 58735
65680 65573
57583 20099
29720 21636
5524 59614
37663 1135
37582 12796
8797 52618
36453 9715
38112 48004
16478 59707
37459 35997
51501 25682
4237 29836
13659 47295
62624 55871
6040 52245
41412 40597
41884 28873
12409 12630
37015 37105
29562 52039
50944 17691
6112 17669
30014 55776
21728 17550
32364 53173
14273 41023
40692 3424
50002 20241
17638 61967
2680 14082
41000 23583
44197 47846
1670 68660
32617 39494
7970 55919
49193 55464
26217 24818
37598 46646
5715 10290
23497 24458
38970 61126
12033 65948
19915 3927
20289 61373
28461 8862
7633 47802
28428 58518
14521 2246
56483 38131
29451 38227
34669 30499
35234 11741
1355 525
50784 52211
61622 20710
41155 26496
5914 67454
12551 51403
38540 12244
59951 4668
25541 28534
28176 10393
7914 3561
14954 56094
16797 63502
3498 18534
24962 58938
40562 20222
4218 61638
31851 18744
56551 10989
47139 63338
28367 28514
4260 57888
21772 51769
34744 26021
5472 4987
47866 15410
6175 49924
34823 43354
10039 68047
41262 47843
25569 36336
58251 62569
58538 34368
51393 59551
18411 40786
15756 27960
54768 47469
23568 10405
41030 27153
10930 38672
38197 22908
4512 15141
55370 16269
27027 39169
62084 35123
65753 62551
58582 56501
39610 50897
60727 3302
33241 13305
7628 23142
54068 51689
32919 48004
40914 10791
47397 57684
68600 67709
65160 41941
41369 68011
34916 2010
53453 12077
18966 9510
21695 8634
54636 19885
41448 67180
37720 33438
32227 68799
48583 13233
29955 41389
60152 45884
65090 19725
33171 26385
28320 49551
43711 26523
29270 60400
59758 17886
36742 28616
53825 40376
49798 17558
66707 12680
51519 26016
39883 62651
36360 12994
56359 20886
4347 17197
27728 59411
59410 36929
60242 53182
45376 42997
42473 26595
51934 16529
1681 15021
30844 33718
14253 14157
32557 34465
59586 13065
14220 9466
57705 33548
3459 15421
32678 23040
38306 12697
25772 15649
36744 4785
64979 45930
65130 9895
45488 40833
16825 54216
66568 42155
44883 57296
40487 47962
60062 68176
59230 39321
5607 30100
12887 9733
51733 8417
57143 16453
7841 14544
11852 14026
34214 39615
22300 23441
35077 51062
45276 15483
11610 52571
55301 37469
19454 13219
21713 61755
44727 11036
5646 55987
65050 29762
49346 24734
5349 49743
41237 25032
19952 17714
54433 24466
45258 59429
14696 35689
55896 9839
63534 59537
17012 68486
16546 15515
7213 30818
21460 64617
13137 34653
64966 9803
20482 35833
16249 24177
699 47514
49446 56369
29590 4902
44705 13279
62678 16033
36197 22439
17231 48905
32212 58645
13451 26731
35530 54003
20842 16802
51180 28911
51361 39278
5449 67571
66789 20026
39828 6906
33928 25547
5724 15224
19869 8174
12241 18306
58026 37309
27593 49704
40758 37214
23183 5885
60440 2420
53536 31215
68141 31192
21086 32425
29772 2462
51250 25016
56923 28706
20237 7409
63083 34437
33991 32854
33470 65409
54538 10661
55593 27989
21811 42726
29056 30206
21174 54897
9472 56601
8236 62850
54010 20771
65141 35468
44476 19606
39034 24386
32425 60396
12163 57622
42702 68227
57942 62454
54418 50960
29682 34852
53998 15757
67676 39302
20950 23116
8613 65608
44586 33707
55918 22754
18419 60944
64519 40614
34103 12667
59697 6634
29977 46003
68000 58241
11779 606
8779 37158
19850 39302
40151 49435
53901 30245
44798 12893
66456 63382
