161
0 1 0 1 0 1 0 1 1 0 1 1 0 1 1 0 0 0 1 0 1 1 0 0 0 1 1 0 1 1 0 1 0 1 1 0 1 0 0 0 1 0 1 0 0 1 1 1 0 0 1 1 1 1 0 1 0 0 1 0 0 0 0 0 1 1 0 0 0 1 1 0 1 0 1 1 0 0 1 0 0 0 1 1 0 0 1 1 0 1 1 1 0 0 1 1 1 0 0 1 1 0 0 1 1 1 0 1 0 1 0 1 1 1 0 1 1 0 0 1 0 1 1 1 1 0 1 0 1 1 0 1 0 1 0 1 1 0 0 0 1 0 1 1 1 1 1 0 0 0 0 0 1 1 1 0 0 1 0 0 0
103 12
90 91
153 103
104 141
15 89
155 93
49 14
95 28
136 144
108 111
13 144
146 81
44 69
131 7
156 124
128 27
110 119
114 36
51 122
119 82
77 149
10 33
92 102
132 152
36 98
56 11
23 14
129 104
11 38
23 70
156 73
31 121
49 57
109 4
34 146
43 160
8 6
40 82
83 48
71 56
33 60
131 54
25 62
116 109
122 85
33 102
22 88
143 129
65 135
139 60
141 87
102 97
44 99
46 93
54 42
157 36
122 48
52 143
10 13
121 80
37 117
65 26
21 88
103 42
67 105
122 54
86 29
108 1
32 68
20 76
20 28
79 95
156 76
39 126
137 79
146 33
151 125
29 108
115 103
77 119
19 13
148 125
47 89
29 9
53 12
62 49
46 114
130 158
100 122
107 93
96 58
86 35
103 18
123 2
44 2
121 78
159 108
87 64
112 38
11 30
82 18
90 87
121 122
161 13
85 61
58 156
32 88
52 80
153 75
1 147
124 140
55 27
118 133
20 59
22 139
60 3
58 15
17 101
89 134
113 118
105 59
82 113
105 66
129 101
107 132
52 150
98 24
106 2
151 118
87 21
27 108
87 50
39 19
74 53
24 104
75 43
127 3
138 5
142 132
158 23
145 137
94 63
123 51
95 9
117 75
41 14
20 62
85 5
64 45
120 71
56 154
52 137
16 68
100 109
135 118
72 96
25 56
3 84
63 112
6 103
