69329
1 1 0 0 1 1 1 1 1 1 1 0 1 1 1 1 0 1 0 1 0 1 0 0 1 1 1 1 0 1 1 0 1 0 0 1 1 1 1 1 1 1 1 1 1 1 0 1 1 1 1 1 1 1 1 1 1 1 1 1 1 1 1 0 0 0 1 1 0 0 1 1 1 1 0 1 1 1 1 0 1 0 0 1 1 0 0 1 1 1 1 0 1 1 1 0 1 1 0 1 1 0 1 1 1 1 0 1 1 1 1 0 0 1 1 1 0 1 1 1 1 1 1 1 1 1 0 1 1 1 1 1 1 1 1 0 1 0 1 1 1 1 1 1 1 1 1 0 0 1 1 1 1 0 1 1 1 1 1 1 1 1 1 1 1 1 0 1 1 0 1 0 1 0 1 1 0 1 1 0 0 1 1 0 0 1 1 0 1 0 1 1 1 1 1 1 1 0 0 1 1 1 1 1 1 0 1 1 1 1 1 0 1 1 1 1 0 1 1 1 1 0 1 1 1 1 1 1 1 1 0 0 1 1 1 0 0 0 1 0 0 0 0 1 1 0 1 1 0 1 0 1 0 0 1 1 1 0 0 1 0 0 0 1 1 1 0 1 1 1 0 0 0 1 1 1 1 1 1 0 1 1 0 1 1 1 1 1 0 1 1 1 0 1 1 0 0 1 1 1 0 1 1 0 0 0 1 1 1 1 1 1 1 1 1 1 1 1 1 1 1 1 0 1 0 1 0 1 0 0 1 1 1 0 1 0 1 1 1 1 1 0 1 1 1 0 1 0 0 1 0 1 1 1 1 1 1 1 1 0 1 1 0 1 1 1 1 1 1 0 1 1 1 1 1 1 1 1 1 0 1 0 1 0 1 1 1 0 0 1 1 1 1 1 1 1 1 1 0 0 1 1 1 1 1 1 1 1 0 1 0 0 1 1 1 1 1 0 1 0 1 0 0 1 0 1 0 0 1 0 1 1 1 1 1 1 0 1 0 1 0 1 1 1 0 1 1 0 1 1 1 1 1 1 1 1 0 0 1 1 1 1 1 1 1 1 1 0 0 1 0 0 1 1 0 1 0 0 1 1 1 1 1 1 1 0 1 1 1 1 1 0 1 0 1 1 1 1 0 0 1 1 1 1 1 1 1 1 1 1 0 0 1 0 1 0 1 0 1 1 1 1 0 0 1 0 0 1 1 0 0 1 1 1 1 0 1 1 0 1 1 1 1 1 1 1 0 0 1 0 1 0 1 1 1 1 1 0 0 1 1 1 1 1 0 1 1 1 1 1 1 1 0 1 1 0 0 0 1 1 0 1 1 1 1 1 1 1 1 1 1 1 1 1 1 0 1 0 1 0 0 0 1 1 1 1 0 1 1 1 1 1 1 1 1 1 1 1 1 1 1 1 1 1 1 1 1 1 1 1 1 1 1 1 1 1 1 1 1 0 1 0 1 1 1 1 0 1 1 1 0 1 0 1 1 1 0 0 0 0 1 1 0 1 1 1 0 1 1 1 1 1 1 1 0 1 0 1 0 0 0 1 0 1 1 1 0 0 1 1 1 1 0 0 1 0 1 1 1 1 0 1 0 0 1 1 1 1 1 1 1 1 1 1 1 1 0 0 1 1 1 1 1 0 1 1 1 1 0 0 1 1 1 1 0 1 1 1 1 1 1 1 1 1 0 1 1 1 1 1 1 1 1 1 0 1 0 0 1 0 1 1 1 1 1 1 0 0 1 1 1 1 1 1 1 0 1 0 0 1 1 1 0 1 0 1 1 0 1 1 1 1 0 1 1 1 1 1 1 1 1 0 1 1 1 1 1 1 1 1 1 1 0 1 1 1 0 1 1 1 1 1 1 1 1 0 1 1 0 1 1 1 1 1 1 1 1 1 1 1 1 1 1 1 1 1 1 1 1 1 1 1 1 1 1 0 1 1 1 1 1 1 1 1 0 0 1 1 1 1 0 1 1 1 0 1 1 1 1 1 0 1 0 1 1 1 1 0 1 1 1 1 1 1 1 1 0 1 0 0 0 1 0 1 1 0 1 1 1 1 1 0 0 1 0 1 1 1 0 1 1 1 1 1 1 0 1 1 0 1 1 1 0 1 0 1 0 1 0 1 1 0 0 1 1 1 0 0 0 0 1 1 1 1 1 1 1 0 0 1 1 1 1 0 1 1 1 1 0 1 1 0 1 1 1 0 0 0 1 0 1 0 1 0 1 1 1 0 0 1 0 1 0 0 1 1 1 0 1 1 1 1 0 1 0 1 1 1 0 1 1 1 0 1 1 0 1 1 0 0 1 1 1 1 1 0 0 1 1 1 1 1 1 0 0 0 1 1 0 1 1 1 1 1 1 0 1 0 1 1 1 0 0 1 1 1 1 1 1 1 1 1 0 0 1 1 0 1 1 1 0 1 0 1 1 1 1 1 1 1 1 0 1 0 1 1 0 1 1 1 1 1 0 0 0 0 0 1 0 1 1 1 1 0 0 1 1 0 1 1 1 0 1 0 0 1 1 0 1 1 0 0 0 0 1 1 1 1 1 0 1 1 0 0 1 1 0 1 0 1 1 0 0 1 0 0 1 1 1 1 0 1 1 1 1 1 1 0 0 1 1 1 1 1 1 1 0 1 1 1 0 1 1 1 1 1 1 1 1 1 1 1 1 1 1 1 0 1 1 1 0 1 1 0 1 1 1 1 1 1 1 1 0 1 1 0 1 0 1 1 1 1 1 0 0 1 1 1 1 1 1 0 1 1 0 1 1 1 0 1 1 0 1 0 1 1 0 0 0 1 1 0 0 0 1 0 0 1 1 1 1 0 1 1 1 1 1 1 1 1 0 0 1 1 1 1 1 1 1 1 1 0 0 1 1 1 0 1 1 1 1 1 0 1 0 0 0 1 1 1 1 1 0 1 1 1 1 0 0 0 1 0 1 1 0 1 1 1 1 0 1 1 1 1 0 1 0 1 0 1 0 1 0 1 0 1 1 0 1 0 1 0 0 1 1 1 1 0 0 1 1 0 1 0 0 1 0 1 0 1 1 1 1 1 0 1 0 1 1 1 1 1 1 1 1 0 1 1 1 1 0 1 1 1 1 1 1 1 0 1 0 1 1 1 1 0 1 1 0 1 0 1 1 1 1 1 1 1 1 0 1 1 0 1 1 0 0 1 1 1 0 0 1 1 0 0 0 1 0 0 0 1 1 1 1 1 1 0 1 1 1 1 1 1 0 0 1 1 0 1 0 1 0 1 0 1 1 1 1 0 1 1 1 0 1 1 0 1 0 0 0 1 0 0 1 1 1 1 1 1 1 1 1 0 0 1 1 1 1 1 1 0 0 1 0 1 1 0 1 1 1 0 1 1 1 1 1 0 0 1 1 1 1 1 0 1 1 1 0 1 0 1 1 0 1 1 1 1 1 1 1 0 0 1 1 1 1 0 0 0 1 1 0 1 0 0 0 1 0 1 1 0 0 1 1 1 1 1 1 1 1 1 0 1 0 0 1 1 1 0 1 0 1 0 1 0 1 1 0 1 0 0 1 0 1 1 0 1 1 1 1 1 0 1 1 0 1 1 1 1 1 1 1 1 0 0 0 1 1 1 1 1 0 0 1 0 1 1 0 0 1 0 1 1 1 1 1 1 0 1 1 1 1 0 1 1 1 0 1 1 0 1 1 1 1 1 0 1 1 0 1 1 1 1 1 1 1 1 0 0 0 1 1 1 0 0 1 1 1 0 0 1 0 0 0 1 1 0 1 0 0 1 0 0 1 1 1 1 0 1 1 0 1 1 1 1 1 1 1 0 1 0 0 1 1 1 1 1 1 1 0 1 0 1 1 0 1 1 1 0 1 1 1 0 0 0 1 1 0 1 1 1 1 0 1 1 1 1 1 1 1 1 1 0 1 0 1 1 0 0 1 1 1 1 1 1 1 1 1 1 1 0 1 1 1 0 0 1 1 0 1 1 0 0 1 1 1 0 1 1 1 1 1 1 0 1 1 0 1 1 0 0 1 0 1 1 1 1 0 1 1 1 1 1 1 0 1 1 1 1 1 0 1 1 1 1 1 1 1 1 1 1 0 1 1 1 1 1 1 1 1 1 1 1 1 0 1 0 1 1 0 0 1 1 0 1 0 1 1 1 0 1 1 1 0 1 1 1 1 1 1 1 1 0 1 1 1 1 1 1 0 1 1 1 1 0 1 1 1 0 0 0 1 1 1 1 1 1 1 1 1 1 1 0 1 1 1 0 1 1 1 1 1 1 1 1 1 1 0 1 0 0 1 1 0 1 0 1 0 1 1 1 1 0 1 0 1 1 0 0 0 0 1 0 1 1 0 1 0 1 1 0 0 1 1 1 0 1 1 0 1 1 1 1 1 0 0 1 0 1 1 1 0 0 0 0 0 1 1 1 0 0 1 1 1 1 0 0 1 0 1 1 1 1 1 0 0 1 1 0 0 1 1 0 1 1 1 0 1 1 0 0 0 1 1 0 0 1 0 1 0 0 1 1 1 1 1 0 1 1 0 1 0 1 1 0 1 1 0 1 0 1 1 1 1 0 0 1 1 1 1 1 1 1 0 1 1 1 1 0 0 1 0 1 0 1 1 0 1 1 1 1 1 1 1 1 1 1 0 1 1 0 1 1 1 1 1 1 0 1 1 1 1 1 0 0 1 1 1 1 1 1 0 1 1 0 0 1 1 0 1 0 0 1 1 0 1 1 1 1 1 0 1 1 0 1 1 0 1 1 1 1 0 1 0 0 0 1 1 0 1 0 1 1 1 1 0 0 1 1 1 1 1 1 0 0 1 0 1 0 1 0 0 0 1 1 1 1 1 1 1 0 0 1 0 0 1 1 1 1 1 1 1 1 1 1 0 1 1 1 1 1 0 1 1 0 1 1 1 0 1 0 1 0 1 1 1 0 0 1 1 1 0 1 1 1 0 0 1 0 0 1 1 0 1 0 0 1 1 1 0 0 0 0 1 1 1 0 1 1 1 1 1 1 1 1 0 0 1 1 1 0 0 1 0 1 0 1 1 1 1 1 1 1 1 1 1 1 0 1 0 1 0 1 0 1 1 1 1 0 1 0 0 1 1 1 1 0 1 0 1 0 1 0 0 1 0 0 1 1 1 1 0 0 1 1 1 0 1 1 1 1 0 1 1 1 1 1 1 0 0 1 1 0 1 1 0 1 1 0 0 1 1 0 1 1 1 1 1 1 0 1 1 1 0 0 0 1 1 1 0 1 1 1 1 1 1 1 0 0 1 0 1 1 1 1 1 0 1 1 1 1 1 1 1 1 0 1 0 0 1 1 1 1 1 1 0 1 0 0 0 1 1 1 1 1 1 1 0 0 1 1 1 1 1 0 1 1 1 1 0 1 1 1 1 1 1 1 1 1 0 0 1 1 0 0 1 1 0 1 0 0 1 1 1 0 1 0 1 0 1 1 1 0 1 1 1 1 1 1 1 1 1 1 1 1 1 0 1 0 0 1 1 1 0 0 1 1 1 1 1 0 1 1 1 1 1 1 1 1 1 1 0 1 1 0 1 1 1 0 0 0 0 1 1 1 0 0 1 1 1 0 1 1 1 0 1 0 1 0 1 1 0 0 0 0 0 1 1 1 1 0 0 1 0 1 0 1 1 0 0 1 0 1 1 1 0 0 1 1 0 1 1 0 1 0 1 0 1 1 0 1 1 1 0 1 1 0 0 1 1 1 1 0 1 1 0 1 1 0 1 1 0 0 1 1 1 1 1 1 1 0 1 0 0 0 1 1 1 1 1 1 1 1 1 1 1 0 0 1 1 1 0 1 1 1 0 1 1 1 1 1 1 1 0 1 1 0 1 1 1 1 0 1 1 0 0 1 1 1 1 1 1 1 1 1 0 1 0 1 1 1 1 1 1 0 0 1 1 0 1 1 1 1 0 0 1 0 0 1 1 1 1 0 1 1 1 1 0 1 0 0 0 1 1 1 0 1 1 1 1 0 0 1 1 0 0 0 0 1 0 1 1 1 1 0 1 0 0 1 1 0 1 1 1 1 1 1 1 0 1 1 1 1 1 1 1 1 1 0 1 1 1 0 0 1 0 1 0 0 1 1 0 0 1 1 1 1 1 1 1 0 1 1 1 0 0 0 1 0 1 1 1 1 1 1 1 0 1 1 0 0 1 1 1 0 1 1 1 1 1 1 1 1 1 1 0 0 1 1 0 1 0 1 0 1 1 1 1 1 0 0 0 0 1 1 1 1 1 1 1 1 1 1 1 1 1 0 0 1 0 0 0 0 1 1 0 1 1 1 1 1 0 0 1 1 1 1 1 1 0 1 0 1 1 0 1 1 1 0 1 0 1 1 1 1 0 0 0 0 1 1 1 0 1 1 1 0 1 1 1 1 1 1 0 1 1 0 0 1 1 1 1 0 1 0 1 1 1 0 1 1 0 1 1 1 0 1 1 0 1 1 1 1 1 1 1 1 0 0 0 1 1 1 0 0 1 0 1 0 1 0 1 1 1 1 1 1 1 1 0 0 1 1 1 1 0 1 1 1 1 1 0 1 0 0 1 1 1 1 1 1 0 1 1 1 1 1 0 1 0 1 1 1 1 1 1 0 0 1 1 0 0 1 1 1 1 1 1 0 1 0 1 1 0 1 1 1 0 1 1 1 0 0 1 1 0 0 1 1 1 1 0 1 0 0 1 1 1 1 0 0 1 1 1 0 0 1 1 0 0 1 1 1 1 1 1 0 1 0 1 0 1 0 0 1 0 1 1 1 1 1 0 0 1 1 1 1 1 1 0 1 0 1 1 1 0 0 1 0 0 1 1 1 1 1 1 1 1 1 0 1 0 1 1 0 1 0 1 0 0 1 1 1 1 1 1 1 0 1 1 1 1 0 1 0 1 0 1 1 1 0 1 0 1 1 1 0 1 1 1 1 0 0 1 1 0 1 0 1 0 1 1 1 1 1 1 1 1 0 0 1 1 1 1 0 1 1 0 0 0 0 1 0 1 0 1 0 1 1 1 0 1 1 0 0 1 0 1 1 0 0 1 0 1 0 0 1 1 1 0 1 1 1 1 0 1 1 1 1 1 0 0 0 0 0 1 1 1 0 0 1 0 0 1 0 0 0 1 1 0 0 1 1 1 1 1 0 1 0 1 1 0 0 1 1 0 1 1 1 1 1 1 0 1 0 0 1 1 1 1 1 1 1 0 1 1 0 1 1 0 0 1 1 1 0 1 1 0 1 0 1 1 1 0 1 1 0 0 1 1 1 1 1 1 0 0 1 1 1 0 1 0 1 1 1 1 1 1 1 1 1 1 1 0 0 1 1 1 1 1 1 1 1 1 1 1 1 0 0 1 0 1 1 1 1 1 1 0 0 1 1 1 0 1 1 0 1 1 0 0 1 1 1 0 1 1 1 1 1 1 1 1 0 1 1 0 1 0 0 1 1 0 0 1 1 1 1 0 1 1 1 1 1 1 1 1 0 1 1 0 0 1 0 1 1 1 1 1 1 0 1 1 1 1 1 1 1 1 1 1 0 0 1 1 0 1 0 1 1 1 0 0 1 1 1 0 1 1 1 0 1 1 1 0 1 1 0 0 1 1 1 1 1 0 1 1 0 1 1 1 1 0 1 1 1 1 0 1 1 0 1 0 1 0 0 1 1 1 1 1 1 0 1 1 0 1 1 1 1 1 1 1 0 1 1 1 0 1 1 1 0 1 1 0 1 1 1 1 1 1 0 0 0 0 1 1 1 1 0 1 1 0 0 0 1 0 0 1 1 1 1 1 1 1 1 1 0 1 1 1 1 1 1 1 0 1 1 0 1 0 1 1 1 1 1 1 1 0 0 1 1 1 1 1 1 0 1 1 1 1 1 1 1 0 1 1 1 1 0 0 0 0 0 0 1 1 1 1 0 0 1 1 0 1 0 1 1 0 1 1 0 0 0 1 1 1 1 0 1 1 1 1 1 0 1 1 1 1 1 1 1 0 0 1 0 1 1 1 1 1 1 0 1 1 1 1 1 0 1 0 1 1 1 1 1 1 1 1 0 1 1 1 1 0 0 1 1 1 0 1 0 0 0 0 1 0 1 1 1 1 0 0 0 1 1 1 1 0 1 1 1 1 0 1 1 1 0 1 0 1 1 1 1 1 1 1 0 1 1 1 1 1 1 1 1 1 0 1 1 1 1 0 0 0 0 1 1 1 1 1 0 0 1 1 1 0 1 1 0 1 0 1 0 1 0 1 1 1 1 1 1 1 1 0 0 1 1 1 1 0 0 1 1 0 1 0 0 1 1 0 1 1 1 1 1 0 0 1 1 1 1 1 1 1 1 0 1 1 0 1 1 1 1 1 0 1 0 1 0 1 1 1 1 1 1 0 0 0 1 0 0 1 0 1 0 1 1 1 1 1 1 1 0 1 0 1 0 1 1 1 1 0 1 1 0 1 1 1 1 0 1 1 1 0 1 1 1 1 1 1 0 1 0 1 1 1 1 0 0 0 1 1 0 0 1 0 0 0 1 1 1 1 0 0 0 1 1 1 1 1 1 1 1 1 0 1 1 0 1 0 1 1 1 1 1 1 0 1 1 1 1 1 0 1 1 1 0 1 0 1 1 0 1 0 1 0 1 1 0 1 1 1 1 1 1 1 0 1 1 1 1 1 1 0 0 1 1 1 1 1 1 1 1 1 1 1 1 1 1 1 1 0 0 1 1 1 1 0 1 0 1 1 0 0 1 1 0 0 1 1 1 1 1 1 0 1 0 0 1 1 1 1 1 1 0 0 0 1 1 1 1 1 1 0 0 0 1 1 0 1 1 0 0 1 1 1 1 1 0 0 1 1 1 0 1 0 1 0 1 1 0 0 0 1 1 1 0 1 1 1 1 0 0 1 1 1 1 1 0 1 1 1 1 0 1 1 0 1 0 1 1 1 0 0 1 0 0 1 1 1 1 1 0 1 1 1 1 1 0 1 1 1 0 1 0 1 0 1 1 1 1 0 1 0 1 1 1 1 1 0 1 1 1 1 0 0 1 0 1 1 1 1 1 0 1 1 0 0 1 0 1 0 0 0 1 0 0 1 1 1 1 1 1 1 1 1 0 0 1 1 1 1 0 0 0 1 1 1 1 1 1 1 1 1 1 0 1 0 1 1 1 0 1 0 0 1 0 1 1 1 1 1 0 0 1 1 1 1 0 1 0 0 0 0 1 1 0 1 1 1 1 1 1 1 1 1 1 1 1 1 1 0 1 1 0 0 1 0 1 1 1 1 1 1 1 1 1 0 1 1 0 1 1 1 1 0 0 1 1 1 0 1 0 1 1 1 1 0 1 1 0 1 1 1 1 0 1 0 1 1 0 1 1 1 1 0 1 1 1 0 1 1 1 1 1 1 1 0 1 0 1 1 0 1 1 1 0 1 1 1 1 1 1 1 1 0 1 0 1 1 1 1 1 0 1 0 1 1 0 0 1 1 1 0 1 1 1 0 1 1 1 0 0 1 1 1 1 0 1 1 0 0 1 1 1 1 1 0 1 0 0 1 1 1 1 0 1 0 1 1 0 1 1 1 1 1 1 0 1 1 1 1 0 0 0 1 1 1 1 1 0 1 1 1 1 0 1 1 0 0 1 1 1 1 1 1 0 0 1 1 0 0 0 0 0 0 1 1 1 1 1 0 1 0 1 1 0 0 1 1 0 1 1 0 1 1 0 1 0 1 1 1 1 0 1 1 0 1 1 1 1 0 1 0 1 0 1 1 1 1 1 1 0 1 0 1 0 0 1 1 1 1 1 1 0 1 0 1 1 0 1 1 1 1 1 1 1 1 1 1 0 1 1 1 1 1 1 0 0 0 1 1 1 1 1 0 1 1 1 1 1 1 1 1 1 1 0 1 0 1 0 1 0 1 1 1 0 0 1 1 1 1 1 1 1 1 1 0 1 0 0 1 1 1 1 0 1 1 1 1 0 0 1 1 1 1 1 0 1 1 1 1 0 0 0 0 1 0 1 1 1 1 0 1 1 1 1 1 1 0 1 0 1 1 1 0 1 1 1 0 1 1 1 0 1 1 1 1 1 1 0 0 1 1 1 1 1 1 1 1 1 1 0 1 1 1 1 1 0 0 0 1 0 1 1 0 1 0 1 1 0 1 1 1 1 1 1 1 1 1 1 0 1 1 1 1 1 1 1 1 1 0 1 1 1 1 1 1 0 1 1 1 1 0 0 0 1 0 1 1 0 0 0 1 1 1 1 1 0 1 1 1 1 1 1 1 1 1 1 0 0 1 0 1 0 1 1 0 0 0 1 1 1 1 1 1 0 1 0 0 1 0 1 1 1 1 1 1 0 1 1 1 1 1 1 0 0 1 0 1 1 1 1 1 0 1 1 1 1 1 1 1 1 0 1 1 1 1 1 1 1 1 1 0 1 1 0 1 0 1 0 1 0 1 1 1 1 0 0 0 1 0 1 1 1 1 1 0 1 1 1 1 1 0 1 1 1 1 1 1 1 1 1 1 1 1 0 1 1 1 0 1 1 1 0 1 1 0 1 0 1 0 1 1 1 1 1 1 0 1 1 0 0 0 0 1 0 1 1 1 1 1 1 0 0 0 1 1 1 1 1 0 0 1 0 1 1 1 1 1 1 0 1 1 1 0 0 1 1 1 1 1 1 1 1 0 1 0 0 0 0 1 1 1 0 0 1 0 1 1 0 1 1 1 1 1 0 0 0 1 0 0 1 1 1 1 0 0 1 1 1 1 1 0 1 1 1 1 1 1 0 1 1 0 1 1 1 1 1 1 1 1 1 1 1 1 1 0 0 1 1 1 0 1 1 1 1 1 1 1 1 0 1 1 1 0 1 0 0 1 1 1 0 0 1 0 1 1 1 1 1 0 0 0 1 0 0 0 1 1 0 1 1 1 1 1 1 0 1 1 1 0 1 0 0 1 0 0 1 1 0 1 0 1 1 1 0 1 1 1 0 0 1 0 1 0 1 1 0 1 0 1 0 1 1 0 1 1 1 1 0 1 0 1 1 1 0 1 1 1 1 1 0 1 1 0 1 0 1 1 1 0 1 1 1 1 1 0 1 1 1 1 1 1 1 1 0 0 1 1 0 0 1 1 1 0 0 0 1 1 1 1 1 0 1 1 0 1 1 1 1 0 0 1 1 0 0 0 1 0 1 1 1 1 1 0 0 1 1 1 0 1 1 0 1 1 0 1 1 1 1 1 0 1 1 1 1 1 1 0 1 0 0 1 1 0 1 1 1 1 0 0 0 1 1 1 1 1 1 1 1 0 1 1 1 1 1 1 0 1 1 1 1 1 0 1 1 1 0 1 1 1 1 1 0 0 1 1 1 0 0 0 1 0 1 1 1 1 1 1 1 1 0 1 0 0 0 1 1 0 1 1 1 1 1 1 1 1 1 0 1 0 1 1 1 1 0 0 1 1 0 0 1 0 1 1 0 0 0 0 1 1 1 1 0 1 0 0 1 0 1 0 1 1 0 1 0 1 1 1 0 1 1 1 0 0 1 1 0 0 1 1 0 1 1 1 0 1 1 1 0 0 1 0 0 1 1 1 1 0 0 1 1 1 1 1 1 1 0 1 0 1 1 0 1 1 0 1 1 1 1 1 0 1 1 1 1 0 1 1 1 1 1 1 1 1 0 0 1 1 0 1 1 1 1 0 1 1 1 1 1 1 1 0 1 0 1 1 1 1 1 1 1 1 1 1 0 0 1 1 0 1 1 1 1 0 1 1 1 1 0 1 1 1 0 1 1 1 0 1 1 0 0 1 0 1 1 1 1 0 0 0 1 0 1 1 1 1 1 1 1 1 0 1 1 1 1 1 0 1 1 1 1 1 1 1 1 1 0 0 1 0 1 1 1 0 1 1 1 0 1 1 0 1 1 1 1 1 0 0 1 1 1 1 0 1 1 1 1 1 1 1 0 1 1 0 1 1 0 0 1 1 0 1 1 1 0 1 1 1 1 0 1 1 1 0 0 0 0 1 1 0 1 1 1 1 1 1 1 0 1 0 1 1 1 0 1 0 0 1 0 0 1 1 1 0 1 1 1 0 0 1 1 0 1 1 0 0 1 1 1 0 0 1 1 1 1 0 1 1 1 0 1 1 1 0 1 1 0 1 0 0 1 0 0 1 1 0 0 1 0 1 1 0 1 0 1 0 0 0 1 1 0 1 1 0 0 1 1 1 0 0 1 1 1 1 1 1 1 1 0 0 1 0 0 0 1 1 1 1 1 1 1 1 0 1 1 1 1 0 0 0 0 0 1 1 1 1 1 0 1 1 1 0 1 0 0 1 1 1 0 1 1 1 1 1 1 1 1 1 1 1 0 0 1 0 1 0 1 1 1 1 1 1 1 0 1 1 1 1 1 1 1 1 1 0 0 1 0 1 1 1 1 0 1 1 1 1 1 1 1 0 0 1 1 1 0 1 0 0 1 1 1 1 1 1 1 1 1 1 0 1 1 1 1 1 1 1 0 0 1 1 1 1 1 0 1 1 1 1 0 1 0 1 1 0 0 1 1 1 0 1 0 1 1 0 1 1 0 1 1 1 0 1 1 1 1 0 1 1 0 0 1 1 0 0 0 1 1 1 1 0 0 1 0 1 0 0 1 1 0 0 1 1 1 1 1 1 1 0 0 0 0 1 0 0 1 0 1 1 0 1 1 1 1 1 1 1 1 1 1 1 1 1 1 1 1 0 1 1 1 1 0 1 0 1 1 0 0 1 0 1 1 0 1 0 0 1 1 1 1 0 1 1 1 1 1 0 0 0 1 1 1 1 1 1 1 1 1 1 1 1 1 0 1 1 1 1 1 0 1 0 0 0 0 1 1 0 0 0 1 0 0 0 1 1 1 1 1 1 1 1 1 1 1 1 1 1 1 1 0 0 1 1 1 0 1 0 1 1 1 0 1 0 0 1 1 1 1 1 1 0 1 1 0 0 1 0 0 1 1 1 1 0 1 1 1 1 1 1 1 1 0 1 0 0 0 1 1 1 0 0 0 1 0 1 1 1 1 1 1 0 0 1 1 1 1 1 1 1 1 0 1 1 0 1 1 0 1 0 0 1 1 1 1 0 1 0 1 1 1 0 1 0 1 1 1 1 1 1 1 0 1 0 1 0 1 1 0 1 0 0 1 1 0 1 1 0 1 0 1 0 1 1 0 1 0 1 0 1 1 1 1 1 1 1 0 1 1 1 1 1 0 1 1 1 0 1 1 1 1 1 1 1 1 0 1 1 0 0 1 0 1 0 1 1 1 1 1 0 1 1 1 1 1 1 1 1 0 1 1 0 1 1 1 1 0 1 1 1 1 1 1 0 1 1 1 1 0 1 1 1 1 1 1 0 1 1 1 1 1 1 0 0 1 1 0 1 1 1 0 0 1 1 1 0 1 1 1 1 1 1 1 1 1 1 1 1 1 0 1 0 0 0 0 1 0 1 1 1 1 1 1 1 1 1 0 1 1 1 1 0 1 1 1 1 0 1 0 0 1 0 1 0 1 1 1 1 1 1 1 1 1 1 1 0 1 0 1 1 0 0 1 0 1 1 1 1 1 1 1 0 1 0 0 1 0 0 1 1 0 1 0 1 1 0 0 0 1 1 1 1 1 1 1 1 0 1 0 0 1 1 1 0 1 0 0 1 1 0 0 0 1 1 0 1 0 0 1 0 0 1 1 0 1 1 0 1 1 1 1 1 0 1 1 1 0 1 1 0 0 1 1 1 1 1 1 0 0 0 1 1 1 1 1 1 1 1 1 1 0 1 1 1 1 1 1 0 0 1 1 1 1 1 1 1 1 1 1 1 1 0 1 0 1 1 1 1 1 0 0 1 1 0 1 0 0 1 0 1 0 1 0 0 1 0 0 1 1 1 1 0 0 0 1 1 1 1 1 1 0 0 1 1 1 1 0 1 0 1 1 1 0 1 1 0 1 1 1 0 0 0 0 1 1 1 0 1 0 1 0 1 1 1 1 0 1 0 0 1 0 1 0 1 1 1 1 1 1 1 0 1 1 0 0 1 0 1 0 0 1 0 0 0 0 1 1 1 1 1 0 1 1 1 1 0 1 1 1 1 1 1 1 1 1 1 1 1 1 1 1 1 1 0 1 1 1 0 0 1 1 0 1 1 1 0 0 1 1 1 0 1 1 1 1 0 0 0 1 0 0 1 0 1 1 1 1 1 1 0 0 1 1 1 0 0 0 1 1 1 1 1 1 0 0 0 0 0 0 0 0 1 0 1 1 1 1 1 1 0 1 1 1 1 1 1 0 0 0 1 1 0 1 0 1 1 1 1 1 1 0 1 1 1 1 1 0 1 0 1 1 1 1 1 0 1 0 1 0 1 1 0 1 1 1 1 1 0 1 0 1 1 1 0 0 0 1 1 1 1 0 1 0 0 1 0 1 1 1 0 0 1 1 1 1 0 1 0 0 0 1 1 0 0 0 0 1 1 1 1 1 1 1 1 1 1 1 1 1 0 0 1 0 1 0 0 0 1 0 0 1 0 1 0 1 1 1 0 1 0 0 0 1 1 1 1 0 1 0 1 1 0 1 0 1 0 1 1 1 1 1 1 1 1 0 1 1 1 1 1 1 0 1 1 0 0 1 1 0 1 1 0 0 0 1 1 0 1 1 1 1 1 0 0 1 0 1 1 0 1 1 0 1 0 0 1 1 1 1 1 1 1 0 1 1 1 1 0 1 1 1 1 0 0 1 1 1 1 1 1 1 0 0 0 1 1 1 1 1 1 0 1 1 0 1 1 0 1 1 1 1 1 1 1 0 1 1 1 1 0 1 1 0 1 1 0 0 1 1 0 0 0 1 1 0 0 0 0 1 0 1 0 0 1 1 1 0 0 1 1 1 1 0 0 1 1 0 1 0 0 0 1 0 0 1 1 0 1 1 0 1 1 1 1 1 1 0 1 1 0 1 1 0 1 1 0 1 1 1 1 1 1 0 1 1 0 0 1 1 1 1 1 0 0 1 1 0 1 1 0 0 0 1 0 1 1 0 1 0 1 0 1 1 0 1 1 1 1 1 1 1 1 1 0 0 0 0 1 1 1 0 1 1 1 0 1 1 1 0 1 1 1 0 1 1 0 1 0 0 1 1 1 0 1 1 1 1 1 0 1 0 1 1 1 0 0 1 0 1 1 1 1 0 1 1 0 1 1 1 1 1 1 0 1 1 1 1 0 1 1 0 1 1 1 1 1 1 0 0 1 0 0 1 1 0 1 1 1 0 1 0 1 1 1 0 1 1 1 0 1 1 0 1 0 1 0 1 0 1 1 1 1 1 1 0 1 1 0 1 1 1 1 0 1 1 1 1 1 1 1 1 1 1 1 1 1 1 1 0 1 0 1 1 1 0 1 0 0 1 0 0 1 1 1 1 1 1 0 1 0 0 1 1 1 0 0 0 1 1 1 1 1 1 0 1 1 1 0 1 0 0 1 1 1 1 1 0 1 0 0 1 1 1 1 1 1 1 1 0 1 1 1 1 0 0 0 0 1 1 1 0 0 1 1 0 1 0 1 0 1 0 1 1 1 0 0 1 1 0 1 1 1 1 1 1 1 1 1 0 1 0 1 0 0 1 1 0 1 1 1 1 1 1 1 1 0 1 1 1 1 0 1 0 0 0 1 1 0 0 0 1 1 1 1 0 1 1 1 0 0 1 0 1 1 0 1 1 1 1 1 1 0 1 1 1 1 1 1 1 0 1 1 1 0 0 1 0 1 1 1 1 0 1 1 0 1 1 0 0 1 1 1 0 1 1 1 1 1 1 0 1 1 0 0 1 1 1 1 1 1 1 1 1 1 1 0 1 0 1 1 0 1 0 0 0 1 1 1 1 1 1 0 1 1 0 1 1 0 1 1 1 1 1 0 1 1 1 1 1 1 0 1 0 1 1 1 0 0 0 1 1 1 1 0 1 1 1 1 1 1 0 1 0 1 1 0 0 1 1 1 0 1 0 1 1 1 1 0 1 0 1 1 0 0 1 0 1 1 0 0 0 1 1 0 1 1 1 1 1 1 0 1 1 1 1 1 1 1 1 1 0 0 0 0 1 0 0 1 1 0 0 1 1 0 1 1 1 1 1 1 1 1 1 1 0 1 0 1 1 1 1 0 0 1 1 1 1 1 1 0 1 1 1 0 1 1 1 0 1 1 1 1 1 1 0 0 1 0 1 1 1 1 1 1 0 0 0 1 1 1 1 1 0 1 1 0 1 0 1 0 1 1 0 0 1 1 0 0 1 1 0 0 1 1 1 1 0 1 1 0 1 0 0 0 0 1 1 1 0 0 1 1 1 0 1 0 1 0 1 0 1 0 0 1 1 1 1 1 1 1 1 1 1 1 1 1 0 1 0 1 1 1 1 1 0 1 1 1 1 1 1 1 0 1 1 0 1 1 0 1 0 0 1 1 1 1 1 0 1 1 1 1 1 0 1 1 1 0 0 1 1 1 1 1 1 1 0 1 1 0 1 1 1 1 1 1 1 1 1 1 1 1 1 1 1 1 0 1 1 1 1 1 1 0 1 1 1 1 0 0 1 1 1 1 0 0 1 1 1 0 1 1 1 1 1 1 1 0 1 1 1 1 0 1 1 0 0 1 0 1 1 1 0 1 1 0 0 1 1 0 0 1 1 0 1 1 0 0 0 1 0 1 0 0 0 0 1 1 0 1 1 0 1 0 1 0 1 1 1 0 0 1 1 1 1 1 0 1 1 0 1 1 1 1 1 1 1 0 1 1 1 1 0 1 0 1 0 1 0 1 1 1 1 0 0 0 0 0 1 0 1 1 1 1 1 1 1 0 0 0 1 0 1 1 0 1 1 0 1 1 1 1 1 1 1 1 1 0 1 1 1 0 0 0 1 1 0 1 0 1 0 1 1 0 1 0 1 1 0 1 1 1 1 1 1 0 1 0 1 0 1 0 0 1 1 1 1 1 1 1 1 1 1 0 1 0 1 1 1 1 0 1 0 0 1 0 1 1 0 1 1 1 1 1 1 1 0 0 1 1 0 1 0 1 0 0 0 1 1 0 1 1 1 0 1 1 1 1 1 1 0 1 1 1 1 1 1 0 1 1 0 1 1 1 1 1 1 1 1 1 1 1 0 0 0 1 1 1 1 1 0 1 1 1 0 1 1 0 0 1 1 1 0 0 0 1 1 1 1 1 1 0 0 0 0 0 1 1 1 0 1 1 0 1 1 1 1 1 0 1 1 1 1 1 1 1 0 1 1 0 1 0 1 1 0 1 1 1 1 1 1 1 1 0 1 1 1 1 1 1 1 1 1 0 0 1 1 1 1 1 1 0 1 1 1 1 1 1 0 1 1 1 1 1 1 0 1 0 0 0 1 0 1 0 1 0 1 1 1 1 1 1 1 1 1 1 1 1 1 1 1 1 1 1 0 1 1 1 1 1 1 1 0 1 1 0 1 1 1 1 1 0 1 1 1 1 1 1 1 1 1 1 1 0 0 1 1 1 1 0 1 1 1 0 1 0 1 1 1 0 0 1 1 1 1 1 1 0 0 1 0 0 0 1 1 1 1 1 1 1 1 1 1 1 0 0 0 1 0 1 1 1 1 1 1 1 1 1 1 1 1 0 1 1 1 1 0 1 1 1 0 1 1 1 0 1 1 1 1 1 0 0 1 1 1 0 0 1 0 1 1 1 1 1 0 0 0 1 1 1 1 0 1 1 0 0 0 0 0 0 1 0 1 1 0 1 1 0 1 1 1 0 1 1 1 0 1 1 1 0 1 1 1 1 1 0 0 0 1 1 1 0 0 1 1 0 1 1 1 1 0 0 0 1 1 0 1 1 0 0 1 1 0 1 0 1 1 1 0 1 1 1 1 1 1 1 1 1 1 0 0 1 1 0 0 1 1 1 0 1 1 0 1 1 1 0 1 1 1 1 1 1 1 1 1 1 1 1 1 0 1 0 1 1 1 0 0 1 0 1 1 0 1 1 0 1 1 0 1 1 1 1 1 1 1 1 1 1 1 1 1 0 1 0 1 1 1 0 0 0 1 0 0 0 1 1 1 1 1 1 0 0 1 0 1 1 1 1 0 0 1 1 0 1 1 1 1 1 1 0 0 1 0 0 0 1 1 1 1 1 0 0 1 1 1 0 0 1 1 1 1 1 1 1 1 0 1 1 0 1 1 1 1 0 1 0 0 1 1 1 1 1 0 1 1 0 1 1 0 1 1 1 0 1 1 1 0 0 1 1 0 1 1 1 0 0 1 1 1 1 1 1 0 1 1 1 0 1 1 1 1 1 0 1 0 1 0 1 1 1 1 1 1 1 1 1 1 1 1 1 1 1 1 1 0 1 1 1 1 1 1 0 1 0 0 1 0 0 1 0 0 0 0 1 1 1 0 1 0 0 1 1 1 0 1 1 1 1 1 1 0 1 0 1 1 1 0 0 1 1 1 1 0 1 0 0 0 1 0 1 1 1 0 0 0 1 1 1 1 0 1 1 1 1 1 1 0 1 1 1 1 1 0 0 0 0 1 1 1 1 1 1 1 0 0 1 1 1 1 1 0 1 1 0 1 0 1 1 1 1 1 1 0 0 1 1 1 0 1 1 1 1 1 1 0 1 1 1 1 1 1 0 1 1 1 0 0 1 1 0 1 1 0 0 0 0 1 1 0 1 1 0 0 1 1 0 0 0 1 1 1 1 1 1 1 1 1 1 1 1 1 1 0 1 1 1 1 1 1 0 1 1 1 1 1 1 1 1 0 1 1 1 1 0 1 1 1 1 0 1 1 0 0 0 1 0 0 1 1 1 1 1 1 1 0 1 0 0 1 0 1 0 1 0 1 1 1 0 0 1 1 1 1 1 0 1 1 1 0 1 1 1 1 1 1 1 1 1 0 0 1 1 1 0 1 1 1 1 1 1 0 1 1 1 1 1 1 0 1 0 1 1 1 1 1 1 0 1 1 1 0 0 1 1 0 0 0 1 1 1 0 1 1 1 0 1 1 1 1 1 1 0 0 1 1 1 1 1 1 0 0 1 1 1 1 1 1 1 1 1 1 0 0 1 1 1 1 1 1 1 0 1 1 0 1 1 1 1 1 0 1 1 1 1 0 0 1 0 1 1 1 1 1 0 1 0 1 1 0 1 1 0 1 0 0 1 1 1 1 1 0 0 1 0 1 1 0 1 0 0 0 1 1 1 1 1 1 0 1 0 1 1 0 1 0 1 0 1 0 1 0 1 1 0 1 0 1 1 0 1 0 1 1 1 0 1 1 0 1 1 1 1 0 1 1 1 0 1 1 0 1 0 0 0 1 1 1 0 0 1 1 0 1 1 0 1 1 0 0 1 1 1 1 1 1 1 0 0 1 1 1 1 1 1 0 1 1 0 1 1 1 1 1 1 1 1 0 1 1 1 1 1 1 1 1 1 0 1 1 1 1 1 0 0 1 1 1 0 1 0 1 1 1 1 1 1 0 0 1 1 1 1 1 1 0 1 1 1 1 1 1 1 0 1 0 1 1 1 0 0 1 1 0 1 0 0 1 0 0 1 0 1 1 0 1 0 0 0 1 1 1 1 1 1 0 1 0 1 1 1 1 0 0 1 1 1 1 0 0 0 1 0 1 1 0 0 1 1 1 1 1 1 1 1 1 1 1 1 0 1 1 1 1 1 0 1 1 1 0 0 1 0 1 1 0 1 1 1 1 0 1 0 1 1 1 0 1 1 1 1 1 1 0 0 1 1 0 0 1 0 1 0 1 1 0 1 1 1 1 0 1 1 0 0 0 1 1 1 1 0 0 1 1 0 1 0 1 1 1 1 1 0 0 0 0 0 0 1 1 0 1 0 1 1 0 1 1 1 0 1 0 1 1 0 1 1 1 1 1 1 1 1 0 1 1 1 0 1 1 0 1 1 0 1 1 1 0 0 1 0 0 1 0 1 1 1 1 1 1 1 1 0 0 0 1 1 0 1 0 1 0 1 1 1 0 1 1 1 1 1 1 1 0 1 1 1 1 1 0 1 1 1 0 0 0 1 0 0 0 1 0 1 1 0 1 1 0 0 0 0 1 1 1 0 1 0 1 0 1 1 1 0 0 0 1 1 1 1 1 1 1 0 1 0 0 1 0 1 1 1 0 1 1 1 1 1 1 0 0 1 1 1 0 0 0 1 1 0 1 1 1 1 1 1 0 1 1 0 1 1 1 1 1 1 1 1 1 1 1 1 0 1 1 1 1 0 1 0 1 1 1 1 0 0 1 1 0 1 1 1 1 1 1 0 1 1 1 1 1 1 1 0 1 0 1 1 0 1 1 0 0 1 1 0 1 0 1 1 1 0 1 1 1 1 1 1 1 0 0 0 1 0 0 0 1 1 0 1 1 1 1 1 1 1 1 1 0 1 0 1 1 1 1 0 0 0 1 1 1 0 1 1 1 1 0 1 0 1 1 0 1 1 1 1 1 1 0 0 0 1 0 1 1 0 1 0 0 1 1 1 1 1 1 1 1 1 1 0 1 1 1 1 0 1 0 0 1 1 1 1 0 1 0 1 1 1 1 1 1 1 1 0 0 1 1 1 0 1 0 1 1 1 1 0 0 0 1 1 0 0 1 1 0 1 1 1 1 1 1 1 1 1 1 1 1 0 1 1 0 0 1 1 1 0 1 0 1 0 1 1 1 1 1 1 1 1 1 1 1 1 1 0 1 1 1 0 1 1 1 1 1 1 1 0 1 1 1 1 1 0 0 1 1 1 1 1 1 0 0 1 1 1 1 0 0 0 1 1 0 1 0 1 1 1 1 1 1 1 1 1 1 0 1 1 1 1 1 1 1 0 0 1 1 1 1 1 1 0 1 0 1 1 0 0 1 1 0 0 1 1 1 1 0 0 0 1 1 1 1 1 0 0 1 0 1 1 1 1 0 1 1 0 0 0 0 1 1 0 1 1 1 0 1 1 0 1 1 1 1 1 1 1 1 0 1 0 1 1 1 1 0 1 1 0 0 1 1 0 1 1 1 1 0 0 0 1 1 1 1 1 1 1 1 1 1 1 1 1 1 1 1 0 1 0 0 1 1 1 0 1 1 1 1 0 1 1 1 1 1 1 1 1 1 0 1 1 0 1 1 1 0 1 1 1 1 1 1 0 0 1 1 1 1 1 1 0 0 1 1 0 1 1 1 1 0 0 1 0 1 1 0 1 1 0 1 1 1 1 0 1 1 1 0 1 1 1 1 1 0 1 1 1 1 0 1 0 1 1 1 0 1 1 0 1 1 1 1 1 1 1 1 1 0 1 1 0 0 1 1 1 0 0 0 1 0 1 1 0 1 1 0 1 1 0 1 0 1 1 1 1 1 1 1 1 0 1 1 1 0 0 1 0 1 0 1 1 1 1 1 1 0 1 0 1 0 1 1 1 0 1 1 1 1 0 1 1 1 1 0 1 1 1 1 1 0 0 0 0 1 1 1 1 1 0 1 1 0 0 1 1 1 0 0 1 1 1 1 1 1 0 0 1 1 0 0 1 1 0 1 0 1 1 1 1 1 0 1 1 1 0 1 1 1 1 1 0 1 0 0 0 0 1 0 1 1 1 1 1 1 1 0 1 1 1 1 1 0 1 1 0 1 1 1 0 1 1 0 0 0 0 1 0 1 1 1 1 1 1 1 0 0 1 1 1 1 1 1 1 1 1 0 1 1 1 1 1 0 1 0 1 1 1 0 1 1 1 1 1 1 1 1 1 1 1 1 1 1 1 1 1 1 0 0 1 1 1 0 0 1 1 1 0 1 1 1 1 1 0 1 1 1 1 0 1 1 0 1 0 1 0 0 0 1 1 1 1 0 1 0 1 1 0 1 1 1 0 0 1 1 0 1 1 0 0 1 1 0 1 0 1 1 0 1 1 0 1 1 0 1 1 1 1 1 0 1 1 1 0 0 1 1 1 1 1 1 1 0 1 1 1 0 1 1 1 1 1 1 1 1 1 0 1 0 1 1 1 1 0 0 0 0 1 1 1 1 1 1 1 1 1 1 1 1 0 1 1 1 1 1 1 0 1 1 1 1 1 1 1 0 0 1 1 1 1 1 1 1 0 1 0 1 1 1 1 1 0 1 0 0 1 1 1 1 1 1 0 1 1 0 1 1 1 1 0 1 1 0 0 1 1 1 1 1 1 1 0 1 0 0 1 1 1 0 1 1 0 1 0 0 1 0 0 1 1 1 0 1 1 1 1 0 0 1 1 1 1 0 1 1 0 1 0 1 1 1 0 1 1 1 0 1 1 1 1 1 0 0 1 1 1 1 1 0 0 0 1 1 0 0 1 0 1 1 0 1 0 1 1 1 1 1 1 1 1 1 1 1 1 1 0 1 0 1 1 0 1 0 1 0 1 1 1 1 1 1 1 1 0 1 1 1 0 0 1 1 1 0 0 1 1 1 1 0 1 1 1 1 0 1 1 1 1 1 1 1 1 1 0 1 0 1 1 1 1 1 1 1 1 0 0 1 0 1 0 1 1 1 1 1 1 1 0 1 1 1 1 1 1 1 0 1 1 1 1 1 0 1 1 0 1 0 1 1 0 1 0 1 0 1 1 0 1 1 0 0 1 1 1 1 1 0 0 1 0 1 1 1 0 1 1 1 1 0 1 0 1 0 1 1 1 0 1 1 1 0 1 1 1 1 1 0 1 1 0 0 0 1 1 1 0 0 1 1 0 0 1 0 1 1 0 0 1 1 1 1 1 1 1 0 1 1 1 1 1 1 0 1 1 1 0 1 1 1 1 1 1 1 1 1 1 0 0 0 1 0 1 1 0 1 0 1 1 0 1 1 0 1 1 0 1 0 0 1 1 1 1 0 0 1 1 1 0 1 1 1 1 1 0 1 0 1 1 1 0 1 1 0 1 1 1 0 1 1 0 1 1 1 0 0 1 1 1 1 1 1 1 0 1 0 1 0 0 0 1 0 1 0 0 0 1 1 1 1 0 0 0 0 0 1 1 0 0 1 1 1 0 1 1 1 1 1 1 1 1 1 1 1 1 0 1 1 1 1 1 0 1 1 1 1 0 0 0 0 0 1 1 0 0 0 0 1 0 1 1 1 0 0 0 1 1 0 1 1 0 1 0 1 1 1 0 1 1 1 1 1 1 1 1 0 1 1 0 1 1 1 1 1 1 0 1 1 1 0 0 1 0 0 1 1 1 1 0 1 0 0 0 1 0 1 0 0 1 0 1 0 1 1 1 1 1 1 1 1 0 1 1 1 1 1 1 1 1 1 1 0 1 1 1 1 1 0 0 1 1 0 1 0 0 1 1 1 1 1 1 1 1 0 1 1 1 1 1 1 1 0 1 1 0 1 1 1 0 0 1 1 1 1 0 0 1 1 1 0 1 0 0 1 0 1 0 1 1 0 1 1 1 1 1 1 0 1 1 1 1 0 1 1 1 0 0 1 1 1 1 1 0 1 1 1 1 1 1 1 1 1 1 1 1 0 1 0 0 1 1 1 1 0 1 0 1 1 0 0 1 1 1 1 1 1 1 1 1 1 0 1 0 0 1 1 1 0 1 1 0 1 0 1 0 1 1 1 1 1 1 1 1 1 1 0 0 1 0 1 1 1 1 1 1 1 0 1 1 1 1 1 0 1 1 1 1 0 0 1 1 1 1 1 1 1 1 1 1 1 1 0 0 0 0 1 1 0 1 1 0 0 1 0 0 1 1 0 0 0 1 1 0 1 1 0 0 1 1 0 1 1 1 1 0 1 1 0 0 0 1 0 1 0 1 1 1 0 1 1 1 0 0 1 0 1 0 1 0 1 1 1 1 1 1 1 1 0 1 1 0 1 1 1 0 0 1 1 0 1 0 0 0 1 1 1 1 1 1 1 1 1 0 0 1 1 0 1 1 1 0 1 1 0 1 1 1 0 0 1 1 1 1 1 0 0 1 1 1 0 0 0 0 0 1 0 0 1 0 1 0 0 1 1 0 1 1 0 0 1 1 1 1 1 0 1 0 1 1 0 1 1 0 1 1 0 1 1 1 1 1 1 0 1 1 1 1 0 0 1 1 0 1 1 1 0 1 1 1 0 1 0 1 1 0 0 1 1 1 1 1 0 0 0 0 1 1 1 1 0 1 1 1 1 0 0 0 1 1 0 1 0 0 1 0 1 1 0 0 0 1 1 0 0 1 0 1 1 0 1 1 1 1 0 0 1 1 1 1 1 1 0 0 0 1 1 1 1 1 1 0 1 1 1 1 1 1 1 1 1 0 1 1 1 1 0 1 0 1 1 1 0 0 1 1 1 1 0 0 0 1 0 1 0 0 1 1 1 1 1 1 1 0 1 0 1 0 1 1 1 1 1 1 1 1 1 0 1 1 0 1 1 1 1 1 0 1 1 1 1 1 1 1 1 0 1 1 0 1 0 1 1 1 1 1 1 1 1 1 0 0 1 0 1 1 1 0 1 1 1 1 1 0 0 0 0 1 0 1 1 1 1 1 1 1 1 1 1 0 0 0 0 1 1 0 0 1 0 1 1 1 1 1 1 0 1 1 1 1 1 1 1 1 1 1 1 1 1 1 0 0 0 1 0 1 0 1 1 1 1 1 0 1 1 1 0 1 1 1 1 1 1 0 1 0 1 1 0 0 1 1 0 1 1 0 0 1 1 0 1 1 0 1 1 0 0 1 0 1 1 1 1 0 1 1 0 1 0 1 1 1 0 1 0 0 1 1 1 1 1 1 1 1 0 1 0 1 1 1 1 1 1 1 1 1 1 0 0 0 0 1 1 1 1 0 1 1 1 1 1 1 1 0 1 1 1 0 1 1 1 1 1 0 0 0 1 0 1 1 0 1 0 1 1 1 1 1 1 0 1 1 0 1 1 0 1 1 1 1 1 1 0 0 1 1 0 0 0 1 1 1 1 1 1 1 1 0 1 1 1 1 1 1 1 1 1 0 1 1 1 1 1 1 1 1 0 1 1 0 1 1 1 1 0 0 0 1 1 0 1 1 0 1 1 1 1 1 1 0 0 1 0 1 1 1 1 0 1 1 1 1 1 1 1 0 1 1 0 1 1 1 1 1 1 1 1 1 1 0 0 1 1 0 1 1 1 0 1 1 1 1 1 1 1 0 1 1 1 1 0 1 1 0 1 0 1 1 1 0 1 0 0 1 0 1 1 1 0 1 0 1 1 1 1 1 1 1 1 1 1 1 0 1 1 1 1 0 1 1 1 0 1 1 1 1 1 0 0 0 0 0 1 1 0 1 0 1 1 1 1 1 0 1 0 1 1 1 0 1 0 1 1 1 1 1 1 1 1 1 1 1 1 1 1 1 1 1 1 0 1 1 1 1 1 1 1 0 1 1 1 0 0 0 1 1 1 1 0 1 1 0 1 0 0 0 0 1 1 0 0 1 1 0 1 1 1 1 1 1 0 0 1 1 1 0 1 1 1 0 0 1 1 1 1 0 1 1 1 1 0 1 1 1 1 1 0 0 0 1 1 1 1 1 0 1 1 1 1 1 1 0 0 1 1 0 1 1 1 1 0 1 0 1 1 0 1 0 0 1 1 1 1 0 1 0 1 1 1 1 0 0 1 1 1 1 0 0 1 0 0 1 1 1 1 1 0 1 0 1 1 1 1 1 1 1 1 0 1 1 0 1 1 0 1 0 1 1 0 0 0 1 1 0 1 1 1 1 1 1 1 1 1 0 1 1 1 1 0 0 0 0 1 1 0 1 1 1 1 1 1 1 1 1 0 1 0 0 1 1 1 1 0 1 1 1 1 1 1 1 1 1 0 1 1 1 1 0 1 1 1 1 1 1 0 1 1 1 0 1 1 1 0 1 0 1 0 1 1 1 1 1 0 1 1 0 1 1 1 0 1 1 1 0 1 1 1 0 1 1 1 1 1 0 0 1 0 1 0 1 1 1 1 0 0 1 0 1 1 1 1 1 1 1 1 1 1 1 0 1 0 0 0 1 1 1 1 1 1 1 1 0 1 1 1 1 1 1 1 1 1 0 0 0 0 1 1 1 0 1 0 0 1 0 1 0 1 1 1 1 1 1 1 1 1 1 1 1 1 1 1 1 1 0 1 0 1 1 0 1 0 0 1 0 0 0 1 1 0 1 1 1 0 1 0 1 1 0 0 1 1 0 1 1 0 1 1 1 1 0 1 1 1 1 1 1 1 1 1 1 1 1 0 1 1 1 1 1 1 1 1 1 1 0 1 1 1 1 1 1 1 1 0 0 1 1 1 1 1 0 0 0 0 1 1 0 1 0 1 1 1 0 1 1 1 1 1 1 1 0 1 1 1 1 1 1 0 0 0 0 1 0 0 0 1 1 0 1 0 1 1 1 1 0 1 1 0 0 0 1 1 1 1 1 0 1 0 1 0 0 1 1 1 1 0 1 0 0 1 0 1 0 0 0 1 1 1 1 0 1 1 1 1 1 1 0 1 1 1 0 1 1 0 1 1 1 1 0 1 1 1 1 1 1 0 1 1 1 1 0 1 1 1 1 1 1 1 0 1 1 0 1 1 1 1 1 1 0 1 0 1 1 1 1 1 1 1 0 1 1 0 0 1 0 0 1 0 1 0 1 0 1 0 1 1 1 1 0 1 0 1 0 1 0 1 1 1 0 1 1 1 1 1 1 1 1 0 1 0 0 1 1 1 1 0 1 1 0 1 0 1 0 0 1 1 0 1 0 1 1 1 1 1 1 1 1 1 1 1 1 1 1 0 1 0 0 1 0 1 1 1 0 1 1 1 1 0 1 0 0 1 1 0 1 0 1 1 0 1 1 1 1 1 1 0 1 1 0 1 1 1 1 0 0 0 1 1 1 1 0 1 0 1 1 0 0 1 0 1 1 1 1 0 1 1 0 1 1 1 0 0 1 0 1 0 1 1 1 1 0 1 0 0 1 1 1 0 0 1 0 0 1 0 1 0 1 1 1 1 1 1 1 1 0 1 0 0 1 0 1 1 1 1 1 0 1 1 0 1 1 1 0 0 1 0 0 1 1 1 0 1 1 1 0 1 0 1 1 1 0 0 1 1 0 1 1 1 0 0 1 1 1 1 1 1 0 1 1 1 1 0 0 0 0 1 1 1 1 1 0 1 1 0 1 1 0 1 0 1 1 1 1 1 1 0 1 1 0 1 1 0 1 0 0 0 1 1 1 1 1 0 1 1 0 1 1 1 1 0 0 1 1 1 1 0 0 0 1 0 1 0 0 1 0 1 0 0 0 1 1 1 0 0 1 1 0 1 1 0 1 1 1 1 1 1 0 1 1 1 1 1 1 0 1 1 1 0 0 1 1 1 1 0 1 0 1 0 1 1 1 1 1 1 1 1 1 1 0 0 0 1 1 1 1 1 1 0 0 1 1 0 0 1 1 1 0 1 1 1 1 1 1 1 0 1 1 0 0 1 1 0 1 0 0 0 1 1 1 0 1 1 0 1 1 1 1 0 0 1 1 1 1 1 0 1 0 1 1 1 1 1 1 1 1 1 1 0 0 1 1 1 1 1 1 1 1 1 1 0 0 1 0 0 1 1 1 1 1 0 1 1 0 1 0 1 0 1 1 1 1 1 1 0 1 1 0 1 1 1 0 1 0 1 0 1 1 1 0 1 1 1 0 1 1 1 1 0 1 1 1 1 1 0 0 0 0 1 0 1 1 1 0 1 1 1 1 1 1 1 1 1 0 0 1 0 1 1 1 1 0 1 1 0 1 1 1 0 1 1 0 1 1 0 1 1 1 1 1 1 1 0 1 1 0 0 0 1 1 1 1 1 1 1 1 1 1 1 1 1 1 1 1 0 1 1 1 1 0 0 1 1 1 1 1 1 1 1 0 0 1 0 0 0 1 1 0 0 1 1 0 0 0 1 1 0 1 0 1 1 1 1 0 1 1 0 1 1 0 0 1 1 1 1 0 0 0 1 0 1 1 1 1 1 1 1 1 1 0 1 1 0 1 1 1 1 1 1 1 1 1 1 1 0 0 1 0 1 1 0 0 1 0 1 0 0 0 1 1 0 0 1 1 1 1 1 1 0 1 1 1 1 1 1 0 1 0 1 1 1 1 1 1 0 1 1 1 1 1 1 0 0 1 1 1 1 1 1 1 0 1 1 1 1 1 1 1 1 1 0 1 1 0 1 1 0 1 0 1 1 1 1 1 1 1 1 0 1 1 1 1 1 0 1 0 1 1 1 1 1 1 1 0 1 0 0 0 1 0 1 0 1 1 1 1 1 0 1 1 0 1 0 1 1 1 1 1 1 1 1 1 1 0 0 0 1 1 1 1 1 1 1 0 1 1 0 1 1 0 1 1 1 1 1 1 1 0 1 0 1 0 1 1 0 0 0 0 1 1 1 1 0 1 1 1 1 1 1 1 0 1 0 1 0 1 1 1 1 1 1 0 0 1 1 1 0 1 1 0 0 1 1 0 0 1 0 1 1 1 1 0 1 1 0 1 1 0 1 1 1 1 1 0 1 1 1 0 0 1 1 1 1 0 1 0 1 1 0 0 0 1 1 0 1 1 1 1 1 0 1 0 0 1 1 1 1 1 0 1 0 1 0 1 0 1 1 0 1 0 1 1 1 1 1 0 1 1 1 0 0 1 1 1 1 0 0 1 1 1 1 0 0 0 0 1 0 0 0 0 0 0 1 1 1 1 1 1 1 1 1 1 1 1 1 1 1 1 0 0 1 0 1 1 1 1 1 1 1 1 0 1 1 0 1 1 0 1 1 1 1 1 1 1 1 0 1 0 0 0 1 0 1 0 0 0 0 1 1 0 1 0 0 0 1 1 1 0 1 0 1 1 0 1 1 1 1 1 1 1 1 1 1 0 1 1 1 1 1 1 1 1 1 1 1 0 1 1 1 1 0 1 1 1 1 0 1 0 1 0 1 0 1 1 1 0 1 0 0 0 1 0 1 1 1 1 1 1 1 1 0 1 1 0 1 1 1 1 1 0 1 1 0 0 1 1 0 1 1 1 1 1 1 0 0 0 1 1 1 1 0 0 1 1 1 1 0 0 0 1 1 1 1 1 1 0 1 1 1 1 1 1 1 1 1 0 1 0 1 1 1 0 1 1 1 1 0 0 1 0 0 1 1 1 1 1 0 1 0 1 1 1 1 0 1 0 0 0 1 0 1 1 0 1 1 0 0 0 0 1 1 1 1 1 0 0 0 1 1 1 1 1 1 1 1 1 1 0 0 1 1 1 1 1 0 0 1 0 0 1 1 1 0 0 1 1 1 0 1 0 1 1 0 0 1 0 1 1 1 1 1 1 1 0 1 1 0 0 1 1 1 1 1 0 1 0 0 0 1 1 1 1 1 0 1 0 1 1 1 1 1 1 0 1 1 0 0 0 1 0 1 1 1 1 1 1 0 0 0 1 1 1 0 1 1 1 1 1 1 1 0 1 1 1 0 1 1 1 1 0 1 1 1 0 1 0 1 1 1 1 1 1 1 1 0 1 1 1 0 1 1 1 1 1 1 1 0 1 1 1 1 1 1 1 1 1 0 1 0 1 1 1 1 1 1 0 1 0 1 1 0 1 0 0 1 1 0 0 0 1 1 0 0 1 1 1 1 1 1 1 0 0 1 1 0 1 0 1 0 1 0 1 0 1 1 1 0 1 1 1 1 1 0 0 1 1 1 1 0 1 1 0 1 1 1 1 1 1 1 1 1 1 1 1 1 1 0 1 1 0 1 1 1 0 1 1 1 0 1 1 1 1 0 1 1 1 1 1 1 1 1 1 1 1 1 0 0 1 1 0 1 1 1 1 0 1 1 0 1 1 1 1 1 1 1 1 1 1 1 1 1 0 1 1 1 1 1 1 0 1 1 1 1 1 1 0 1 1 1 1 1 1 1 0 1 1 1 1 1 1 1 1 1 1 1 0 0 0 0 0 1 0 1 1 0 1 1 0 1 1 1 1 1 1 1 1 1 1 1 1 1 1 1 1 1 1 1 0 1 0 1 1 1 0 1 1 1 1 0 1 0 1 1 1 0 1 1 0 1 1 0 1 1 1 1 1 0 1 0 1 1 1 1 0 1 0 1 1 1 1 1 0 0 1 1 0 0 1 0 1 1 1 1 1 1 1 1 1 1 0 1 0 0 1 1 1 1 1 0 1 1 1 1 0 1 1 1 0 1 1 1 1 1 1 0 0 1 1 1 1 1 1 1 1 0 1 1 1 0 1 1 0 1 1 1 1 1 1 1 1 1 0 0 1 1 1 0 0 1 0 0 1 1 1 1 0 0 0 1 1 1 0 1 0 0 1 1 0 1 1 0 1 1 0 0 1 1 1 1 1 0 0 1 1 1 0 1 0 0 0 1 0 0 0 1 1 1 0 1 1 1 0 1 1 1 0 1 0 1 1 1 1 0 1 1 1 1 0 1 1 1 0 0 1 1 0 0 1 1 1 0 1 0 0 0 1 1 0 1 1 0 1 1 0 1 0 0 0 0 1 1 0 1 1 1 1 0 1 0 0 0 1 1 1 1 0 1 1 1 0 1 1 1 0 1 1 0 1 1 0 1 0 1 1 1 0 1 0 1 1 1 1 1 1 1 1 1 1 0 1 0 1 0 0 0 0 1 1 0 1 1 1 1 0 0 0 0 1 1 1 1 1 1 1 1 1 1 0 1 1 1 1 0 1 1 1 1 0 0 1 1 1 1 0 1 0 1 1 0 1 1 1 0 1 1 1 1 1 1 0 1 1 0 0 1 0 1 1 1 1 0 0 1 1 0 1 1 1 1 1 1 1 1 1 1 1 1 1 1 0 1 1 1 1 1 1 1 1 1 1 0 0 0 1 1 0 1 1 1 1 0 1 1 1 1 1 0 1 1 0 1 1 0 1 1 1 1 0 1 0 1 1 1 1 1 0 1 1 1 1 0 1 1 1 1 1 1 1 0 0 0 1 1 1 1 1 1 1 1 0 1 1 0 1 0 0 1 0 1 0 0 0 1 1 1 1 0 1 0 1 1 0 1 1 0 0 1 0 1 1 0 0 1 0 0 1 0 1 1 0 1 1 1 1 1 0 0 1 1 0 0 1 1 1 1 1 1 1 1 1 1 1 1 1 1 1 1 1 1 1 1 1 1 1 1 0 1 0 1 1 1 1 1 1 1 1 1 1 1 1 1 0 1 1 1 1 0 0 1 1 1 1 1 0 1 1 1 0 1 1 1 0 0 1 1 1 1 1 0 1 1 1 1 0 1 1 0 1 0 1 1 1 0 1 1 1 1 1 1 1 1 1 0 1 0 0 1 1 1 1 1 1 1 1 0 1 1 0 1 1 0 0 1 0 1 0 1 1 1 0 1 0 1 1 1 1 1 1 1 0 1 0 0 1 1 0 1 1 0 1 1 1 0 1 1 1 0 1 0 1 0 1 1 1 0 0 1 1 1 1 1 1 0 1 0 0 1 1 1 0 1 1 1 1 0 0 0 0 0 1 0 1 1 1 1 1 1 1 1 1 1 1 0 1 1 1 1 0 1 1 1 1 1 1 1 1 0 1 1 1 0 1 0 1 1 1 1 1 0 0 0 1 0 1 1 1 1 1 1 1 0 0 1 0 1 1 1 0 1 1 0 1 0 0 1 1 1 0 1 1 1 0 1 1 1 0 1 1 0 1 1 1 1 0 1 1 0 1 1 1 1 1 1 0 1 1 1 1 1 1 1 1 1 1 1 1 0 1 1 1 1 0 1 0 1 1 1 1 1 0 1 0 0 1 1 1 0 0 1 0 1 1 1 1 0 0 1 1 0 1 1 1 0 1 1 1 1 1 1 1 1 1 1 1 0 1 0 0 1 0 1 0 0 0 1 1 1 0 1 1 0 1 1 1 1 0 1 0 1 1 0 1 0 1 1 1 0 1 1 0 0 0 1 0 1 1 1 1 1 1 1 1 1 1 1 1 0 1 0 1 1 1 0 0 1 1 1 1 1 0 1 1 1 1 1 1 1 0 1 0 1 1 1 1 0 1 0 1 0 1 1 1 1 1 1 1 1 0 1 1 1 1 0 1 1 0 1 1 1 1 0 1 0 1 1 1 0 0 0 1 1 1 0 1 1 0 1 1 1 1 0 1 0 1 0 1 0 1 1 1 1 1 0 0 1 1 0 1 0 1 1 1 1 1 1 1 1 0 1 0 1 1 1 1 1 0 1 1 0 0 0 1 1 0 0 1 0 1 1 1 1 1 0 1 1 1 1 1 1 0 1 0 0 1 0 0 1 0 1 1 1 0 1 0 1 0 1 1 1 0 1 1 1 1 1 1 0 1 1 0 0 1 1 0 1 1 1 1 0 0 1 1 0 0 0 1 1 1 1 1 1 1 1 1 1 0 1 1 1 0 1 1 1 0 1 1 1 1 1 1 0 0 0 1 0 0 0 0 1 1 1 1 1 1 1 1 1 0 1 1 0 0 1 1 1 1 1 1 1 1 0 1 1 1 1 0 1 1 0 1 0 0 1 1 1 1 0 1 1 1 0 0 1 0 1 1 1 1 1 0 1 1 0 1 0 0 1 0 1 1 1 1 1 1 1 1 1 0 1 1 1 0 1 1 1 0 1 1 1 1 1 0 1 1 1 1 1 1 1 1 0 1 1 0 1 1 1 1 1 0 0 0 1 1 0 0 1 1 1 1 1 0 0 1 1 1 1 0 1 1 0 1 1 0 1 1 1 0 0 1 1 1 1 1 1 1 1 1 1 0 1 1 1 0 1 1 0 0 1 0 1 1 0 0 1 1 1 1 0 1 1 1 1 0 0 1 1 1 0 0 1 1 0 1 1 1 1 1 1 0 1 1 1 1 1 1 0 1 1 0 1 1 0 1 1 0 1 0 1 0 1 0 1 1 0 1 1 1 1 0 1 1 1 1 1 1 0 1 0 0 1 1 0 0 1 1 0 1 1 0 1 1 1 0 1 0 1 1 1 1 0 1 0 1 0 1 0 1 1 0 0 1 0 1 1 1 1 1 1 0 0 0 1 1 1 1 1 1 1 1 0 1 1 0 1 0 0 1 1 0 0 0 1 0 1 0 1 0 1 0 0 1 0 1 1 1 0 1 1 1 0 1 0 0 0 0 1 1 1 1 0 0 1 1 1 1 0 1 1 0 1 1 0 1 1 1 1 0 0 1 1 1 1 1 1 1 1 1 1 1 1 0 1 0 1 1 0 1 1 1 1 1 1 1 1 0 1 1 0 1 1 0 1 1 0 1 1 1 1 0 1 1 1 1 1 1 1 1 1 1 0 1 0 1 1 1 1 0 1 1 1 1 1 0 1 1 0 0 1 0 1 0 1 1 0 1 1 1 1 1 1 1 1 1 1 0 1 1 1 1 1 1 1 1 1 1 1 1 0 0 1 1 1 0 0 1 1 1 0 1 1 0 0 0 1 1 0 1 1 1 1 0 0 0 1 1 1 0 0 1 1 1 1 1 1 1 1 1 1 0 1 1 1 1 1 1 1 1 1 1 1 1 1 0 0 1 0 0 1 1 1 1 0 1 0 1 0 1 0 1 1 1 0 1 1 1 1 1 1 1 1 1 1 1 0 0 1 0 1 0 1 1 0 1 1 1 0 1 0 0 1 1 1 0 0 1 0 1 1 1 0 0 0 0 1 1 0 0 1 0 0 1 1 0 1 1 1 0 1 0 0 0 0 0 1 1 1 0 1 1 0 0 1 0 1 1 1 1 1 0 0 1 1 1 1 1 1 1 0 1 0 0 1 0 1 1 1 0 0 1 1 1 1 0 0 1 0 1 0 1 1 1 1 1 0 1 1 0 1 1 1 1 1 0 1 0 0 1 1 0 1 1 0 0 1 0 1 1 0 1 1 1 1 0 0 1 1 1 1 1 1 1 1 1 1 1 1 1 1 1 1 0 1 1 1 0 1 1 1 1 1 1 1 1 1 0 1 0 0 1 1 1 0 1 0 0 1 1 1 1 1 0 1 1 1 1 1 0 1 0 1 1 1 0 1 0 1 1 1 1 0 0 1 1 1 1 1 1 1 1 1 1 1 0 1 1 1 0 1 0 0 1 1 1 1 1 1 1 0 1 1 1 1 1 1 1 1 1 0 1 1 0 1 1 1 1 1 1 1 1 1 1 1 1 0 1 1 1 1 1 0 0 0 0 1 1 1 1 1 1 1 1 1 0 1 1 0 1 1 1 0 1 0 0 0 0 1 0 1 1 1 1 0 1 0 1 1 1 0 1 0 0 0 0 1 0 1 0 1 1 1 1 1 1 1 0 1 0 0 1 1 0 1 1 1 1 0 1 0 1 1 0 0 1 1 1 1 0 1 1 1 1 0 1 1 0 1 1 0 1 0 1 1 1 1 1 1 0 1 1 0 1 0 0 0 1 0 1 1 0 0 0 1 0 1 0 1 1 1 0 1 1 0 1 1 1 0 1 1 1 1 1 1 1 1 0 1 1 1 0 1 1 1 1 1 1 1 1 0 1 0 1 0 1 1 0 1 1 1 1 1 1 0 1 0 0 0 1 0 1 1 1 1 0 1 1 0 0 1 1 0 1 1 0 1 0 1 1 1 1 0 0 1 0 1 1 0 1 0 1 1 0 1 1 1 1 1 1 1 1 0 1 0 1 1 0 1 1 1 1 0 0 0 1 1 1 1 0 1 0 0 1 1 1 1 1 1 1 1 0 0 1 0 0 1 0 1 1 1 1 1 0 1 1 1 1 0 0 0 1 1 1 1 1 1 0 1 1 0 1 1 1 1 1 1 0 1 1 1 0 1 1 1 1 1 1 1 1 0 0 0 1 1 1 1 1 1 1 1 0 1 1 1 1 0 0 1 0 1 0 1 1 1 1 1 1 1 0 1 1 1 1 0 1 1 1 1 0 0 1 1 1 1 1 0 0 1 0 0 1 1 1 1 1 1 0 1 1 1 1 1 1 1 0 1 1 1 1 1 1 1 0 1 1 0 0 1 1 0 1 1 0 1 1 1 1 1 1 1 1 0 1 0 1 1 1 1 1 0 1 1 0 1 1 1 1 0 1 1 0 0 0 1 0 1 0 0 1 0 1 1 1 0 1 0 1 1 1 1 1 0 0 1 1 0 1 0 1 1 1 1 1 1 1 0 0 0 1 1 1 1 0 0 1 1 1 1 1 1 1 0 1 0 1 0 1 1 1 1 1 0 1 1 1 1 1 1 1 1 1 1 0 0 1 1 1 1 1 0 1 1 0 0 1 0 0 1 1 1 1 0 1 0 0 1 1 1 0 1 0 1 0 1 1 1 1 1 1 1 1 0 1 1 1 1 1 1 0 1 1 1 0 0 1 0 1 1 1 1 0 1 1 0 1 0 0 0 1 0 0 1 1 1 0 0 0 1 1 1 1 1 1 0 1 1 1 1 1 1 0 1 1 1 1 1 1 1 1 0 0 0 1 0 1 1 1 1 1 1 0 1 1 0 1 1 1 1 1 0 0 1 0 1 1 1 1 1 1 1 1 0 1 1 1 1 1 0 1 1 1 1 1 0 0 1 1 1 0 1 0 1 0 1 0 1 0 1 1 1 1 1 1 0 1 0 1 0 0 0 1 1 1 1 1 0 1 1 1 1 1 1 1 1 1 1 1 1 1 1 0 1 1 0 1 0 1 1 1 1 0 1 0 1 0 1 0 1 1 0 1 1 1 1 1 0 0 1 1 1 1 1 0 1 1 1 0 0 1 1 0 1 1 1 1 1 0 1 1 1 1 1 1 1 1 0 1 0 0 0 0 1 1 1 0 1 1 1 1 0 0 1 1 0 0 1 1 1 1 1 0 0 1 0 1 1 0 1 1 0 0 0 1 0 0 1 1 1 1 1 1 1 1 1 1 0 1 1 1 1 1 1 1 1 1 0 1 1 1 1 1 1 1 1 1 1 1 0 1 1 1 1 0 1 1 1 1 1 1 1 1 0 1 1 1 1 0 0 0 1 1 0 0 1 1 1 1 1 1 1 0 0 1 1 1 0 0 0 1 1 1 0 1 1 1 1 0 1 0 1 1 1 1 0 1 0 1 1 1 1 0 1 1 1 1 0 1 1 1 1 1 1 1 1 1 1 0 1 1 1 1 0 1 1 1 0 0 1 1 0 0 1 1 0 1 1 0 0 1 1 0 1 0 0 0 1 1 1 0 1 0 0 0 1 1 1 1 1 1 1 1 0 1 1 1 1 1 1 0 1 0 0 1 1 0 1 1 1 0 1 1 0 1 1 0 0 1 1 1 0 0 1 1 1 1 1 1 1 1 0 1 1 1 0 1 1 1 0 1 1 0 1 1 1 0 1 1 1 0 0 1 1 0 1 1 0 1 0 0 1 1 0 1 0 0 1 1 1 1 0 0 1 1 1 1 0 0 1 1 0 1 1 1 1 0 0 1 1 1 1 0 1 0 0 1 1 1 0 1 0 1 1 0 1 1 1 0 1 1 0 1 0 1 1 1 1 0 1 1 0 1 1 1 0 0 1 1 1 0 1 1 1 1 1 0 0 1 0 1 1 0 1 1 1 1 1 1 1 0 1 1 1 1 1 1 1 1 0 1 1 1 0 1 0 1 1 0 0 1 1 1 0 0 1 0 0 1 1 0 1 1 1 0 1 1 0 0 1 1 1 1 0 1 1 1 1 1 0 1 1 1 1 0 0 1 1 0 0 1 1 1 0 1 1 1 1 1 1 1 1 1 1 0 1 1 1 0 1 0 1 1 1 0 1 0 1 1 1 0 0 1 1 1 1 1 0 0 1 1 0 1 0 1 1 1 1 1 1 0 1 1 1 1 1 1 1 1 1 1 1 1 1 0 1 1 0 0 1 1 0 1 0 1 1 1 0 1 1 1 1 1 1 1 1 0 1 0 1 1 1 1 1 0 1 0 1 1 1 1 1 1 1 1 0 1 1 0 0 1 1 0 0 1 1 1 1 0 1 0 0 0 0 1 0 1 1 1 0 1 1 1 0 1 1 1 1 1 1 1 1 0 1 1 1 1 1 1 1 0 1 1 1 0 0 1 0 1 1 1 1 0 1 1 1 0 1 1 0 0 0 0 0 1 1 1 1 0 1 0 0 1 1 1 1 1 1 1 0 1 1 0 1 1 1 0 1 1 1 1 1 0 1 1 1 1 1 0 1 1 1 0 1 1 1 0 0 0 1 1 1 1 1 0 1 1 1 1 1 1 1 1 0 0 1 1 1 0 1 0 0 0 1 1 1 1 1 0 1 0 1 1 1 0 0 0 1 0 1 1 1 1 0 0 1 1 1 1 1 1 0 1 1 0 1 1 1 0 1 0 1 1 0 0 0 1 1 1 1 1 1 1 1 0 1 1 1 0 1 1 1 1 1 1 1 1 1 0 1 0 1 0 1 0 1 1 1 1 1 1 0 1 1 1 1 1 0 1 0 1 1 1 1 0 0 0 1 1 1 1 0 1 1 1 1 1 1 1 1 1 0 0 1 1 1 0 0 1 1 1 1 1 0 1 0 1 0 1 1 0 0 0 0 1 0 1 1 1 1 0 1 0 1 0 1 1 1 0 1 1 1 1 1 0 0 1 1 0 1 1 1 1 1 1 1 1 0 1 0 1 0 1 0 0 1 1 1 1 1 0 0 0 1 0 0 0 0 1 0 1 0 0 1 1 1 1 1 0 0 1 1 0 1 1 1 1 1 0 1 1 1 1 1 1 0 1 1 1 1 1 1 1 1 0 0 1 0 1 1 1 1 1 1 1 1 1 1 1 1 1 1 1 1 1 1 1 1 0 0 1 1 0 1 1 1 1 1 0 1 0 1 0 1 1 1 1 1 1 0 1 1 1 1 1 1 1 1 1 1 1 0 1 1 0 1 1 1 0 1 0 0 1 1 1 1 1 1 1 0 0 0 0 1 1 0 0 0 1 1 0 0 1 1 1 1 1 1 1 0 0 0 0 0 0 1 1 1 0 1 1 0 0 0 1 1 1 1 1 1 1 0 1 1 1 1 1 1 1 1 1 1 1 1 1 1 1 1 1 1 0 0 1 1 1 1 0 1 1 1 0 0 0 1 1 1 0 1 0 1 1 1 1 1 1 1 1 1 1 1 0 1 1 1 1 1 0 1 1 1 0 1 1 1 1 1 1 0 1 0 0 1 1 0 1 1 0 1 1 0 1 1 1 0 1 1 1 0 1 1 1 1 0 0 1 1 1 1 1 0 0 1 1 1 0 0 1 0 1 0 0 1 0 1 0 1 0 1 1 1 0 0 0 1 1 1 1 1 0 0 1 1 1 1 1 1 1 0 1 1 1 0 0 1 0 1 1 1 1 1 1 1 0 1 1 1 0 1 0 1 0 0 1 1 1 1 1 1 1 0 0 0 1 0 1 1 0 1 1 0 1 1 1 1 1 0 1 1 1 1 1 1 1 1 0 1 1 1 0 1 1 1 0 0 1 1 1 1 1 1 1 1 1 1 1 1 1 1 1 1 0 0 0 0 1 1 1 1 0 0 1 1 0 1 1 0 0 0 0 1 1 0 1 0 1 1 1 1 1 0 0 0 1 1 1 1 1 1 0 1 1 1 1 1 1 1 1 1 0 0 1 1 1 0 0 1 1 1 1 1 1 1 1 0 1 1 0 0 0 1 0 0 0 0 1 1 1 1 0 1 1 1 1 1 1 1 1 1 1 1 1 1 1 1 0 1 1 1 1 1 1 1 1 0 1 1 0 1 1 1 0 1 1 1 1 0 1 1 1 1 1 1 1 1 1 1 1 1 0 1 0 1 1 1 1 0 1 1 0 1 0 0 1 1 1 1 1 1 1 1 1 0 1 0 1 1 1 1 1 1 1 1 1 0 1 1 1 1 1 1 1 1 0 0 0 1 1 1 0 1 0 1 1 1 1 1 1 1 0 0 1 1 1 0 0 0 1 0 1 1 1 1 1 0 1 1 1 1 1 1 1 1 1 0 1 1 1 1 1 1 0 1 0 0 1 1 1 1 1 1 0 1 0 0 0 1 1 0 1 1 1 1 1 1 0 1 0 1 1 1 1 0 1 0 1 0 1 0 1 1 0 0 1 1 1 0 1 1 0 0 1 1 1 1 1 0 0 1 1 1 0 1 1 0 1 0 1 0 0 1 1 1 1 0 1 0 1 0 0 1 1 1 1 0 1 1 1 1 0 0 1 1 1 0 1 1 1 1 1 1 0 1 1 1 0 1 0 1 0 0 1 1 1 0 0 1 0 1 1 1 1 0 1 0 1 0 1 1 0 0 0 1 0 1 1 1 1 1 0 1 0 1 1 0 1 1 1 0 1 1 1 1 0 1 0 1 1 1 1 1 0 1 0 1 1 1 1 0 0 1 0 1 1 1 1 1 0 1 1 1 0 1 1 0 1 1 1 0 1 1 1 1 0 1 1 0 1 1 1 1 0 1 1 1 1 1 1 1 1 0 1 1 1 1 1 1 1 1 1 1 0 1 0 0 0 1 1 1 1 1 1 1 1 0 0 0 0 0 1 0 1 0 1 0 1 1 0 1 1 0 1 1 1 0 1 1 0 0 1 1 0 0 1 1 1 1 1 0 0 0 1 1 1 1 0 1 1 1 1 1 1 1 0 1 1 0 1 0 1 1 0 1 0 1 1 0 1 1 0 1 1 0 1 0 1 1 0 0 1 0 1 1 1 1 1 1 1 1 1 1 1 1 1 0 1 0 1 1 1 1 1 1 1 0 1 0 0 0 1 1 0 1 1 1 0 1 0 1 1 0 0 0 0 0 1 1 0 1 1 0 1 0 1 1 0 1 0 1 0 1 0 0 1 1 1 1 0 1 1 1 1 1 1 0 1 0 1 0 0 0 0 0 1 0 0 1 1 1 1 1 0 1 1 0 1 1 1 0 1 1 0 1 1 1 1 1 1 1 1 1 1 0 1 0 1 1 1 0 1 1 1 1 1 1 1 0 1 1 1 1 0 0 1 1 1 1 1 0 1 1 0 1 0 1 1 1 0 0 0 1 1 0 1 1 0 1 1 1 1 0 0 1 1 1 1 1 1 1 1 1 1 1 0 0 1 0 1 1 1 1 1 1 0 0 1 0 1 1 0 1 0 0 1 0 0 1 0 1 1 1 0 1 1 0 1 1 1 1 1 1 1 0 1 1 1 1 1 1 1 1 1 1 0 1 0 1 1 1 1 1 0 1 1 1 1 1 0 1 1 0 1 0 1 1 1 1 0 1 0 0 0 1 1 0 0 1 0 0 1 1 0 1 0 1 1 1 1 1 1 1 1 0 1 1 0 1 1 0 0 1 1 1 1 1 1 0 1 0 1 1 1 1 1 1 1 0 1 1 1 1 1 1 0 1 1 1 1 1 1 0 1 1 1 1 1 1 1 0 0 1 1 0 0 0 0 0 0 0 1 1 1 1 1 0 1 1 1 1 1 1 0 1 0 1 1 0 1 1 1 1 1 0 1 0 1 1 1 1 0 1 1 1 1 1 1 1 1 0 1 1 1 1 1 1 1 1 0 1 1 1 1 0 0 1 1 1 0 1 1 1 1 0 0 0 1 0 1 1 1 1 1 1 1 1 0 0 1 1 0 1 0 1 0 1 0 1 1 1 1 1 1 1 1 1 1 1 1 1 1 1 1 1 1 1 1 0 0 1 0 1 1 1 1 0 1 1 1 0 1 0 1 1 1 1 1 1 1 1 0 1 1 0 1 1 0 0 1 1 0 1 1 1 1 1 1 1 1 1 1 0 1 1 1 1 0 0 1 0 1 1 1 0 1 1 1 1 0 1 1 1 1 1 1 0 0 1 1 1 1 1 1 1 1 1 0 1 1 1 1 1 1 1 0 1 1 0 1 0 0 1 0 1 1 1 0 1 0 1 0 0 0 0 1 0 1 1 1 1 1 1 0 1 1 1 0 1 1 1 1 0 1 0 1 1 1 0 1 1 0 0 0 1 1 1 1 1 1 0 0 0 1 0 1 1 1 1 1 1 1 1 1 0 1 1 1 1 1 0 1 0 1 0 1 0 1 0 0 1 1 1 1 0 0 1 0 1 1 1 1 1 1 0 1 0 0 1 1 1 1 0 0 1 0 1 1 1 1 1 1 1 0 1 0 1 1 1 1 1 1 1 1 0 0 1 1 0 1 1 1 0 1 1 0 0 1 0 1 1 1 1 0 1 1 1 1 0 1 1 1 1 0 0 1 0 1 1 0 0 1 0 1 1 1 1 1 1 0 1 1 1 1 0 0 1 1 1 1 1 1 0 1 1 1 1 1 0 0 1 1 1 0 0 1 0 0 1 0 1 0 0 1 1 1 0 1 1 1 1 0 1 0 1 1 1 1 1 1 1 1 0 1 0 1 1 1 1 1 1 1 1 1 0 0 1 1 1 0 1 1 1 1 0 1 1 0 0 1 1 0 0 0 1 0 1 1 1 0 1 1 1 1 1 1 0 1 0 0 1 0 1 0 1 0 0 0 0 1 1 1 1 0 0 1 0 1 1 0 0 1 1 1 0 0 1 1 0 0 0 1 1 1 0 0 1 0 1 1 1 1 1 1 0 1 1 1 1 1 1 1 1 0 0 0 0 1 1 1 1 0 0 1 1 1 1 0 0 1 1 0 1 1 1 0 0 0 1 0 1 0 1 0 1 1 1 1 1 1 1 0 1 1 0 0 0 1 0 1 1 1 1 0 1 1 1 0 1 1 0 1 1 0 1 1 1 1 1 1 1 0 1 0 1 1 1 1 0 1 1 1 1 1 0 0 1 1 1 0 1 1 1 0 0 1 1 1 0 1 1 1 1 1 1 1 1 0 0 1 1 1 1 0 0 0 1 0 1 1 1 1 1 0 1 0 1 0 0 0 0 1 1 0 0 1 1 0 1 0 1 1 0 1 1 1 1 0 1 0 1 1 1 1 0 1 0 1 1 1 1 0 1 0 1 0 1 1 1 1 0 1 1 1 1 1 1 1 1 1 1 1 1 1 0 0 0 1 0 1 1 1 1 1 1 1 0 1 1 1 1 1 0 1 1 1 1 0 1 1 1 1 1 1 1 1 1 0 1 1 1 1 1 0 1 1 0 1 1 0 0 0 1 1 1 1 1 1 1 1 0 1 1 0 1 1 0 1 1 1 1 1 1 1 0 1 1 1 1 1 1 0 1 1 0 1 1 1 0 0 0 1 1 0 1 1 1 1 1 1 1 0 1 1 1 1 1 1 1 0 1 1 1 1 1 1 1 0 1 1 0 1 1 1 1 1 1 1 1 0 1 1 0 1 1 0 1 1 1 1 1 1 1 1 1 0 1 1 1 1 0 1 1 1 1 1 1 1 1 1 1 0 1 1 1 1 1 1 0 1 0 0 0 1 1 1 0 1 0 1 1 0 1 1 0 0 0 1 1 1 1 1 1 0 1 1 1 1 1 1 0 1 1 1 0 1 1 1 1 1 0 1 1 0 1 1 1 1 1 0 1 1 1 0 1 1 0 1 1 0 1 0 1 1 0 1 0 1 1 0 1 0 1 1 1 0 1 1 1 1 1 1 0 0 1 1 1 0 1 0 1 1 1 1 1 0 1 1 0 1 1 1 1 1 1 0 0 1 1 0 1 1 1 0 1 0 1 1 1 1 0 1 0 1 1 1 1 1 1 1 1 1 1 1 1 1 1 0 1 1 1 1 1 1 0 0 1 1 1 1 1 1 1 0 1 0 1 1 0 1 1 0 0 1 1 1 0 1 0 1 0 0 1 1 1 0 1 1 1 0 1 0 1 1 0 1 1 1 1 1 1 1 0 1 0 1 1 1 1 1 1 1 1 1 1 0 0 1 1 1 1 1 0 0 1 0 0 0 1 1 1 1 1 1 0 1 1 0 0 1 0 1 1 0 1 1 1 1 0 0 0 1 0 1 1 0 1 1 0 1 1 1 1 0 0 1 1 0 1 1 1 0 0 1 1 1 1 1 1 0 1 1 1 0 0 1 1 1 1 1 0 1 0 1 1 1 1 0 0 1 1 1 1 1 1 1 1 1 1 0 1 1 0 1 1 1 0 1 0 0 1 1 1 1 1 1 1 0 1 0 1 0 1 0 1 0 1 1 1 1 0 1 1 0 1 0 1 1 0 1 1 1 1 0 1 1 1 1 0 1 1 1 1 1 1 1 1 1 1 1 1 1 1 0 1 1 0 1 0 0 1 1 1 1 1 1 1 1 1 1 0 1 1 1 1 1 0 1 1 1 0 1 1 0 1 1 1 1 0 1 0 1 1 1 1 1 1 0 1 1 1 0 1 1 1 1 1 1 1 0 0 1 0 1 1 1 1 0 1 1 1 1 1 1 1 1 1 1 1 1 1 1 1 0 1 0 0 0 1 1 0 1 0 1 0 0 0 0 0 1 1 1 1 1 1 1 0 1 1 1 1 0 1 0 1 0 1 0 1 1 1 1 1 0 0 0 1 1 0 0 0 0 1 0 1 1 1 1 0 1 1 1 1 0 1 1 0 1 1 1 1 1 1 0 1 0 1 0 1 1 0 1 1 1 1 1 1 1 0 1 0 0 1 1 1 1 1 1 1 0 1 1 0 1 0 0 1 1 1 0 1 0 1 0 0 1 1 1 1 0 1 1 0 1 1 0 1 1 0 0 0 1 1 0 1 0 1 1 1 1 0 1 1 1 1 0 1 1 1 1 1 0 1 1 0 1 1 1 0 0 0 0 1 0 0 1 1 1 1 1 1 1 1 1 1 0 1 0 1 1 1 1 1 0 0 0 1 1 1 0 0 0 0 1 1 1 0 0 1 0 1 0 1 0 0 1 1 1 1 1 1 0 1 1 1 1 1 0 0 0 0 1 1 1 1 0 1 1 0 0 1 1 0 1 0 1 1 0 0 0 1 1 1 0 1 1 1 0 0 1 0 0 1 1 0 0 1 1 1 1 1 1 1 1 0 1 1 1 1 1 0 1 1 0 0 0 1 1 1 1 1 1 1 1 1 0 0 1 0 1 1 1 1 1 1 1 0 1 1 0 1 1 1 1 1 0 0 0 0 1 1 1 1 0 1 1 0 1 1 0 1 1 1 1 1 1 1 0 1 1 0 1 1 1 1 0 1 1 1 1 1 1 1 0 0 0 0 1 0 1 1 0 1 1 1 0 1 1 1 1 1 1 1 1 0 1 0 0 1 1 1 0 1 1 1 0 1 0 1 1 1 1 0 1 1 1 1 0 0 1 0 1 1 1 1 1 0 1 1 1 0 1 1 1 0 1 1 1 1 1 1 1 0 1 0 1 1 1 0 0 1 1 1 1 1 0 1 1 0 0 1 0 1 1 0 1 1 1 1 1 0 1 1 1 0 1 1 1 0 1 1 1 1 0 1 1 1 1 0 1 0 1 1 1 0 1 1 1 1 1 0 0 1 1 0 1 1 1 1 0 1 0 1 1 0 1 1 0 0 1 0 1 1 1 0 0 0 1 1 1 1 1 0 0 0 1 1 0 1 1 1 0 1 1 1 1 0 0 1 1 1 0 1 1 1 1 1 1 1 0 1 0 1 1 0 1 0 0 1 0 1 1 1 0 1 1 1 0 1 1 1 1 1 1 0 0 1 0 1 1 1 0 0 1 0 1 1 0 1 1 1 1 0 1 0 0 1 1 0 0 1 1 1 1 1 1 1 1 1 1 1 1 1 1 1 1 1 1 0 1 1 1 0 0 1 0 1 0 0 1 1 1 0 1 1 1 1 1 1 1 0 1 0 1 0 1 1 1 1 1 0 1 1 1 0 0 0 1 0 0 1 1 1 0 1 0 1 1 1 1 1 1 1 1 0 1 0 1 1 0 1 1 0 1 1 1 1 1 1 1 1 0 1 1 1 1 1 1 1 1 1 0 1 1 1 1 1 1 0 1 1 1 1 1 0 0 1 1 1 1 1 1 1 0 1 1 1 1 0 1 1 1 1 0 0 1 0 0 1 0 1 1 0 0 1 1 1 1 1 0 1 1 0 1 1 1 1 1 1 1 1 1 0 1 1 1 1 1 1 0 1 1 1 1 1 0 0 0 0 1 1 1 0 1 1 1 1 0 1 1 0 1 0 1 1 1 1 1 1 1 1 1 1 1 0 1 1 1 0 1 1 1 1 1 1 0 1 1 0 1 0 0 1 1 0 1 1 0 0 0 1 0 1 0 1 0 1 1 1 0 1 1 1 0 0 0 1 0 1 1 0 0 1 1 0 0 1 1 1 0 1 1 1 1 0 1 0 0 0 1 1 1 1 1 0 0 1 0 0 1 1 1 1 1 1 1 0 0 1 0 1 1 1 0 0 1 0 0 1 1 1 1 1 1 0 1 1 0 1 1 1 1 1 0 1 1 1 1 1 1 1 0 1 0 1 0 1 0 0 1 1 1 0 1 1 0 1 1 1 1 0 1 0 0 1 0 0 0 1 1 1 0 1 1 1 1 1 1 1 1 0 1 1 1 1 1 0 0 1 1 1 1 1 1 1 1 1 1 1 1 1 1 1 1 1 1 0 1 1 0 0 1 1 0 1 0 0 1 1 1 1 1 1 0 0 1 0 1 1 1 0 1 1 1 1 1 0 0 0 0 0 0 1 1 1 1 1 1 1 0 0 1 1 1 1 1 0 1 0 0 0 1 1 1 0 1 0 1 1 0 1 1 1 1 0 1 0 1 1 0 1 1 0 1 1 1 1 1 1 0 1 1 0 0 1 1 0 0 1 1 0 1 0 1 1 1 0 0 0 1 1 0 1 1 1 0 0 0 1 1 1 1 1 1 1 0 1 1 0 1 1 1 1 0 1 1 0 1 1 1 1 1 1 1 0 1 1 0 1 1 1 0 1 1 1 0 1 0 1 0 1 0 0 1 0 0 1 1 1 1 1 1 1 1 1 0 1 1 0 1 0 1 0 0 1 1 1 1 1 0 1 1 1 1 1 1 1 1 1 1 0 1 1 0 1 1 0 1 0 1 0 1 1 1 0 1 0 1 0 0 0 0 1 1 1 0 1 0 1 1 1 0 0 1 1 0 1 1 0 0 1 1 0 1 1 0 1 1 0 1 0 1 0 0 1 1 1 0 1 1 1 1 1 1 0 1 1 0 1 1 1 1 1 0 1 1 1 0 0 0 1 1 1 1 0 1 0 1 1 0 1 1 0 1 1 1 1 0 0 0 0 1 1 1 1 1 1 1 0 0 1 1 1 1 1 1 0 1 0 0 0 1 1 1 1 0 0 1 0 1 1 1 0 1 1 0 0 1 0 0 1 0 1 1 1 1 0 1 1 1 0 0 1 0 0 0 1 1 0 0 1 0 1 0 1 1 0 1 0 1 1 0 1 0 1 1 1 1 0 1 1 0 1 1 1 1 0 1 0 1 1 0 0 1 1 1 1 1 0 0 0 0 1 1 1 1 0 1 1 1 1 1 1 1 1 1 1 1 1 1 1 1 1 1 1 1 0 0 1 1 1 0 1 1 1 0 1 1 1 1 1 1 0 1 0 1 0 1 1 1 1 1 0 1 1 1 1 1 1 0 0 1 1 0 1 1 1 0 1 1 0 0 0 0 1 1 1 1 1 1 0 1 1 1 1 0 1 1 1 1 1 1 1 1 1 1 1 1 1 1 1 0 0 1 1 1 1 1 1 0 1 1 1 1 0 1 1 1 0 1 0 1 0 0 0 0 0 1 0 1 1 0 1 1 1 1 1 1 1 1 1 1 1 1 1 1 1 1 1 1 0 1 0 1 1 1 1 0 1 0 1 0 1 0 0 0 0 1 1 1 1 1 0 1 1 1 1 1 0 1 0 1 1 0 1 1 1 1 0 1 0 1 1 0 1 0 1 1 1 1 0 1 1 0 1 0 1 1 1 0 1 1 1 1 1 1 0 1 1 1 0 0 0 1 0 1 0 1 0 1 1 1 1 1 0 1 1 0 1 1 0 0 1 1 0 1 1 1 1 0 1 1 1 1 0 1 0 1 1 1 1 0 0 1 1 1 1 1 1 0 1 1 1 1 0 1 1 0 1 1 1 0 1 1 1 0 0 1 1 1 1 1 0 1 1 1 1 1 1 0 1 1 0 0 0 1 1 0 1 0 0 0 1 1 1 1 0 0 1 1 1 0 1 1 1 1 0 1 1 1 0 1 1 1 1 1 0 0 0 1 0 1 0 1 1 1 1 1 1 1 1 1 1 1 1 0 1 0 1 0 0 0 0 1 1 0 1 0 1 1 1 0 1 0 1 0 1 1 1 1 1 1 1 1 0 1 1 0 0 0 1 1 0 1 1 1 1 1 1 1 1 0 0 0 1 0 0 1 1 1 0 1 1 1 0 1 1 1 1 1 1 1 1 1 1 1 1 1 1 1 1 1 1 0 1 1 0 0 0 1 0 0 0 0 1 1 0 1 1 1 1 0 1 1 1 1 0 1 1 1 1 1 1 1 1 1 1 1 0 1 1 1 0 1 0 0 1 1 1 0 1 1 1 1 1 1 1 1 1 1 1 1 1 0 1 1 0 0 1 1 1 1 1 1 1 1 1 1 1 1 0 0 1 1 1 0 0 1 1 1 1 1 1 1 0 1 1 1 0 1 1 1 1 1 1 0 1 0 1 0 1 1 1 1 1 0 1 0 1 1 1 1 1 0 1 1 1 0 1 1 1 1 0 1 1 1 1 0 1 1 1 0 1 1 1 0 0 0 1 0 1 1 1 0 1 1 1 1 0 1 0 1 1 1 1 1 1 1 1 0 1 0 0 1 1 0 1 1 1 0 0 0 1 1 1 1 1 1 1 1 1 0 1 1 0 0 0 1 1 1 0 0 0 0 1 1 1 1 1 1 0 1 1 0 1 1 1 1 1 1 0 1 1 0 0 1 0 0 1 1 1 1 1 1 1 0 1 1 1 1 1 1 0 1 0 1 1 1 1 1 1 1 1 1 0 1 1 1 1 1 1 1 0 1 1 1 1 0 0 0 1 0 0 0 0 1 1 1 1 1 1 1 1 0 1 0 1 1 0 1 1 0 1 1 0 0 0 1 1 1 0 1 1 0 0 1 0 1 1 1 1 1 0 0 0 0 1 1 0 1 1 1 1 1 1 1 0 1 1 0 1 1 0 1 1 1 0 1 0 0 1 1 0 0 1 0 1 1 1 1 1 1 1 0 1 1 1 1 1 1 1 1 1 1 0 1 0 1 1 1 0 0 1 0 0 1 0 1 1 1 1 1 0 1 1 1 0 1 1 0 0 1 1 1 1 1 0 1 1 0 0 0 0 0 1 1 0 1 0 1 1 1 1 1 0 1 1 1 0 1 1 1 1 1 1 1 0 0 0 1 1 1 1 1 0 1 1 1 1 1 0 1 0 1 0 1 1 0 1 0 1 1 0 0 1 1 1 1 1 0 1 1 1 1 0 1 0 0 1 0 0 0 1 1 1 1 1 1 1 1 1 1 1 1 1 0 0 1 0 1 1 1 0 0 0 1 1 1 1 0 0 1 1 0 1 1 1 1 1 1 1 1 1 1 1 1 1 1 1 0 1 1 1 0 1 0 1 0 1 1 0 0 1 0 0 0 0 0 1 1 1 1 1 1 1 1 0 0 1 1 1 0 1 1 1 1 0 0 0 0 1 1 1 1 1 1 1 1 1 1 1 0 1 1 1 1 1 1 0 1 0 1 0 1 1 1 1 1 1 0 0 1 0 1 0 1 0 0 1 1 1 0 1 1 0 0 0 1 1 1 1 1 1 1 1 1 0 1 1 1 1 1 0 0 1 1 0 0 1 1 0 0 1 1 1 1 0 1 1 1 1 1 1 0 1 0 0 1 1 1 1 1 1 0 1 1 1 1 1 1 1 1 1 0 0 1 1 1 0 1 0 0 0 1 0 1 1 0 1 1 1 1 0 0 0 1 0 1 1 0 1 0 1 1 1 1 1 0 1 1 1 1 0 1 0 1 0 1 1 0 1 0 1 0 1 1 1 1 0 1 1 1 1 1 1 1 1 1 1 1 1 1 1 1 1 1 1 0 1 1 1 0 0 1 1 1 1 1 1 1 1 1 0 1 0 1 1 1 1 1 1 1 1 0 1 0 0 0 1 1 1 1 1 1 0 1 1 0 1 1 1 0 0 1 1 0 1 1 1 1 1 1 0 1 0 0 1 1 0 1 1 1 0 1 1 0 1 1 0 1 0 1 0 0 1 0 1 0 1 1 1 1 1 1 1 1 0 1 1 1 1 0 0 1 1 1 0 1 1 1 1 1 0 1 0 0 0 1 0 1 1 0 1 0 1 0 1 1 1 1 1 1 1 0 1 1 1 1 1 1 0 0 1 1 1 1 1 0 0 0 0 1 1 0 1 1 1 0 1 1 1 1 1 1 0 1 1 1 1 1 0 1 1 0 0 1 1 1 1 1 1 0 1 1 1 1 1 1 1 1 1 1 1 1 1 1 1 1 0 1 1 0 1 1 0 1 1 0 0 1 1 0 0 1 0 0 1 1 0 1 0 0 1 1 1 1 1 1 1 1 1 1 0 1 1 0 0 0 1 1 0 1 1 0 1 1 1 0 1 0 1 1 1 1 1 0 1 1 1 1 0 0 1 1 1 0 0 1 1 1 1 1 1 1 1 0 1 0 1 1 0 1 1 0 0 1 0 1 1 1 1 0 1 1 1 1 0 0 1 1 1 1 1 1 1 1 1 1 1 1 1 1 1 1 1 0 1 1 1 1 0 1 0 1 0 1 1 1 1 1 1 1 0 1 0 0 1 1 1 0 0 1 1 1 0 1 0 1 0 1 1 0 1 1 1 1 0 1 0 1 0 1 0 0 1 1 1 1 1 1 1 1 1 1 1 1 0 1 1 0 1 1 1 1 0 1 0 0 1 1 1 1 1 1 1 1 1 1 1 1 1 1 1 0 0 1 1 1 1 1 1 1 0 1 0 0 1 1 1 1 1 1 1 1 1 1 1 1 1 1 0 0 1 0 1 0 1 0 0 1 1 1 1 1 1 0 0 1 0 0 0 0 1 1 0 1 1 1 1 1 1 0 0 0 1 1 1 1 1 1 1 1 1 1 0 1 1 1 1 1 1 1 1 1 0 1 0 0 1 0 1 1 0 0 0 1 1 0 1 1 0 1 1 1 1 1 1 0 1 1 1 0 1 1 1 1 0 1 1 1 1 1 1 1 1 0 1 1 1 1 1 1 1 0 1 1 1 1 0 1 1 0 1 1 1 1 1 1 1 1 1 1 1 1 0 1 1 0 1 1 0 1 0 1 0 1 1 1 1 1 1 1 1 1 1 1 0 0 1 1 1 1 1 1 1 1 1 1 0 1 0 1 1 1 1 1 1 1 0 1 1 1 0 1 1 0 1 1 1 1 1 1 0 1 1 1 1 0 1 1 0 0 1 1 1 1 0 0 1 0 1 1 1 1 1 0 1 1 0 1 0 0 1 1 0 0 1 1 1 1 1 1 1 1 0 1 1 1 1 0 1 0 1 1 0 0 0 1 1 1 0 0 1 1 0 1 1 1 0 1 0 1 1 0 1 1 1 1 0 1 0 1 0 1 1 1 1 1 1 1 1 1 1 0 0 1 1 0 0 1 1 1 1 1 1 1 1 1 0 1 1 0 0 0 1 0 1 1 1 1 1 1 1 0 0 1 0 1 0 1 1 1 0 1 1 1 0 0 1 0 1 0 0 1 1 0 1 1 1 0 1 1 1 1 1 1 0 0 1 1 0 1 1 1 0 0 1 1 1 1 1 1 1 0 1 0 1 1 1 0 1 1 1 1 1 1 0 1 1 0 1 1 1 0 1 1 1 1 0 1 1 0 1 1 1 0 1 0 1 1 1 0 1 0 0 0 1 1 1 1 1 0 1 0 1 1 1 1 0 1 1 1 0 1 1 1 1 1 1 0 1 1 0 1 1 1 0 0 1 0 1 1 1 1 1 0 1 1 0 1 1 1 1 1 1 0 1 1 1 0 1 1 0 0 1 1 1 1 1 1 0 0 1 1 1 1 1 0 1 0 1 1 1 1 1 1 1 1 0 1 1 1 1 1 1 1 0 1 1 1 1 0 1 1 0 0 0 1 1 0 1 1 0 1 0 1 1 0 0 1 1 1 1 1 1 1 1 1 1 1 1 1 0 0 1 1 0 0 1 1 1 1 1 1 1 1 0 1 1 1 0 1 1 1 1 0 0 0 1 1 0 1 1 1 1 0 0 1 1 1 0 0 1 1 0 0 1 1 1 1 0 0 0 1 0 1 1 0 1 1 1 1 1 1 1 0 0 0 1 0 1 0 1 1 0 1 1 1 1 0 0 1 1 1 1 1 1 0 1 0 1 1 1 0 1 1 1 0 1 1 1 1 1 1 1 1 1 0 1 1 1 0 1 0 1 1 0 1 0 1 1 0 1 1 1 1 1 1 0 0 0 0 1 1 1 0 1 1 1 1 0 0 1 1 0 0 0 1 1 0 0 1 0 1 0 1 0 0 1 1 0 1 1 1 1 1 1 1 1 1 1 0 1 1 1 1 1 0 0 1 1 1 1 1 1 1 1 0 0 0 1 0 0 0 1 1 1 0 1 1 1 1 0 0 1 1 1 1 0 0 1 1 1 1 1 0 1 0 1 1 1 0 1 0 0 1 0 1 1 1 0 1 0 0 0 0 1 1 1 1 1 0 1 1 1 1 1 1 1 0 1 0 0 1 1 0 1 1 1 1 1 1 1 1 1 0 1 1 1 0 1 1 1 0 1 1 1 1 1 1 1 1 1 1 0 0 1 0 0 0 1 1 1 0 1 1 0 0 0 1 1 1 1 0 0 1 1 1 1 1 1 1 0 1 1 0 1 1 1 0 1 1 1 0 0 0 0 1 1 1 0 1 1 1 1 0 1 0 1 0 1 1 1 0 1 1 1 1 0 1 0 1 0 0 0 0 0 1 0 0 1 0 1 1 1 1 1 1 1 0 0 1 0 0 0 1 1 1 1 1 1 0 1 1 1 1 1 1 0 1 0 0 1 1 1 1 0 1 1 1 1 1 1 1 0 1 1 0 0 1 0 1 1 0 1 1 1 0 1 1 1 1 1 1 1 0 0 1 1 1 0 1 1 1 1 1 1 1 0 1 1 1 1 1 1 1 1 1 0 0 0 1 1 1 1 1 1 1 1 1 1 0 1 0 1 1 0 1 1 1 1 0 1 1 0 1 1 0 0 0 1 0 1 1 1 1 1 1 1 1 1 1 0 0 0 0 1 0 1 1 0 1 1 0 1 1 0 1 0 1 1 1 1 0 1 0 0 1 1 1 1 0 1 0 0 1 1 1 1 1 1 0 1 1 0 1 0 0 0 0 0 1 0 0 1 1 1 0 1 1 1 0 1 1 0 1 1 1 0 1 1 1 1 0 0 1 1 0 1 1 1 0 1 0 1 1 1 0 1 1 1 0 1 1 1 1 0 1 1 1 0 0 1 1 0 1 1 0 1 1 1 0 1 1 1 0 1 1 1 1 1 1 1 1 0 1 0 0 1 0 1 1 1 0 0 0 1 1 1 0 1 0 0 1 0 1 1 1 1 1 0 1 1 1 1 1 1 1 0 1 1 0 0 1 1 1 0 1 0 1 0 1 1 1 0 1 1 1 1 1 0 1 0 1 1 1 1 1 0 0 0 1 0 0 1 1 1 1 0 1 1 1 0 0 1 1 1 1 1 0 0 1 0 0 1 1 0 1 0 1 1 1 1 0 1 0 0 1 0 0 0 1 0 1 1 1 0 0 1 1 1 1 0 1 0 1 0 1 1 1 0 1 0 1 1 1 0 0 0 1 0 1 1 1 1 1 1 0 0 0 1 0 1 1 1 1 1 1 1 1 1 1 0 1 1 1 1 1 1 1 1 0 1 0 1 1 0 1 1 1 1 1 1 0 1 0 1 1 1 1 1 1 1 0 0 1 1 1 1 1 1 0 0 1 1 1 1 0 0 1 1 1 1 0 1 1 1 0 1 1 1 1 1 1 1 0 1 0 1 1 0 1 0 1 1 1 1 1 0 1 1 0 1 1 1 1 1 1 1 1 1 0 1 0 1 1 1 0 1 1 1 1 1 1 1 1 0 0 1 1 1 1 1 1 1 0 0 0 1 0 1 0 1 1 0 1 1 1 0 1 1 1 1 1 1 0 1 0 0 1 1 1 1 1 0 0 1 1 1 1 1 1 1 1 1 1 0 1 1 0 0 1 1 1 1 1 0 0 1 0 0 1 1 0 1 1 0 1 1 1 1 1 1 0 1 1 1 0 0 1 1 1 0 1 1 1 0 0 1 0 1 1 1 1 0 1 0 0 1 1 1 1 1 1 1 0 1 0 1 1 1 1 1 0 1 1 1 1 1 0 1 1 1 1 1 0 1 1 1 1 1 1 1 0 1 0 1 0 1 1 1 1 0 0 1 1 0 0 1 1 0 1 0 1 0 1 1 1 1 1 1 1 1 1 1 0 1 1 0 1 0 1 0 1 0 0 1 1 1 1 1 1 1 1 0 0 1 1 1 0 0 1 1 0 1 1 1 0 1 1 0 1 1 1 1 0 1 1 1 1 1 1 0 1 1 1 0 0 0 0 1 0 0 1 0 1 1 0 0 1 0 1 1 1 1 1 1 1 0 1 1 0 1 1 0 1 1 1 1 1 0 1 1 0 0 0 1 1 0 1 1 1 1 0 1 1 0 0 1 0 1 1 1 0 1 1 1 0 0 1 1 1 0 1 1 1 0 1 1 1 1 0 1 0 0 1 0 1 0 1 1 0 1 1 1 1 0 1 1 1 1 0 1 0 0 1 1 0 1 0 0 1 1 1 1 1 1 1 1 1 0 1 1 0 1 1 0 0 1 1 0 0 1 1 0 1 0 1 1 1 1 0 0 1 0 1 0 1 0 1 1 0 0 0 1 1 0 0 0 1 1 1 1 1 1 0 0 1 0 1 0 0 1 0 0 0 1 0 0 1 1 1 1 1 0 1 1 1 1 1 0 0 0 1 1 1 0 0 1 0 1 1 1 0 0 1 1 1 1 1 0 1 1 0 1 0 1 1 1 1 1 1 1 1 1 1 1 0 1 1 1 0 1 0 1 0 1 1 1 1 0 1 1 1 1 1 0 1 0 1 1 0 1 0 0 0 0 1 1 1 0 1 0 1 1 1 1 1 0 1 1 1 0 0 0 0 0 1 1 1 1 0 1 1 1 1 0 1 1 0 1 0 1 1 1 1 1 1 1 1 0 1 0 1 0 1 0 1 1 1 0 1 1 1 1 1 1 1 1 1 1 1 1 1 1 1 1 0 1 1 0 1 1 1 1 0 1 1 1 1 1 0 1 1 0 1 1 1 1 1 1 1 0 0 0 0 0 0 1 0 1 1 1 0 0 1 0 1 0 1 0 0 1 1 0 0 1 1 1 0 1 0 1 1 0 1 1 0 1 1 1 1 1 1 0 1 1 1 0 1 1 1 1 1 1 0 1 1 1 1 1 0 1 1 1 0 1 0 1 1 1 1 1 1 1 0 1 1 1 1 0 0 0 1 1 0 1 1 1 1 1 1 0 0 0 1 1 1 0 1 1 1 0 0 0 1 1 1 1 1 1 1 0 0 1 0 1 1 1 1 0 0 1 1 1 1 0 1 0 1 1 1 1 1 1 1 0 1 1 1 0 1 1 1 1 1 1 0 1 1 1 1 0 1 1 0 1 1 1 1 1 0 0 1 1 1 1 1 1 1 0 0 1 1 1 1 0 1 1 1 0 0 1 0 0 1 1 1 0 0 0 1 1 1 1 0 0 1 1 1 0 1 1 0 0 1 1 1 1 1 1 1 1 1 1 1 1 0 0 1 1 1 0 0 1 0 1 1 0 1 0 1 1 0 1 1 1 1 1 1 0 0 1 1 1 1 0 1 1 0 0 1 1 0 1 1 1 0 1 1 1 1 0 0 1 1 1 0 1 1 1 1 0 0 1 1 0 1 1 0 1 1 0 1 1 1 1 1 1 1 1 1 1 1 0 0 1 1 1 1 1 1 1 1 1 0 1 0 1 1 1 1 0 0 1 1 0 1 1 1 1 1 1 0 1 0 0 1 1 0 1 1 1 1 1 0 1 1 1 0 0 1 1 1 1 1 1 1 1 1 0 1 1 1 1 1 1 0 0 1 1 0 1 0 1 0 1 1 0 0 1 1 0 1 1 0 0 1 0 1 0 0 0 1 0 0 0 0 1 1 1 1 0 0 1 1 1 0 1 1 1 1 0 1 1 1 1 1 0 1 1 1 1 0 0 1 1 1 0 1 0 1 1 1 1 1 1 1 1 1 1 0 1 1 1 0 0 1 0 1 1 1 0 1 1 1 0 1 1 1 0 1 1 0 0 1 1 1 1 1 1 1 1 1 1 1 1 1 1 1 1 0 1 1 1 1 1 1 1 1 0 1 1 1 1 1 0 1 1 1 1 1 1 0 1 1 1 1 1 0 0 1 1 1 1 1 1 0 0 0 1 1 1 1 0 1 1 1 1 1 0 1 1 1 1 0 1 0 1 1 0 1 1 0 0 1 1 1 0 1 1 0 0 1 1 1 1 1 1 1 0 0 1 0 1 0 1 0 1 1 1 0 1 1 1 1 0 1 0 1 1 1 1 0 1 1 1 0 1 1 1 1 0 1 0 1 1 1 1 1 0 1 0 0 1 1 1 1 0 0 0 1 1 0 0 1 0 1 1 1 1 1 1 1 1 0 1 1 1 0 1 0 1 1 1 1 1 1 0 1 1 0 1 1 1 1 1 1 1 1 0 1 0 1 0 0 1 1 1 1 1 1 0 0 1 0 0 1 0 1 1 1 1 1 1 1 1 1 1 1 1 1 1 0 0 1 1 1 0 1 0 1 0 1 1 1 1 1 1 1 1 1 0 1 0 1 0 1 1 1 1 0 0 0 1 1 1 1 0 0 1 1 1 1 1 1 1 1 1 1 1 1 1 1 1 1 1 0 1 1 0 0 0 0 1 1 0 1 1 0 1 1 1 0 0 0 1 1 1 1 1 1 0 1 0 0 1 1 1 1 1 1 1 1 1 1 1 1 1 0 1 0 1 0 1 0 0 1 0 1 1 0 1 1 0 1 1 0 0 0 1 0 1 1 1 0 1 1 0 1 1 1 0 1 1 1 1 1 1 1 1 1 1 1 1 1 1 1 1 1 1 1 0 0 0 0 1 1 0 1 0 1 1 0 1 0 1 1 1 0 1 1 1 1 1 1 1 0 0 0 1 1 1 0 1 1 1 1 1 0 1 1 1 1 0 1 1 0 0 1 1 1 1 1 0 0 1 1 1 1 1 1 0 1 0 1 1 0 1 1 1 1 1 0 1 1 1 1 1 1 1 1 1 0 1 1 0 1 1 0 1 1 0 1 0 1 1 1 1 1 1 1 1 0 0 1 1 1 1 0 0 1 1 0 1 1 1 1 1 0 1 1 1 1 1 1 1 0 1 0 1 1 1 1 1 0 1 1 0 0 1 1 1 1 1 1 1 1 1 1 1 1 1 1 1 1 1 1 0 1 0 1 0 1 1 1 1 1 1 0 0 0 1 1 1 1 1 1 0 1 1 1 1 1 1 1 1 1 0 1 0 0 0 1 1 0 0 1 1 1 1 1 0 0 1 0 1 0 1 1 0 1 0 1 1 1 1 0 1 0 1 1 1 0 0 1 0 1 1 1 1 1 1 1 1 1 0 1 1 1 1 1 0 1 0 1 0 0 1 0 1 1 1 0 1 0 1 1 1 0 0 1 1 1 0 1 1 0 0 1 1 1 0 1 0 0 1 1 1 1 1 1 0 1 1 1 1 1 1 0 1 1 1 1 0 1 1 1 1 1 1 0 0 0 1 1 1 0 0 0 1 1 1 1 0 1 1 1 1 0 1 1 1 1 1 1 1 1 1 1 1 1 1 0 1 0 1 1 1 1 1 0 1 0 1 1 1 1 1 0 1 0 1 1 0 0 0 1 0 1 1 1 0 1 1 1 1 1 0 1 1 1 1 1 1 0 0 1 1 1 1 1 1 1 1 1 0 1 1 1 1 1 1 0 1 1 1 1 1 0 1 1 0 0 1 0 1 1 1 1 1 1 1 1 1 1 0 1 1 1 1 0 1 0 0 1 1 0 0 0 1 1 0 1 1 0 0 0 0 1 1 1 1 1 1 1 0 0 1 0 1 1 1 0 1 1 0 0 0 1 0 1 0 0 1 1 1 1 1 1 0 0 1 0 1 1 1 1 1 1 0 1 1 1 1 0 1 1 1 1 1 1 0 1 1 1 0 1 0 1 0 1 1 1 1 0 1 0 0 0 1 1 1 0 0 1 1 1 1 1 0 0 1 1 0 0 0 1 1 1 0 0 1 0 1 1 1 1 0 1 1 1 0 0 1 0 1 1 1 1 1 1 1 1 0 1 1 1 1 1 1 1 1 0 1 1 0 1 1 1 0 1 0 0 1 0 1 1 0 1 1 1 1 1 1 1 1 1 0 1 1 1 1 1 0 1 1 1 0 1 1 0 1 1 0 0 1 0 1 1 1 1 1 1 1 1 0 1 1 0 1 1 1 1 0 1 1 0 1 0 0 1 1 1 1 1 1 1 1 1 1 1 1 1 0 1 0 1 1 1 1 1 1 0 1 1 1 1 0 1 1 1 0 0 1 1 0 1 0 0 1 1 1 1 1 1 1 1 0 0 1 0 1 1 1 1 1 1 1 1 1 1 1 0 0 0 1 1 1 1 1 1 1 1 1 0 0 1 1 1 0 1 1 1 0 1 1 1 1 0 1 1 1 0 0 1 0 1 1 1 1 1 0 1 0 1 1 0 0 1 1 1 1 1 1 1 1 0 0 1 1 1 1 1 1 1 1 1 1 0 1 1 1 0 1 0 1 1 1 0 1 1 0 1 1 1 1 1 1 1 1 1 0 0 1 0 1 1 0 0 1 1 0 0 1 0 0 1 1 0 1 1 0 0 1 1 0 1 1 1 1 0 1 1 1 1 1 1 1 1 1 1 1 1 0 1 1 1 0 1 1 1 0 0 1 1 1 1 1 1 0 1 1 0 1 0 1 1 0 1 1 1 1 1 1 1 1 0 1 1 0 0 1 1 1 0 1 1 1 0 1 0 1 1 1 1 1 0 0 0 0 1 1 1 1 0 1 1 1 1 1 0 0 1 1 1 1 0 0 1 1 0 1 1 0 1 1 1 1 1 1 0 1 1 1 0 1 0 0 1 1 1 0 1 1 0 1 1 1 1 1 1 1 1 0 0 1 1 1 0 0 1 1 0 1 0 1 1 0 0 0 1 1 1 1 1 1 0 0 1 1 0 0 1 1 1 1 1 1 0 1 1 1 0 0 0 1 1 0 0 0 0 1 1 1 0 1 1 0 1 1 1 1 0 1 1 1 0 0 0 1 0 0 1 1 1 1 1 0 1 1 1 1 1 1 1 0 1 0 1 1 0 0 0 1 1 0 1 0 1 1 1 0 1 1 1 1 0 1 1 1 1 1 1 1 0 0 1 0 1 1 1 1 1 0 1 0 0 0 1 1 1 1 1 1 1 1 1 1 1 1 0 0 0 0 1 1 0 0 1 1 1 1 0 1 1 1 1 1 1 1 1 1 1 0 1 0 1 1 1 0 0 1 0 1 1 1 1 1 0 0 1 1 0 1 1 0 1 1 1 1 0 1 1 1 1 1 1 0 1 1 1 0 1 1 1 0 1 0 0 1 1 1 0 1 1 1 0 1 1 0 1 0 0 1 0 0 1 0 0 0 1 0 0 1 1 1 0 1 1 0 1 1 1 1 1 1 0 0 0 0 1 1 1 1 0 1 1 1 1 1 0 0 1 0 0 1 1 0 1 1 1 0 1 1 1 1 1 1 1 1 1 1 1 1 0 1 1 1 1 1 1 1 1 1 1 0 1 1 1 1 0 0 0 1 1 0 1 0 1 0 1 1 0 1 1 1 1 1 1 1 1 0 1 0 0 1 1 0 0 1 0 0 1 0 0 1 1 1 1 1 1 0 0 1 0 1 1 1 1 0 1 1 1 0 0 1 0 1 0 0 1 1 1 1 0 0 0 0 0 1 0 1 0 1 1 0 1 1 0 1 0 1 0 1 1 1 1 1 1 0 0 1 1 0 1 1 1 0 1 1 1 1 0 1 1 0 1 1 1 1 1 1 0 1 1 1 1 0 0 1 0 1 1 1 1 1 0 1 1 1 0 1 1 0 1 0 1 0 0 0 1 1 1 1 1 1 1 1 0 1 0 1 1 1 0 0 1 1 1 1 1 1 1 1 1 1 0 0 1 1 1 0 1 0 1 1 1 0 1 1 1 0 1 1 1 0 0 1 1 1 1 1 1 1 0 0 0 1 1 1 0 1 1 1 1 1 0 0 0 1 1 0 0 1 1 1 1 0 1 0 1 1 1 0 1 0 0 1 1 1 1 1 0 0 1 1 0 0 1 0 1 1 1 1 0 1 1 1 1 0 1 0 1 1 1 1 0 0 0 1 1 0 1 1 1 1 1 1 0 1 1 0 0 1 1 1 1 1 0 0 1 1 1 1 1 1 1 1 1 1 1 0 1 1 0 0 1 0 0 1 1 1 1 1 1 1 0 1 0 1 1 0 1 1 0 1 1 0 1 0 1 0 1 1 1 1 0 1 1 1 0 0 1 1 1 1 1 1 1 1 1 1 0 1 1 1 1 0 1 1 0 1 1 1 1 0 0 1 1 0 0 1 1 1 1 1 1 1 0 1 0 1 0 1 0 1 0 0 1 1 0 0 0 1 1 1 1 1 0 1 1 1 1 1 1 1 1 1 0 0 0 1 0 1 1 1 0 0 1 0 1 0 1 1 1 0 0 1 1 1 0 1 0 1 1 1 0 0 1 1 0 0 1 0 0 1 0 1 1 1 1 0 0 0 1 0 0 1 0 1 1 0 0 0 1 1 1 1 0 1 1 0 1 1 0 1 0 1 1 1 0 1 1 1 0 1 1 1 0 1 0 1 0 1 1 1 0 1 1 1 1 1 1 1 1 0 0 0 1 1 1 1 1 1 1 1 1 0 0 1 1 0 1 1 1 1 1 1 1 1 1 1 0 0 1 0 1 1 0 1 1 1 1 0 1 0 1 1 1 1 0 1 1 0 1 1 0 1 1 1 1 0 0 0 1 0 0 1 1 1 0 1 1 1 0 0 1 1 1 1 1 0 1 0 1 0 1 1 1 0 1 1 1 1 1 1 1 1 1 1 1 1 1 0 1 1 1 1 1 1 1 1 0 1 0 1 0 1 1 1 1 1 0 0 1 0 1 1 1 0 1 1 1 1 0 1 1 1 1 1 1 0 1 1 1 1 1 1 0 0 1 1 1 1 0 1 1 1 0 1 1 1 1 1 1 1 0 0 1 0 1 0 1 1 1 1 1 1 0 1 0 1 1 0 0 1 1 1 0 1 1 1 0 1 1 1 0 1 0 0 1 0 1 1 1 1 1 0 0 1 1 1 1 1 0 1 1 1 1 1 1 0 1 0 1 1 1 0 0 1 1 1 0 1 1 1 0 1 1 1 0 0 1 1 1 1 1 1 0 1 0 0 1 0 1 1 1 1 1 1 0 0 1 1 1 1 1 0 1 0 1 0 1 0 1 0 0 0 0 1 0 1 1 1 0 1 0 1 1 1 1 1 0 1 0 1 0 1 1 1 1 1 1 1 1 0 0 1 1 1 1 1 1 1 0 0 1 1 0 1 0 0 1 1 1 1 0 1 1 0 0 1 1 1 1 1 1 0 0 0 0 1 1 1 1 1 1 1 1 1 1 0 1 1 0 0 1 0 1 0 1 0 1 1 1 1 1 1 0 1 0 0 1 0 0 1 1 0 1 1 1 1 1 1 1 1 1 0 0 1 1 1 1 1 0 1 1 0 1 1 1 1 1 1 1 1 0 1 0 0 0 1 1 0 0 0 1 0 1 1 0 0 0 1 1 1 0 1 1 1 0 1 1 1 1 0 1 0 1 1 1 1 0 0 1 1 0 1 0 0 1 1 1 1 1 1 1 1 1 1 1 0 0 0 1 0 1 1 1 0 1 1 1 1 0 1 1 1 1 0 1 1 1 1 1 1 1 0 1 1 1 1 1 1 1 0 1 1 1 0 1 1 1 1 0 0 1 1 1 1 1 1 1 1 0 1 1 0 1 0 0 1 0 1 1 1 1 0 0 1 1 1 0 1 0 1 1 1 1 0 1 1 0 1 1 1 1 1 1 0 1 1 0 1 1 1 1 0 1 0 1 1 1 1 0 0 1 1 1 0 0 1 0 1 1 1 1 1 1 1 1 1 1 1 0 1 1 1 1 1 1 1 1 1 0 1 1 1 1 1 1 0 1 0 1 1 0 1 0 1 1 1 1 1 1 1 0 1 1 1 1 0 1 1 1 1 1 0 0 0 1 1 1 1 1 1 1 1 1 1 1 1 1 1 0 1 1 1 1 1 1 0 1 1 1 1 1 1 1 1 1 1 1 1 1 1 1 1 1 0 1 0 1 1 1 0 1 1 0 1 1 0 0 1 1 1 0 1 1 1 1 0 0 1 1 0 1 0 1 1 1 0 1 1 0 1 1 0 1 1 0 0 1 0 1 1 1 1 0 1 1 0 0 0 0 0 1 0 0 0 1 0 1 1 1 0 1 0 1 0 1 0 1 0 1 1 1 1 0 1 0 0 1 1 1 1 1 0 1 1 1 0 1 0 1 0 1 1 1 1 1 1 1 1 0 1 1 0 1 1 1 0 1 1 1 1 1 1 1 1 1 1 0 1 1 1 0 1 0 1 1 1 0 0 1 1 1 1 1 1 1 1 0 1 0 1 1 0 1 1 1 1 1 0 1 1 1 0 1 1 1 1 1 1 1 1 0 1 1 1 1 0 0 1 1 0 0 1 0 1 1 0 1 0 1 0 1 1 1 0 1 0 1 0 0 1 0 1 1 1 1 0 1 0 0 1 1 0 1 0 1 1 1 1 1 1 1 1 1 1 0 0 1 1 1 0 1 0 1 0 1 1 1 1 0 1 1 1 0 0 1 1 1 1 1 1 1 1 1 1 0 1 0 1 0 1 0 1 1 0 1 0 1 1 0 1 0 1 1 0 1 1 1 1 1 1 1 1 0 1 0 1 1 1 1 0 1 1 0 1 1 0 1 0 1 0 1 1 1 1 1 1 0 1 0 1 0 1 0 0 1 1 1 1 1 0 1 0 1 0 0 1 1 1 1 1 0 1 1 0 0 0 1 0 0 0 0 1 1 1 1 1 1 1 0 0 0 0 0 1 1 0 1 1 1 0 0 0 1 1 1 1 1 1 1 1 1 0 1 0 1 1 1 1 0 1 1 1 0 0 1 1 0 1 1 1 1 1 1 1 1 1 1 0 1 0 0 1 1 0 1 1 1 1 1 0 1 1 0 1 1 0 1 0 0 1 0 1 0 1 1 1 1 1 0 1 0 1 0 0 1 1 1 1 1 1 1 0 1 1 1 0 1 1 1 1 0 0 1 0 0 1 1 0 1 0 0 1 0 1 1 1 1 1 0 1 0 1 1 1 1 1 1 1 1 1 0 1 1 1 1 1 1 1 1 0 0 1 1 1 1 1 1 0 1 1 1 0 1 0 0 1 1 1 1 1 1 1 1 0 0 0 0 0 1 1 1 1 1 0 1 1 1 1 1 1 0 1 1 1 1 1 1 1 0 0 0 1 1 0 1 0 1 1 1 1 1 1 1 1 1 0 1 0 0 1 1 1 0 1 1 0 0 1 0 1 0 1 1 1 1 1 0 1 1 1 1 1 0 1 0 1 0 1 0 1 1 1 1 1 0 1 1 1 1 0 1 0 0 0 0 1 1 1 0 1 1 1 1 1 0 1 1 0 1 1 1 1 1 1 1 0 0 0 1 0 1 1 1 1 1 1 1 1 1 1 1 0 0 1 0 1 0 1 1 1 1 0 1 1 1 0 1 0 1 1 1 1 1 0 1 1 0 1 1 0 0 1 0 0 0 1 1 1 0 1 1 0 1 1 0 1 0 1 0 1 1 1 1 1 1 0 1 1 1 0 0 0 1 1 0 1 1 1 1 0 0 0 0 1 0 1 1 1 0 0 0 1 1 1 1 1 0 1 1 1 1 1 1 0 1 1 0 0 0 1 1 0 0 1 1 1 1 1 1 1 1 1 1 1 1 1 0 1 1 0 0 1 1 1 0 1 1 1 1 1 0 0 0 1 1 0 1 0 1 0 0 1 1 0 1 1 1 1 0 0 1 0 1 1 0 1 1 1 0 0 1 1 1 0 0 0 1 1 1 1 0 0 1 1 0 1 0 1 1 1 0 1 1 1 1 1 1 1 1 1 1 0 1 1 1 1 1 1 0 0 1 1 1 0 1 1 1 1 0 1 0 1 1 1 1 0 1 1 1 0 0 1 0 1 1 1 1 1 1 0 1 1 1 0 1 1 0 0 1 1 1 1 1 1 1 1 0 1 1 1 1 1 0 1 1 1 1 1 1 0 1 1 1 1 1 1 1 1 1 1 1 0 0 1 0 1 1 1 1 0 1 1 0 0 1 1 1 0 1 0 1 1 1 1 1 1 0 1 1 1 1 1 1 0 0 1 0 1 0 0 1 0 1 1 0 1 0 1 1 1 0 1 0 1 1 1 1 1 1 1 0 1 0 1 1 1 1 0 0 1 1 1 1 1 1 1 0 1 0 1 1 1 1 1 0 1 1 0 1 1 1 1 1 1 0 1 1 0 1 1 0 1 0 1 1 0 1 1 1 1 0 1 1 0 0 1 0 1 0 1 1 1 0 0 1 1 1 1 1 1 1 1 1 1 0 1 1 1 1 1 1 1 1 1 1 1 0 1 0 1 0 0 0 1 1 1 1 1 1 1 0 1 1 1 1 1 1 1 0 1 1 0 1 0 1 1 1 0 1 1 1 1 1 0 1 1 1 0 1 1 1 1 1 1 1 1 1 1 0 1 1 1 0 0 1 0 1 1 1 1 1 1 1 0 1 0 1 1 1 0 1 0 1 0 0 1 1 0 0 0 1 0 1 0 1 0 1 1 0 1 0 1 0 0 0 0 0 1 0 1 1 1 1 1 1 1 0 1 0 1 1 1 1 0 1 1 0 1 1 1 1 1 0 1 1 1 0 1 0 1 0 1 1 1 1 1 0 0 1 1 1 1 1 1 0 1 1 1 1 1 1 0 0 1 0 1 1 0 1 1 1 1 1 1 1 0 1 1 1 1 1 1 1 1 1 0 0 1 0 1 1 1 0 1 0 0 0 0 1 1 1 1 1 1 1 0 1 1 1 1 1 0 1 1 1 0 0 1 0 1 1 1 1 1 1 1 0 1 0 0 0 1 0 1 1 0 0 1 0 1 1 1 1 1 1 1 1 0 0 1 1 0 1 1 1 1 0 1 1 0 1 1 1 0 0 1 1 1 0 1 0 0 0 1 0 0 1 1 0 1 1 1 1 0 1 1 0 0 0 1 1 1 1 1 1 0 0 0 0 0 1 0 1 1 1 1 1 1 1 1 1 1 1 0 1 0 1 1 1 1 0 1 1 0 1 1 0 0 1 1 0 1 1 0 1 1 0 1 1 0 0 1 1 0 1 1 0 1 0 1 1 1 1 1 1 0 1 0 0 0 1 1 1 1 0 0 0 0 1 1 1 0 1 1 1 0 1 0 0 1 1 1 0 1 1 1 0 1 1 0 1 0 1 1 1 1 0 1 1 1 1 1 1 1 1 1 1 0 0 1 1 1 1 0 1 1 1 1 1 1 1 1 1 1 0 1 1 1 1 0 0 1 0 1 1 0 0 1 1 1 1 1 1 1 1 1 1 1 1 1 1 0 1 1 1 0 1 0 0 1 0 1 0 1 1 1 1 0 1 1 1 0 1 1 0 1 1 1 1 0 1 1 1 0 1 0 0 0 1 1 1 0 0 1 0 1 0 1 0 1 0 0 1 1 1 1 1 0 1 0 1 1 1 0 1 0 1 0 0 1 1 0 1 1 1 1 1 0 1 0 1 1 1 0 0 0 1 1 0 0 1 0 1 0 0 1 0 1 1 0 1 1 1 0 1 0 1 1 0 1 1 1 1 0 1 0 1 0 1 1 0 1 1 1 1 1 1 1 0 1 1 0 0 1 1 1 1 0 1 1 1 1 1 1 0 1 0 0 1 1 1 1 0 0 1 1 1 1 1 1 0 0 1 0 0 0 0 1 1 1 1 1 1 1 1 1 0 1 1 0 0 0 1 1 1 1 1 0 1 1 1 1 0 0 1 1 1 1 1 1 1 1 1 1 0 1 1 1 1 0 0 1 1 0 1 1 1 1 0 1 0 1 0 1 0 1 0 1 0 0 0 0 0 1 0 1 0 0 1 1 1 0 1 1 0 0 1 1 1 1 0 1 1 1 0 0 1 1 1 1 1 1 1 1 1 1 0 1 0 1 1 1 1 0 1 1 1 1 1 1 0 1 1 0 1 1 0 1 1 1 1 1 1 1 1 0 1 1 0 1 1 1 1 1 1 0 1 1 1 1 0 0 1 1 0 1 0 0 1 1 0 1 0 0 1 0 1 0 1 1 0 1 1 1 1 1 1 1 1 0 1 1 0 1 1 0 1 1 1 0 1 1 1 0 1 1 0 1 0 1 1 1 1 0 1 1 0 1 1 0 0 1 1 0 1 1 1 1 0 0 0 1 1 1 1 0 1 1 1 1 1 1 0 1 1 1 1 1 1 0 1 0 1 1 1 1 1 1 1 1 1 0 1 1 0 0 1 1 1 1 0 0 0 0 0 1 0 1 1 1 1 1 1 1 1 0 1 1 1 0 1 1 1 0 1 1 1 1 1 1 1 1 1 1 0 0 0 0 0 1 1 1 0 1 0 0 1 1 1 0 0 1 1 1 1 1 0 0 1 1 1 0 0 1 1 1 1 1 0 1 0 1 0 0 0 1 1 1 0 1 1 1 0 1 0 1 1 1 1 1 1 0 1 1 1 1 1 0 0 1 1 1 1 0 0 0 1 1 0 1 0 1 1 0 1 0 1 1 1 1 1 0 1 1 1 0 1 0 0 1 1 1 0 0 0 1 0 1 1 1 0 0 1 1 1 1 0 0 1 1 1 1 1 1 1 0 1 1 1 1 0 1 1 1 1 1 1 0 0 0 0 0 1 1 1 1 0 1 1 1 1 1 1 1 1 0 1 0 1 0 0 1 0 1 1 1 0 0 1 0 1 1 1 0 1 0 1 1 0 0 1 1 0 1 1 1 0 1 0 0 0 0 1 1 0 1 1 0 0 1 1 1 1 1 0 1 1 1 1 1 0 0 0 0 1 1 1 0 1 1 1 1 1 1 1 1 1 1 1 1 0 0 1 1 1 1 1 1 1 0 1 1 1 1 0 0 0 1 1 0 0 1 1 1 1 0 0 1 1 1 0 1 1 1 1 0 1 1 1 0 1 1 0 1 1 1 1 1 0 1 1 0 1 1 0 1 1 1 0 1 1 1 0 1 0 1 1 1 0 1 1 0 1 1 0 1 1 1 1 1 0 0 1 0 1 1 1 0 1 1 1 1 0 1 1 0 1 1 0 1 1 0 1 1 1 1 1 1 1 1 1 0 0 1 1 1 1 0 1 1 1 1 1 0 1 0 0 0 1 1 1 1 1 0 1 0 0 1 1 0 1 1 1 0 0 1 1 1 1 1 1 0 0 0 0 0 0 0 0 1 1 1 1 0 1 1 1 1 1 1 0 1 1 1 1 1 1 1 1 1 0 1 1 1 1 1 1 1 0 0 1 0 0 0 1 1 1 1 0 1 1 0 0 1 1 1 1 1 0 1 1 0 1 1 1 1 1 0 0 1 1 0 1 1 1 0 1 1 1 0 0 1 0 1 0 1 1 1 1 1 0 1 1 1 0 1 1 1 1 1 0 1 1 0 1 1 0 1 1 1 0 0 1 1 1 1 1 1 1 1 1 1 1 0 1 0 1 0 0 1 1 1 1 0 1 1 1 1 1 1 1 0 1 0 1 1 0 1 1 0 0 1 0 0 1 1 1 1 1 0 1 0 1 1 1 1 1 1 1 1 1 1 0 1 1 0 0 1 1 1 0 1 1 1 1 1 1 0 1 0 1 1 1 1 0 1 1 1 1 1 0 0 1 0 1 1 0 0 1 1 0 1 1 1 1 1 1 0 1 1 0 1 1 0 1 0 1 0 0 1 1 1 1 1 1 1 1 1 1 1 1 1 1 1 1 1 0 1 1 0 1 1 1 0 1 1 0 1 1 0 0 1 0 0 1 0 0 1 1 1 1 0 1 0 0 1 1 1 1 0 1 1 1 1 1 0 1 1 1 1 0 0 1 1 0 1 1 0 0 1 1 1 0 1 1 1 1 0 0 0 1 1 0 1 1 0 1 0 0 1 1 1 1 1 1 1 1 1 1 0 1 1 1 0 1 1 1 1 0 1 1 1 1 0 0 1 0 0 1 1 1 1 1 1 1 1 1 1 1 1 0 1 0 1 0 1 0 1 0 1 0 1 1 1 1 1 1 0 1 0 1 0 0 1 0 1 1 1 1 1 0 1 1 1 0 1 1 0 1 0 0 1 1 1 1 1 0 0 1 1 0 1 1 1 0 0 1 1 1 1 0 0 1 1 1 1 1 1 1 1 1 1 1 0 1 1 1 1 0 1 0 0 1 0 1 1 1 1 1 1 0 1 1 1 1 0 0 0 0 1 0 0 1 1 1 1 0 0 1 1 1 1 1 1 1 0 1 1 1 1 0 1 1 0 0 1 1 0 0 1 0 1 0 1 1 1 1 0 1 1 1 0 1 1 1 1 0 0 1 1 1 1 1 1 0 1 1 1 0 0 1 1 1 1 1 1 1 0 1 1 1 1 1 1 1 1 1 1 0 1 1 1 1 1 0 0 0 1 1 1 0 1 1 0 1 1 1 1 0 1 1 1 1 1 0 1 0 1 1 1 0 1 1 0 1 1 1 1 0 1 1 0 1 1 1 0 1 0 0 1 1 0 1 1 1 1 1 0 1 1 1 0 1 0 1 1 1 0 0 1 0 1 1 0 1 1 1 1 1 0 1 1 1 1 1 0 1 1 1 1 1 1 1 0 0 0 0 0 1 1 0 0 1 1 1 1 1 1 1 0 0 0 0 1 1 1 0 1 1 0 0 1 1 0 0 1 1 1 0 1 0 1 0 1 0 1 1 1 1 1 1 1 1 1 1 1 1 1 0 1 1 0 0 0 0 1 1 0 0 1 0 0 1 0 1 1 1 0 1 1 1 0 1 0 1 1 1 0 1 1 0 1 1 1 1 1 1 0 1 1 0 0 0 1 1 1 1 1 0 1 0 1 1 0 1 0 0 1 1 0 1 0 1 1 1 0 0 0 0 1 1 0 0 0 1 0 1 1 1 1 1 1 0 1 1 0 1 0 1 0 1 1 1 1 1 1 1 1 1 1 1 0 1 1 1 1 1 1 1 0 1 0 1 1 1 0 1 0 0 1 1 0 1 1 0 0 1 1 1 1 0 0 1 1 1 1 0 0 1 1 1 1 1 0 1 0 1 0 1 1 1 1 1 1 1 1 1 1 1 1 1 1 1 1 1 1 0 1 0 0 1 1 1 1 1 1 1 1 0 1 1 0 0 1 1 0 0 1 0 1 0 1 0 0 0 1 1 0 1 0 1 1 0 1 1 0 1 1 0 0 1 1 0 0 0 0 1 1 1 1 0 1 0 0 0 0 1 1 0 1 0 1 1 0 0 0 0 1 1 1 1 1 1 1 1 1 1 1 0 1 0 1 1 0 1 0 1 1 1 1 1 1 1 1 1 0 0 1 0 0 0 1 0 0 1 1 0 1 1 1 1 1 0 1 1 0 1 0 1 1 0 0 1 1 1 0 1 1 0 1 0 1 1 1 0 1 1 1 1 1 1 1 0 1 0 0 0 0 0 1 1 1 1 0 1 0 1 1 1 1 1 1 1 1 1 0 0 1 1 1 1 1 1 1 1 1 1 0 0 1 1 1 0 0 1 1 1 1 1 1 1 0 1 1 1 1 1 1 0 1 0 1 1 0 1 0 1 1 1 1 1 1 1 0 1 1 0 1 1 1 0 1 1 0 0 1 1 1 1 1 1 1 1 1 1 0 1 1 0 1 1 0 1 1 1 1 0 1 1 1 1 1 1 1 0 1 1 1 0 1 1 0 1 0 0 1 1 1 1 1 0 1 0 0 1 0 1 0 1 1 1 1 1 0 1 1 1 0 1 0 1 0 1 1 1 1 1 0 1 0 0 0 1 1 1 1 1 0 0 1 1 1 1 1 0 0 0 1 1 0 0 0 1 0 1 0 1 0 1 1 1 1 1 0 0 1 1 0 0 1 1 1 0 1 1 1 1 1 1 1 1 1 1 1 1 1 0 1 0 0 1 0 0 0 0 1 1 1 1 1 0 1 0 0 1 1 1 1 0 0 1 1 0 1 1 0 0 1 0 0 0 1 1 1 0 1 0 1 1 1 1 1 1 0 1 1 0 1 1 1 1 0 1 0 0 1 1 1 1 0 1 0 1 0 1 1 1 0 1 1 1 1 1 1 1 1 1 1 0 1 0 1 1 1 1 1 0 1 0 0 1 1 1 1 1 1 1 1 1 1 1 1 1 1 1 1 1 1 1 1 1 0 1 1 1 1 0 0 1 0 0 1 0 1 1 1 1 1 1 1 1 1 1 1 1 1 1 0 1 1 1 1 1 0 1 1 1 1 0 1 1 0 1 0 1 1 1 1 1 0 0 1 1 0 1 1 1 1 0 1 1 1 0 0 1 0 1 0 1 0 1 0 0 1 1 1 1 1 0 0 1 1 0 1 0 1 1 1 1 1 1 1 1 1 1 1 0 1 1 1 0 1 1 1 1 0 0 0 1 0 0 1 0 0 1 1 1 0 1 1 0 0 1 0 0 0 1 1 1 1 1 1 0 1 1 1 1 1 1 0 0 1 0 1 0 1 1 1 1 0 1 0 1 1 1 0 1 1 1 1 1 1 1 1 0 1 1 1 0 0 1 1 1 1 1 1 1 1 1 0 1 1 0 1 0 0 1 0 1 1 0 1 1 0 1 1 1 0 1 1 1 1 0 1 1 1 1 0 1 1 0 0 1 1 1 1 0 0 0 0 1 1 0 0 1 1 0 1 1 1 1 0 0 1 0 1 0 1 1 0 1 1 1 0 1 1 1 0 1 1 1 1 0 0 0 1 1 1 1 1 1 0 1 1 1 1 0 1 1 0 1 0 0 1 1 1 1 1 1 1 1 1 1 1 1 1 1 1 1 1 1 1 1 0 1 1 0 1 0 1 1 1 1 1 0 1 1 1 1 0 1 0 0 1 0 1 1 1 0 1 1 0 1 1 1 1 1 1 1 0 0 1 1 0 1 1 1 1 0 1 1 1 1 1 0 0 1 1 1 1 1 0 1 0 1 1 1 1 1 1 1 0 0 0 0 1 1 1 0 1 1 1 1 0 0 1 1 1 1 1 1 1 0 1 0 0 0 1 1 0 1 1 1 0 1 1 0 0 1 1 1 0 1 1 0 1 0 1 0 0 1 1 1 1 0 1 1 1 1 1 1 0 0 0 1 1 0 0 1 1 0 1 1 1 0 0 1 0 1 1 1 1 1 0 1 1 1 1 0 1 1 1 0 1 0 1 1 1 1 1 1 1 1 1 0 0 1 0 1 0 0 1 1 1 1 1 1 1 1 1 1 1 1 1 1 1 1 0 1 1 1 1 1 1 1 1 1 0 0 1 0 1 0 1 1 0 1 1 0 1 0 1 1 1 1 1 1 0 1 1 1 0 0 1 1 1 1 0 1 0 1 0 1 1 1 1 1 1 1 0 1 1 1 0 0 1 1 1 1 1 1 0 0 0 1 0 0 1 1 1 1 1 0 1 1 1 1 0 1 1 1 1 1 1 1 1 1 1 1 1 1 1 1 0 1 1 0 1 1 0 1 1 1 1 0 1 1 1 1 0 0 1 0 1 1 1 1 0 0 1 1 1 1 1 0 1 1 0 1 1 1 1 0 1 0 0 0 1 0 1 1 0 1 0 1 1 1 0 1 1 1 1 1 1 1 1 1 0 0 0 0 1 1 1 1 1 1 1 1 1 1 1 1 0 0 1 1 1 0 1 1 1 1 1 1 1 1 1 0 1 1 1 1 1 1 1 1 1 1 0 0 1 0 1 1 1 1 1 1 1 1 1 1 1 0 0 0 1 1 0 0 1 1 0 1 0 1 1 1 0 0 1 0 1 1 0 1 0 1 1 0 0 0 1 1 0 1 0 1 1 0 0 0 1 1 1 1 1 1 1 1 1 1 1 0 1 1 0 1 1 0 1 0 1 1 0 0 1 1 1 0 0 1 1 0 1 1 1 0 1 1 1 1 1 1 1 1 1 1 0 0 1 1 1 0 1 0 1 0 1 1 1 1 1 1 1 1 0 1 1 1 1 1 1 1 1 1 1 1 0 1 1 0 1 1 0 1 1 0 0 0 1 0 1 1 1 1 1 1 0 1 1 0 0 1 1 1 0 0 1 1 0 1 1 0 1 0 1 1 0 1 1 1 1 1 1 0 1 1 1 1 0 0 1 1 0 1 0 1 1 0 1 1 1 1 1 1 1 1 0 0 1 1 1 0 0 0 1 1 0 1 1 0 1 1 1 1 1 1 1 0 1 0 1 0 1 0 1 0 1 1 0 1 1 1 0 1 1 1 1 1 1 0 1 1 1 0 1 1 1 1 1 1 1 1 1 1 1 0 1 1 1 0 0 0 1 0 1 1 1 0 1 0 1 0 0 1 0 0 0 1 0 1 1 0 1 0 1 0 1 1 1 1 0 1 0 1 1 1 0 0 1 1 1 0 1 1 0 1 0 0 1 0 0 1 0 1 1 0 1 1 1 0 1 1 1 1 1 0 1 1 0 1 1 1 1 1 1 1 1 0 1 0 1 1 1 1 1 1 1 1 1 0 1 1 1 1 0 0 1 1 0 1 1 1 0 0 1 1 1 1 1 1 1 1 1 1 1 1 1 1 1 1 1 0 0 1 1 1 0 1 1 1 0 0 1 1 0 1 0 1 0 0 0 1 1 1 0 1 1 1 1 0 1 1 0 1 0 1 1 1 0 1 0 1 1 1 1 1 1 1 0 1 1 0 1 0 1 1 1 1 0 1 1 0 1 0 0 0 1 1 0 1 1 1 1 1 1 1 0 1 1 1 1 1 1 1 1 1 1 0 1 1 1 1 1 1 1 0 0 1 1 1 1 1 1 0 0 1 1 1 1 0 1 0 1 1 1 1 1 1 1 1 1 1 1 1 1 1 0 1 1 1 1 0 1 1 1 1 1 0 1 1 0 1 1 1 1 0 1 0 1 1 0 1 0 1 1 0 0 1 0 1 0 1 0 1 1 1 0 1 1 1 1 1 1 0 0 0 0 0 1 1 0 0 0 1 1 1 1 1 0 1 0 0 1 0 1 1 1 1 1 1 1 1 1 1 0 1 0 1 1 0 1 1 0 0 1 1 1 1 1 1 1 1 1 0 0 1 1 0 0 0 1 0 1 0 0 1 1 1 1 1 1 1 0 0 0 0 1 1 0 1 1 1 1 1 1 1 1 1 1 1 1 1 1 1 1 1 1 1 1 1 1 1 1 1 0 0 1 0 1 1 0 1 0 1 0 1 0 0 1 1 1 1 1 1 1 1 1 1 1 0 1 1 0 0 1 1 1 1 1 1 1 1 1 1 1 0 1 1 1 0 1 1 1 1 1 0 1 1 1 1 1 1 0 1 0 0 1 0 1 0 1 1 1 1 1 1 1 0 0 0 1 0 1 1 0 1 1 1 0 0 1 1 0 1 1 1 1 0 1 1 0 0 0 0 1 0 1 1 1 0 1 0 0 1 0 1 0 1 1 1 1 0 0 0 1 0 1 1 1 0 1 0 1 1 1 0 0 1 0 1 0 1 0 1 1 1 0 1 1 1 0 1 1 1 1 1 1 1 1 1 1 1 0 1 1 1 1 1 1 1 1 1 0 1 1 1 1 1 1 1 1 0 1 0 0 0 0 1 0 1 0 1 0 1 1 0 1 1 1 0 1 1 0 1 1 1 1 1 1 0 1 1 1 1 1 1 1 1 1 1 1 1 0 1 1 0 1 1 1 1 1 1 0 1 1 1 1 1 1 1 1 1 1 1 1 0 1 0 0 1 0 1 1 1 1 1 1 0 1 0 1 0 0 1 1 1 1 1 1 1 0 1 0 0 0 1 0 0 1 1 0 0 1 1 0 0 1 1 1 1 1 1 0 1 1 0 1 1 0 1 1 1 0 0 1 1 0 1 1 1 1 1 0 1 1 1 1 0 1 1 0 1 1 1 1 1 1 1 1 0 0 1 0 1 1 1 1 0 0 1 1 0 1 1 1 1 0 1 1 1 0 1 1 1 1 0 0 1 0 1 0 1 0 0 0 0 0 1 1 1 1 0 0 0 1 1 1 1 0 1 0 1 0 0 0 1 0 1 1 0 1 0 0 1 1 0 1 1 1 1 1 0 1 1 1 0 1 1 1 0 1 1 0 0 0 1 1 1 1 1 0 0 1 0 1 1 0 1 0 1 1 0 1 1 1 1 0 1 1 1 1 1 0 0 0 1 1 1 0 1 1 1 0 1 1 1 1 1 1 1 1 1 1 1 0 1 1 1 1 1 1 1 0 0 1 1 1 1 1 0 1 1 1 1 1 0 1 1 0 0 1 1 1 0 0 0 1 1 1 1 1 0 1 1 0 0 1 1 1 0 1 1 1 1 1 1 1 1 1 1 0 0 0 0 1 1 1 0 0 1 1 1 1 1 1 1 1 1 1 1 1 1 1 1 0 0 1 1 1 1 0 1 0 1 1 0 1 0 1 0 1 0 1 1 1 0 1 1 1 1 1 1 1 1 1 1 1 0 1 1 1 1 0 1 1 0 1 0 1 1 1 1 1 1 0 0 0 1 1 1 0 0 0 1 1 0 0 0 1 0 1 1 1 0 1 0 1 0 1 1 1 1 0 1 1 1 1 1 1 1 0 1 1 1 1 1 1 1 1 1 1 1 1 1 1 1 1 1 1 1 0 0 0 1 1 1 1 1 0 1 1 1 1 0 1 1 1 1 1 0 1 1 0 1 0 0 0 1 0 1 1 0 1 1 1 1 1 0 1 1 1 1 1 1 0 1 0 0 1 0 1 1 0 1 0 1 1 0 1 0 0 0 1 1 1 1 1 1 1 0 1 0 1 1 1 1 1 0 0 1 1 1 1 1 1 1 1 1 1 1 1 1 0 1 0 0 0 0 1 1 0 1 1 0 1 0 1 1 0 1 1 1 0 1 1 1 0 1 1 1 1 1 0 1 1 1 1 1 1 1 0 1 1 1 0 1 1 0 1 1 1 1 0 1 0 1 1 0 1 1 1 0 0 1 1 0 1 1 1 0 0 0 1 1 1 1 0 0 1 0 0 1 0 0 0 0 1 0 0 0 1 1 1 1 0 1 1 0 1 1 1 1 0 0 1 1 1 1 1 0 1 0 1 0 1 1 1 1 1 1 1 1 0 0 1 1 1 1 1 1 1 1 1 1 1 0 1 1 1 1 0 1 1 1 0 1 0 1 1 1 1 1 0 0 1 1 1 0 1 1 0 1 1 1 1 1 1 1 0 1 1 1 0 1 1 0 0 1 0 1 0 1 1 1 1 1 0 1 0 0 0 1 0 1 0 1 0 0 1 1 1 1 1 0 1 1 0 1 0 0 1 1 1 1 1 0 1 1 1 1 1 1 1 1 1 1 1 1 1 1 1 1 1 1 1 1 0 1 1 0 0 1 1 1 0 1 0 1 0 1 1 1 1 1 1 1 0 1 1 1 1 0 1 1 0 1 1 0 1 0 0 1 1 1 1 0 1 1 1 0 0 1 0 1 1 1 1 0 1 1 1 1 1 1 1 1 0 0 0 1 1 1 1 0 1 1 0 0 0 1 1 0 0 1 1 0 0 0 1 0 0 1 0 1 1 0 1 1 1 1 1 1 1 1 1 1 1 0 0 0 1 0 1 1 0 1 0 1 1 1 1 1 1 1 1 1 1 1 1 1 1 1 1 1 0 1 1 1 1 1 1 0 1 1 1 0 1 1 0 0 1 1 1 0 1 1 0 1 1 1 1 1 1 1 0 0 0 1 1 0 1 1 1 1 1 0 0 1 0 1 1 1 1 1 1 1 0 1 1 1 1 1 1 1 1 0 1 0 1 1 1 1 0 1 0 1 1 0 1 1 1 1 0 0 1 1 1 0 0 1 1 1 0 1 0 1 1 1 1 1 1 1 0 1 1 0 1 1 0 1 1 0 1 1 1 0 0 1 1 1 1 1 1 0 0 0 1 1 1 1 1 1 0 1 1 1 1 0 1 0 0 0 1 1 0 0 1 0 1 0 1 0 1 0 0 1 1 0 1 1 1 0 0 1 1 0 1 0 1 0 1 0 1 0 1 1 0 1 1 1 1 1 1 0 1 1 1 1 0 1 0 0 1 0 1 0 1 1 1 1 0 1 0 1 0 0 1 0 0 0 1 1 0 1 1 0 1 1 1 1 1 0 1 0 0 0 1 1 1 1 1 1 0 1 1 0 0 1 1 1 1 1 0 1 1 0 1 1 1 1 0 1 1 0 1 1 1 0 1 1 1 1 1 1 1 1 1 1 1 1 1 0 0 1 1 1 1 0 1 1 1 1 1 0 0 1 1 1 1 1 1 1 1 1 1 0 0 1 0 1 1 1 1 1 1 1 0 1 1 1 1 1 0 0 1 1 0 1 1 1 1 0 1 0 1 1 0 1 1 1 1 1 1 1 1 1 1 1 1 0 0 1 1 1 1 1 0 1 1 1 1 0 1 1 1 0 1 0 1 0 1 0 1 1 0 0 0 1 0 1 1 1 1 1 1 1 0 1 1 1 0 1 0 1 0 1 1 1 1 1 1 1 0 1 0 1 0 1 1 1 1 1 1 1 1 0 1 1 1 1 0 1 1 0 0 1 0 0 1 1 1 1 1 0 1 1 1 1 1 1 0 1 1 0 1 1 0 1 1 1 1 1 1 1 1 1 1 1 0 1 1 1 0 0 0 0 1 1 1 0 1 0 0 1 1 1 1 1 1 1 1 0 1 0 0 1 1 0 1 0 1 1 1 1 0 1 0 0 0 1 1 1 1 1 1 1 0 1 1 0 1 1 1 1 1 1 1 0 0 1 1 0 1 1 1 0 0 1 0 1 1 1 1 1 1 0 1 1 1 0 1 1 1 0 0 1 0 1 0 1 1 1 1 1 0 1 1 1 1 1 1 0 1 1 1 1 0 0 1 1 1 1 1 1 0 1 1 1 1 0 1 1 0 1 1 1 1 0 1 0 1 1 0 1 0 1 1 1 1 1 1 0 1 0 0 1 1 1 1 1 1 1 0 1 1 1 1 0 1 0 0 1 1 1 1 1 0 0 1 0 0 1 0 1 1 1 1 1 0 0 1 1 1 1 0 0 1 0 0 0 1 1 1 1 1 0 1 1 1 1 1 1 1 1 0 0 1 1 0 0 0 1 1 1 1 0 1 1 1 1 1 1 0 1 1 1 1 1 1 1 1 1 0 1 1 1 1 0 1 1 0 0 1 1 1 1 1 1 1 1 0 0 1 1 1 0 1 0 0 0 1 1 1 0 1 1 1 1 1 0 1 1 0 0 1 1 0 0 1 1 1 1 0 1 1 1 1 1 1 1 1 1 1 1 1 1 1 1 1 1 1 1 0 0 1 0 0 1 0 0 1 0 1 1 0 0 1 0 0 1 1 1 1 1 1 1 1 1 0 1 1 1 1 0 1 1 1 1 1 0 1 1 1 1 1 1 1 0 0 1 1 1 1 1 0 1 1 1 1 0 1 0 1 0 1 1 1 1 1 1 0 1 1 1 1 1 1 1 0 1 0 1 0 1 0 1 1 1 1 0 0 0 1 1 1 1 0 1 0 0 1 1 0 1 1 0 1 0 1 1 1 1 0 1 1 1 0 0 0 1 1 1 1 1 0 1 1 1 1 0 0 0 0 1 0 0 0 1 1 0 0 1 1 1 1 1 0 0 1 1 0 1 1 0 0 0 0 1 0 1 0 1 1 1 0 0 1 1 1 0 0 1 1 1 0 1 1 1 1 1 1 1 1 0 1 0 1 1 1 0 1 1 0 0 1 1 1 1 1 1 0 0 1 1 1 0 1 1 1 0 0 1 1 0 1 1 1 0 1 0 1 1 0 0 1 0 1 0 1 1 1 1 1 1 1 1 1 1 0 1 1 1 1 1 1 1 1 1 0 0 0 0 1 1 0 1 0 1 1 1 1 1 1 0 0 0 0 1 0 1 1 1 1 1 1 1 0 0 1 1 1 1 0 0 1 1 1 0 1 1 1 0 1 1 1 1 0 1 1 1 0 1 0 1 1 1 1 0 1 0 0 1 0 1 0 0 1 0 1 0 1 1 0 1 1 1 0 1 0 0 0 0 1 1 0 0 0 1 1 1 1 1 0 0 1 1 0 1 0 1 0 1 0 1 1 1 0 1 0 0 0 1 0 1 1 1 0 0 1 1 1 0 0 1 1 1 1 1 1 0 1 1 1 1 1 0 1 1 1 1 0 1 0 1 0 1 0 1 1 1 1 0 0 0 0 1 1 1 1 0 1 0 1 1 0 1 0 1 0 1 0 1 0 1 1 1 0 1 1 1 1 0 1 1 1 1 1 0 0 0 0 0 1 1 1 1 1 0 0 1 1 0 0 1 1 1 0 1 1 1 0 1 1 1 1 0 1 0 0 0 1 1 1 1 1 0 1 1 1 1 1 1 0 1 1 0 0 1 0 1 1 1 0 1 1 0 1 1 0 0 1 0 1 1 1 0 1 0 1 1 1 1 0 0 1 0 0 1 0 0 0 1 1 1 0 1 0 1 0 1 1 0 0 0 1 1 0 1 0 1 0 0 1 0 1 0 0 1 1 1 1 1 1 0 1 0 1 1 1 1 1 1 1 0 1 1 0 1 1 1 1 1 1 1 1 0 0 1 1 1 1 0 1 1 0 1 1 1 1 1 1 1 1 0 1 1 0 1 1 1 1 1 1 0 1 0 0 1 1 0 1 1 1 0 0 0 0 0 1 1 1 1 0 0 1 1 1 0 1 0 1 1 1 0 1 1 0 0 1 0 0 1 1 0 1 0 1 1 1 0 1 1 0 1 0 1 1 1 0 0 1 1 1 0 1 0 1 1 0 1 1 1 1 1 1 1 1 1 1 1 0 1 0 1 1 1 1 0 1 1 1 1 0 0 1 1 0 1 1 1 1 1 1 1 1 0 1 0 1 1 1 0 1 1 0 1 1 1 0 0 1 1 1 1 1 1 0 1 1 0 1 1 1 1 1 1 1 1 1 1 0 1 0 0 1 1 1 1 1 1 1 1 1 1 1 1 1 0 1 0 0 0 0 1 0 1 0 1 1 1 1 0 0 1 1 0 1 0 0 0 0 1 1 1 0 1 1 1 1 1 0 0 1 1 1 0 1 1 1 1 1 1 1 1 1 1 0 1 1 1 0 1 1 1 1 0 1 1 1 0 0 1 0 1 1 1 0 1 0 1 1 1 1 0 1 0 1 1 1 0 1 0 1 1 1 0 1 1 0 1 0 1 0 1 1 1 0 1 1 0 1 0 1 0 1 1 1 1 1 1 1 1 0 1 1 1 0 1 1 1 1 1 1 1 1 1 1 1 0 0 0 0 0 1 0 1 1 1 1 1 0 1 1 1 1 1 1 0 1 0 0 1 1 1 0 1 1 1 0 1 1 0 1 1 1 1 1 1 0 1 0 1 0 1 1 1 1 1 1 1 1 1 1 0 1 1 1 1 1 0 0 1 1 1 1 0 1 1 1 0 0 1 0 1 0 1 1 0 1 1 1 1 1 1 0 1 0 1 1 1 1 1 1 1 0 0 1 0 1 1 1 1 0 1 0 0 1 0 1 0 1 0 1 1 1 1 1 0 1 1 1 1 0 0 1 0 1 1 1 1 1 1 1 1 1 1 0 1 1 1 0 1 1 1 0 0 1 1 1 1 1 1 1 0 1 1 0 0 1 0 1 1 1 1 0 1 0 0 0 1 1 0 0 0 1 1 1 1 1 0 1 0 1 0 1 1 0 1 0 0 1 1 0 1 1 0 1 1 0 1 1 1 1 1 1 1 1 1 0 1 0 1 1 0 1 1 0 1 1 1 1 1 1 1 0 1 0 0 1 1 1 0 1 1 1 1 1 0 1 1 0 1 1 0 0 1 1 1 1 1 1 1 0 1 1 1 1 1 1 1 0 0 1 1 1 1 1 0 0 1 0 0 0 0 1 1 1 1 1 1 1 1 0 0 1 0 0 1 0 1 0 1 0 1 0 1 1 1 1 1 1 1 1 0 1 1 1 0 0 1 1 1 1 1 1 1 1 1 1 1 1 1 1 0 1 0 1 1 1 1 1 1 1 1 1 1 1 1 1 1 1 0 1 1 0 0 0 1 1 1 1 1 1 0 1 0 0 1 1 0 1 0 0 0 0 0 0 1 0 1 0 1 1 1 1 1 0 1 0 0 0 1 0 1 1 0 1 1 0 1 1 1 1 1 1 0 1 1 1 1 0 1 1 1 0 1 1 1 1 0 1 0 1 1 1 1 0 1 1 1 1 1 0 0 1 1 1 1 1 1 0 0 0 0 0 0 0 1 1 1 1 1 0 0 1 1 1 1 1 0 1 1 1 0 1 0 0 0 1 1 1 1 0 1 0 1 1 0 1 0 1 1 1 0 1 0 1 1 1 1 1 1 1 1 0 0 1 1 1 1 0 1 0 0 1 1 1 0 1 1 0 1 0 1 1 0 1 1 1 0 1 1 1 1 1 0 1 1 0 1 1 0 1 1 0 1 1 1 0 0 1 1 1 1 1 1 1 1 0 1 0 0 1 1 1 0 1 1 1 1 1 1 0 1 0 1 1 1 0 1 1 1 1 1 1 1 0 1 0 0 1 0 1 1 1 0 1 1 1 1 0 0 0 0 1 1 0 0 0 1 1 1 0 1 1 1 0 1 1 1 1 0 1 1 0 1 1 1 1 1 1 1 1 1 1 1 1 1 1 1 1 1 0 1 1 1 1 1 1 1 0 1 1 0 1 1 1 1 1 1 1 0 0 0 1 1 0 1 1 1 0 1 1 0 1 1 0 1 0 0 1 1 1 1 1 0 1 1 1 1 1 0 0 1 1 1 1 1 1 1 1 1 1 0 0 1 0 1 0 1 1 1 1 1 1 1 1 1 1 1 1 0 1 1 1 0 1 1 1 1 0 0 1 1 0 1 1 1 1 1 1 0 1 0 1 1 0 1 1 1 1 1 0 1 1 1 1 0 0 0 1 0 1 1 1 1 1 1 0 1 0 1 1 0 0 1 0 1 1 1 0 0 0 1 1 1 1 0 1 0 1 1 1 1 1 1 0 1 1 1 1 0 1 1 1 1 1 1 1 1 1 1 1 0 1 0 1 0 0 1 1 0 1 0 1 1 0 1 1 1 1 0 1 1 0 0 0 1 1 1 1 1 1 0 0 1 1 1 1 1 1 1 1 1 1 1 1 1 1 0 1 0 0 1 1 1 1 1 1 1 1 1 0 1 0 1 1 0 0 1 0 1 0 1 0 1 1 1 1 1 1 0 1 1 1 1 1 1 0 1 1 0 1 1 0 0 1 1 1 0 0 1 0 0 1 1 1 0 1 1 0 1 1 0 0 1 1 0 1 1 1 1 0 1 1 1 1 0 1 1 1 0 1 1 0 1 1 1 0 1 1 1 1 1 0 1 1 1 0 1 0 0 1 1 0 1 1 1 0 1 1 1 1 1 1 1 1 1 1 0 1 1 0 1 1 1 1 1 0 1 0 0 1 0 1 0 1 0 1 1 1 1 1 1 0 1 1 1 1 1 1 0 1 1 1 1 0 0 1 0 1 0 1 0 1 1 0 1 1 0 1 1 0 1 1 1 0 1 1 1 1 1 0 1 1 1 1 1 1 0 1 1 1 1 1 0 0 1 0 1 1 1 1 0 1 1 1 1 1 1 0 1 1 1 0 1 1 1 1 1 1 1 1 1 1 1 0 1 0 0 1 1 1 1 0 0 0 1 1 1 1 1 1 1 0 0 0 0 1 0 1 1 1 1 1 1 1 0 1 1 0 1 0 1 1 0 0 1 1 1 0 1 1 1 0 0 0 1 1 0 1 1 0 1 0 1 0 1 0 1 1 0 0 1 1 0 1 1 1 0 0 0 0 0 0 1 1 1 0 1 0 1 1 1 0 1 0 1 1 0 1 0 0 1 1 1 0 0 1 1 1 1 1 1 0 1 0 1 1 1 1 0 1 1 1 1 0 1 1 0 1 1 1 1 1 0 0 0 0 0 1 1 0 1 0 1 1 0 1 1 1 1 0 0 1 1 1 1 1 1 1 1 0 1 1 0 1 1 0 0 0 1 1 1 0 1 1 0 1 1 1 0 0 0 0 1 1 1 1 0 0 1 1 1 1 0 1 1 0 1 0 1 1 1 1 1 1 1 1 1 1 0 0 1 1 1 0 1 1 0 1 1 1 1 1 1 0 1 0 1 1 1 1 1 1 1 1 1 0 1 1 1 1 1 1 1 1 1 1 1 0 0 1 1 1 0 0 0 1 1 1 1 1 1 1 0 1 1 1 1 1 0 1 1 1 1 1 1 1 0 0 0 0 1 1 1 1 1 0 1 1 0 0 1 1 1 1 1 1 0 0 1 1 0 1 1 0 1 1 0 1 1 1 1 1 0 1 0 1 1 1 1 0 1 1 1 1 1 1 0 1 0 0 1 1 1 1 0 1 0 1 0 0 1 1 0 0 1 1 1 0 1 1 1 1 1 1 1 0 1 0 1 0 1 1 1 0 1 1 1 0 1 1 0 0 0 0 0 1 0 1 0 1 1 1 1 1 0 0 1 1 0 1 0 1 0 1 1 1 0 1 1 1 1 0 1 1 0 1 1 0 1 0 1 0 1 1 1 1 0 1 1 1 0 0 0 0 1 1 0 1 1 1 0 1 1 1 1 0 1 0 0 1 0 1 1 1 1 0 0 1 1 0 1 0 1 1 0 0 1 1 1 1 1 0 1 1 1 1 0 1 1 0 1 1 1 1 0 1 1 1 1 0 1 1 1 1 0 1 1 1 0 1 1 1 1 0 0 0 1 1 1 0 1 0 0 0 1 0 1 1 1 1 0 1 1 1 1 1 1 1 1 1 1 1 1 1 1 1 1 1 1 1 1 1 1 0 1 1 1 0 1 0 0 1 1 1 1 1 1 1 1 1 1 0 0 1 1 0 1 0 0 1 1 0 1 0 1 0 0 0 0 1 0 0 1 1 0 1 1 1 1 0 1 1 0 0 1 0 1 1 0 1 1 1 1 1 1 1 1 1 1 0 1 1 1 1 0 0 1 1 1 0 1 1 1 1 0 1 1 1 1 1 0 1 1 1 0 0 1 0 0 1 0 1 1 0 1 1 1 1 1 0 0 1 1 1 0 1 1 1 0 0 1 1 1 0 1 1 1 1 1 0 1 0 0 1 1 1 0 1 1 1 0 1 0 1 1 1 1 0 0 1 1 1 1 0 1 1 1 0 1 0 1 1 0 0 1 1 0 0 0 0 1 0 1 1 1 0 1 1 1 0 1 1 1 1 1 1 0 1 1 1 0 1 1 1 1 1 0 1 0 1 1 1 1 1 1 0 1 1 1 1 1 1 1 0 1 1 1 1 1 1 0 0 1 0 1 1 1 1 1 0 1 1 1 1 1 0 1 0 1 1 0 0 1 0 1 1 0 1 0 1 0 1 0 0 1 0 1 1 1 1 1 1 1 1 1 1 1 1 1 1 1 1 1 1 0 1 1 0 1 1 1 1 1 1 1 1 0 1 1 0 0 1 1 1 1 1 1 1 1 1 1 1 1 1 1 0 0 1 1 0 0 0 1 1 1 0 0 1 1 1 1 1 1 1 1 1 0 1 1 1 1 1 0 0 1 1 1 1 1 0 0 1 1 1 0 1 1 1 1 1 1 0 0 0 1 0 1 0 1 1 0 1 1 1 0 1 1 0 0 1 0 0 0 0 1 1 1 1 1 1 1 0 0 1 0 1 0 1 0 1 0 0 1 1 1 1 1 1 1 1 1 1 0 1 0 0 0 0 1 1 0 1 1 0 1 0 1 0 0 0 1 0 1 1 0 1 1 1 0 1 1 1 1 1 0 1 1 1 1 1 1 1 0 1 1 1 1 1 1 1 1 1 1 1 1 1 1 0 1 0 1 1 1 0 1 1 1 0 1 0 0 1 1 1 1 0 1 1 1 1 1 1 1 1 1 1 1 1 1 1 1 0 1 0 1 1 1 0 1 1 1 0 1 1 1 1 1 1 1 1 1 1 1 0 1 1 1 1 1 1 1 1 1 1 1 1 1 0 1 1 1 1 1 0 1 0 0 1 1 0 1 1 1 0 0 0 1 1 0 0 1 1 0 1 1 1 0 0 1 1 1 1 0 1 1 1 1 1 1 1 0 1 1 1 1 1 1 1 1 1 1 1 1 1 1 1 1 1 1 0 1 1 1 1 1 1 0 1 1 1 1 1 0 1 1 0 1 1 0 1 1 1 1 1 1 1 0 1 1 0 0 0 1 0 0 0 1 0 0 1 1 0 1 1 1 0 0 1 0 1 1 0 0 0 0 0 1 0 0 1 1 1 0 0 1 0 1 1 1 1 1 1 1 1 1 1 0 0 1 1 1 1 1 0 0 0 1 0 1 0 1 1 1 0 1 1 0 1 1 1 0 0 1 1 1 1 1 1 0 0 1 1 0 0 1 1 1 1 1 1 1 1 0 1 1 0 0 1 0 1 0 1 1 1 0 0 1 1 1 1 1 1 1 1 1 1 1 1 1 1 0 0 1 1 1 1 1 0 0 0 1 1 0 1 1 1 1 0 1 0 1 1 1 0 0 0 1 0 1 1 0 0 1 0 1 1 1 1 1 0 1 1 0 1 1 1 1 1 1 0 1 1 1 1 1 0 1 1 1 1 0 1 1 1 1 1 0 1 0 0 1 1 1 1 1 1 0 1 1 0 1 0 1 0 1 1 1 1 0 1 1 1 0 0 0 0 0 1 1 1 0 1 1 0 1 1 1 1 0 1 1 1 0 1 1 1 1 1 1 1 0 1 0 1 1 1 1 1 0 1 1 1 1 1 0 1 1 0 0 1 1 0 0 0 0 1 1 0 1 0 1 0 1 1 1 1 0 1 0 1 1 0 0 1 1 1 1 1 1 1 1 1 1 1 1 0 1 0 0 1 1 0 1 1 0 1 1 0 1 1 1 0 1 1 1 0 0 1 1 0 1 1 1 1 1 0 1 0 1 1 1 1 0 0 1 1 1 0 1 1 1 1 1 1 1 0 1 1 1 1 1 1 1 0 0 1 1 1 0 1 0 1 0 1 1 0 1 1 1 1 1 1 1 0 1 0 0 0 1 1 1 1 1 1 0 1 1 1 1 0 1 0 0 1 1 1 1 1 1 1 1 0 1 1 0 1 1 0 0 0 1 0 0 0 0 0 0 0 1 0 1 1 1 0 1 0 0 1 1 1 1 1 0 1 0 1 1 0 1 1 1 1 1 0 1 0 1 1 1 1 1 0 1 1 1 1 1 1 1 1 1 1 1 0 1 0 1 1 0 0 1 1 1 1 0 1 0 0 1 1 0 1 1 1 1 0 1 0 1 0 1 1 1 1 1 1 1 1 0 1 1 0 0 1 1 0 1 1 1 1 1 1 1 1 0 1 1 1 1 0 0 1 1 1 1 1 0 1 1 0 0 1 1 1 1 0 0 0 0 0 1 1 0 1 1 1 1 1 1 0 0 1 1 1 0 1 1 1 0 1 1 1 1 1 1 1 1 0 1 0 1 1 1 0 1 1 0 1 0 1 1 1 0 0 1 1 1 0 0 1 1 0 1 1 1 0 1 1 0 0 1 1 0 1 0 1 1 0 1 0 0 1 1 0 0 1 0 0 1 1 1 0 1 0 1 1 1 1 1 1 0 1 1 1 1 0 1 0 0 1 1 0 1 0 1 0 0 1 0 1 0 1 0 1 1 1 1 1 1 0 0 1 0 1 1 0 1 0 0 1 1 0 1 0 1 0 0 1 1 1 1 1 1 1 1 1 1 0 1 1 0 1 1 0 1 1 1 1 1 1 1 1 1 1 1 0 1 0 1 1 0 1 1 0 1 0 1 1 0 1 1 1 0 1 1 0 1 1 0 1 0 1 1 1 1 0 1 0 1 0 0 1 0 1 1 0 1 0 1 1 1 0 0 1 1 1 1 1 0 1 1 1 0 1 0 1 0 1 1 1 1 0 0 1 1 0 1 1 1 0 1 0 0 1 1 1 0 1 1 1 1 0 1 1 1 1 1 1 1 1 1 1 0 1 1 1 1 0 1 1 0 0 1 1 0 0 1 1 0 0 1 0 1 1 1 0 1 0 1 1 0 1 1 1 0 1 1 1 1 1 0 0 0 0 1 1 1 1 1 0 1 1 1 1 1 1 1 1 1 1 0 1 1 0 1 1 1 0 1 1 1 1 0 1 1 0 1 1 1 0 1 1 1 1 0 0 1 1 1 1 1 1 1 0 1 0 1 1 1 1 1 1 1 1 0 1 1 1 1 0 1 0 0 0 0 0 0 1 1 1 1 1 0 1 1 0 1 1 1 0 1 1 1 1 1 1 1 1 0 0 0 1 1 0 1 1 1 1 1 0 1 1 0 1 1 0 0 1 1 0 1 1 0 0 1 0 1 1 1 1 1 1 1 1 0 1 0 0 1 1 1 1 1 0 1 1 0 0 1 1 1 1 0 0 0 1 1 1 1 1 0 1 1 1 1 1 1 1 1 0 1 1 1 0 0 1 1 1 0 1 1 0 1 1 0 1 1 0 1 0 0 1 1 1 1 1 1 1 0 1 1 1 1 1 1 0 1 1 1 1 1 0 0 1 0 0 1 1 1 0 1 1 1 1 1 1 1 1 1 1 0 1 1 0 1 0 1 1 0 0 0 1 1 1 1 1 1 0 0 1 1 1 1 1 1 0 1 1 1 1 1 0 1 1 0 1 1 1 1 1 1 1 1 0 0 1 0 1 0 1 1 0 1 0 0 1 1 1 1 0 1 0 1 1 0 0 0 1 1 0 1 1 0 1 0 0 1 1 1 1 1 0 1 1 0 1 0 0 0 1 1 1 0 0 1 1 1 0 1 0 1 0 1 1 1 1 0 0 1 1 0 1 1 1 0 1 1 1 1 1 1 1 1 0 0 1 1 1 1 1 0 1 1 0 1 1 1 0 0 1 0 1 1 1 1 1 1 1 1 0 1 0 0 0 1 1 1 1 1 0 1 0 1 1 1 1 1 1 1 1 1 1 1 0 0 0 1 0 0 1 1 1 0 0 1 1 1 1 1 1 1 0 1 0 1 1 1 0 0 1 1 1 1 0 1 1 1 0 0 1 1 1 1 1 1 1 0 1 1 1 1 1 1 1 0 0 0 1 1 0 1 0 1 0 1 1 1 0 0 1 1 1 0 1 1 1 0 0 1 1 1 1 1 1 1 1 0 1 1 1 1 1 1 1 1 1 1 0 1 1 1 1 0 1 1 1 1 0 1 1 1 0 1 1 1 1 1 1 1 0 0 1 1 1 0 0 1 1 1 0 1 0 1 1 0 1 0 1 0 1 1 1 1 1 0 1 1 1 1 0 0 1 0 1 1 1 1 1 1 0 1 0 0 1 1 1 1 1 1 1 0 0 0 1 0 1 0 1 0 0 1 1 0 1 1 1 1 0 1 0 0 1 1 0 1 1 0 0 1 1 1 1 1 1 1 1 0 1 1 1 1 1 0 1 0 0 0 0 0 1 1 0 1 1 1 0 1 1 1 1 1 0 0 1 1 1 1 1 0 1 1 1 1 0 0 1 1 1 0 1 1 1 1 1 0 1 1 1 0 0 0 1 1 0 1 0 0 1 1 1 0 0 1 0 1 1 1 1 0 1 1 1 1 0 0 1 1 1 1 1 1 0 0 0 0 1 0 1 1 1 1 1 1 1 1 0 1 1 1 1 1 1 1 1 0 0 0 0 0 1 1 1 1 1 1 1 1 1 1 0 1 1 0 1 1 1 1 1 1 0 0 0 1 1 1 1 1 0 1 0 1 1 1 0 1 1 1 0 1 1 0 0 1 1 0 1 1 1 0 0 1 1 0 1 1 1 1 1 1 0 0 1 1 0 1 1 1 1 1 0 1 1 0 1 1 1 0 1 1 1 1 1 0 1 1 0 0 1 1 0 1 1 0 0 1 0 0 1 0 1 0 0 1 1 1 1 0 1 1 0 1 0 0 1 1 1 1 1 1 1 1 0 1 1 0 0 1 0 1 1 1 1 0 1 1 1 1 0 0 1 0 1 1 1 0 1 0 0 1 1 1 1 1 1 1 0 1 1 1 0 1 1 0 0 0 0 1 1 0 0 1 1 0 1 0 1 1 1 1 1 1 1 1 0 1 1 1 0 1 1 1 0 1 1 1 1 0 0 1 1 1 1 0 1 1 1 1 1 1 1 1 1 1 1 0 1 1 0 1 1 1 1 1 0 1 1 1 1 1 1 1 1 1 1 0 1 1 1 0 0 1 0 1 1 1 0 1 1 0 0 1 1 0 0 1 1 1 1 1 0 0 1 0 0 0 1 1 0 1 1 1 1 1 1 0 0 1 0 1 0 0 0 1 0 1 1 1 1 1 0 1 1 1 0 1 1 1 1 1 1 1 0 0 1 1 1 1 1 1 1 1 1 0 1 1 0 1 1 1 0 1 1 1 1 0 1 1 0 1 1 0 0 1 1 1 1 0 1 1 0 0 0 1 1 0 1 1 1 1 0 0 0 1 0 1 1 1 1 1 1 1 1 1 1 1 0 1 1 0 0 0 1 0 1 1 1 1 0 1 1 1 0 1 1 1 1 1 1 0 1 0 0 1 0 1 1 1 0 0 1 1 1 0 0 1 1 0 1 1 1 0 1 0 0 1 0 1 1 0 1 1 0 1 0 1 1 1 1 1 1 1 0 1 1 1 1 1 1 1 0 0 0 1 0 1 1 0 0 0 1 1 1 0 1 1 1 0 0 1 1 1 1 0 1 0 1 0 1 1 0 1 1 1 1 1 0 1 1 1 0 1 1 1 1 0 1 0 1 1 1 1 0 1 1 1 0 1 1 1 1 0 0 1 0 0 1 1 1 1 1 0 1 0 0 0 1 1 1 1 1 1 1 1 1 1 1 1 1 0 1 1 1 1 1 0 0 1 1 1 1 1 1 1 1 1 1 1 1 1 1 0 1 0 0 1 1 1 1 1 1 0 1 1 1 1 0 0 0 0 0 1 1 1 1 1 1 1 1 1 1 1 0 1 1 1 1 1 0 0 1 1 1 1 0 1 1 1 1 1 1 1 1 1 1 1 0 0 1 1 0 1 1 1 1 0 0 1 1 1 1 0 1 0 1 1 1 1 1 1 1 1 1 1 1 0 0 0 1 1 1 1 1 0 1 1 1 0 1 1 0 0 0 1 0 0 0 1 1 0 1 1 0 0 0 1 1 0 1 1 0 1 1 1 1 1 1 0 1 1 1 1 1 0 1 1 0 0 1 1 0 0 1 0 1 1 0 1 1 1 1 1 0 1 1 1 0 1 1 0 0 1 1 0 1 1 1 1 1 1 0 1 1 1 0 1 0 0 0 0 1 1 1 0 1 1 0 1 1 0 0 1 1 1 1 1 1 0 0 0 1 1 0 1 1 0 1 1 1 1 0 1 1 1 0 1 0 1 1 1 0 1 0 1 1 1 1 1 1 1 1 0 1 1 1 1 1 0 1 1 1 0 1 1 0 1 0 1 1 1 1 1 1 1 0 1 0 1 0 1 1 1 1 1 1 1 1 1 0 1 1 0 0 1 1 1 1 0 1 1 0 0 0 0 1 0 1 0 1 0 1 0 1 1 0 1 0 1 0 1 1 1 1 0 0 0 1 1 0 1 1 0 1 1 1 1 1 1 1 1 1 1 0 1 1 0 0 1 1 1 1 1 1 1 1 1 0 0 0 1 0 0 0 1 1 1 1 1 1 1 1 1 1 1 1 0 1 1 1 1 1 1 1 1 0 1 0 0 1 1 1 1 1 1 1 0 1 1 1 1 1 0 1 1 1 1 1 1 1 1 0 0 1 1 1 1 1 1 1 1 1 0 1 1 0 1 1 1 0 1 1 1 1 0 1 1 1 1 1 0 1 1 0 1 1 1 0 0 1 1 1 1 1 1 1 1 1 1 0 1 0 1 0 1 1 0 1 0 0 1 1 1 1 1 1 0 0 1 1 0 0 1 1 0 1 1 1 0 1 1 1 1 1 1 1 0 1 0 1 0 1 1 1 1 1 1 0 0 1 1 0 1 1 0 0 0 1 0 0 1 1 1 1 1 1 1 1 1 0 1 1 0 0 0 1 0 0 1 1 1 1 1 1 0 1 1 1 1 1 0 0 1 0 0 1 1 0 1 1 1 0 0 0 1 1 1 1 1 1 1 1 1 1 1 0 0 0 1 1 0 1 1 0 1 1 1 1 0 1 0 1 0 0 0 1 0 1 1 1 1 1 1 1 0 1 1 1 1 1 1 1 1 1 1 0 1 1 1 1 1 0 0 1 1 1 1 0 1 1 0 0 1 1 1 1 0 0 1 0 1 1 1 1 0 1 1 0 1 1 0 1 0 1 1 1 1 1 1 1 1 0 1 1 0 1 1 1 1 1 0 1 1 1 1 1 1 1 1 1 0 0 1 1 0 1 1 0 0 0 1 1 0 1 1 0 1 1 0 1 0 1 1 0 1 0 1 1 0 0 0 1 1 1 1 0 0 0 1 0 1 0 1 0 1 0 0 1 0 1 1 1 1 1 1 1 1 0 1 1 1 0 0 1 0 0 1 1 1 1 0 1 1 1 0 0 0 0 0 1 0 1 0 0 1 1 1 0 1 1 1 1 0 1 1 0 1 1 1 1 1 1 1 0 1 1 1 1 0 0 0 1 1 0 0 0 0 1 0 0 0 1 0 1 1 0 1 0 1 0 1 0 0 1 1 1 1 1 1 1 0 0 1 1 1 0 1 1 0 0 1 1 1 1 1 1 1 1 1 1 0 0 1 1 1 1 1 1 1 1 1 1 1 1 1 1 1 1 0 0 0 0 1 1 0 1 1 1 1 1 1 1 1 1 0 1 1 1 1 1 1 1 0 1 0 0 1 1 1 1 1 1 1 1 1 1 1 1 0 1 1 1 1 0 0 1 0 1 1 0 0 1 1 0 1 0 1 1 1 0 1 0 0 1 1 1 1 1 0 1 1 1 1 1 1 1 1 1 1 1 1 1 1 1 0 0 1 1 1 0 1 1 1 1 0 1 1 0 1 0 1 1 1 1 1 0 1 1 1 1 0 1 1 0 0 1 0 1 1 1 1 1 0 1 1 0 0 1 1 1 1 1 1 1 1 1 0 1 1 0 0 1 0 1 1 0 1 1 1 1 0 1 0 1 0 0 1 1 1 0 0 1 1 1 0 0 1 1 1 0 0 1 1 1 1 1 0 1 1 1 1 1 1 0 0 1 1 1 1 0 1 1 1 0 1 1 1 0 0 1 0 0 1 0 1 1 1 1 1 1 1 0 0 1 0 0 1 0 1 1 1 1 1 0 1 1 0 1 0 1 1 0 0 0 1 0 1 0 1 0 1 1 1 0 1 0 1 1 1 1 1 1 0 0 0 1 1 1 1 0 0 0 1 1 0 1 0 0 0 1 1 0 1 1 1 0 1 1 1 1 1 0 1 1 0 1 1 1 1 1 1 1 1 1 0 0 0 1 1 0 1 0 0 1 1 1 0 1 1 1 1 1 1 1 1 1 0 1 1 1 1 1 1 0 1 1 0 0 1 1 0 1 1 0 0 1 1 0 1 0 0 0 0 1 0 0 1 1 0 1 1 1 1 0 0 1 1 1 1 0 1 1 1 1 1 1 1 0 1 1 1 1 1 0 0 1 1 0 1 0 1 1 1 0 1 0 1 1 0 1 1 1 1 0 0 1 1 0 1 1 1 0 1 1 0 1 1 1 1 1 1 0 0 1 0 1 1 1 1 1 1 0 1 0 1 1 1 1 1 1 1 1 1 1 0 1 1 1 1 0 1 1 1 1 0 1 0 1 0 1 1 1 1 1 0 1 1 1 1 1 1 1 0 0 1 0 1 0 1 1 1 1 1 1 1 1 0 0 1 1 0 1 1 1 0 0 1 0 1 1 0 1 1 1 0 1 1 1 1 1 1 1 1 1 0 1 1 1 1 0 1 1 1 1 1 0 1 1 0 0 1 1 1 1 1 0 1 0 1 1 1 1 1 1 0 1 0 1 1 1 1 0 1 1 1 0 1 1 0 1 1 1 1 1 1 1 1 0 1 1 1 0 1 1 0 1 0 1 0 1 1 0 0 1 1 1 0 0 1 1 1 0 1 1 0 1 1 1 1 1 0 1 0 1 0 1 1 1 1 1 1 0 1 1 1 1 1 1 1 1 0 1 1 1 1 1 1 1 1 1 0 1 1 0 0 1 1 1 1 1 1 0 1 1 1 0 1 1 1 0 1 1 0 1 0 1 0 1 1 1 0 1 0 1 1 1 1 0 1 0 0 1 1 1 1 1 0 1 1 0 1 1 1 1 1 1 1 0 1 1 1 1 1 1 0 1 1 0 0 1 1 1 1 0 1 1 1 1 0 0 0 1 1 1 1 1 1 1 1 1 0 0 1 0 1 0 0 1 1 1 1 1 1 0 0 0 1 0 0 1 1 1 1 0 1 1 0 1 0 0 0 1 1 1 1 0 0 0 1 0 1 0 0 1 1 0 1 1 0 1 0 1 1 1 1 0 0 1 1 1 1 0 0 0 0 1 0 1 0 0 0 1 1 1 1 1 1 1 1 1 1 0 1 1 0 1 1 0 1 0 1 1 1 1 1 1 1 1 1 1 1 0 1 1 1 1 1 0 0 1 0 1 1 0 1 1 0 0 1 1 0 1 1 1 1 0 1 1 0 1 1 1 1 0 0 0 0 1 1 1 1 1 0 1 1 1 1 1 1 0 1 1 1 1 1 1 1 0 0 0 1 1 1 1 1 0 1 1 1 0 1 0 0 1 1 1 1 1 0 0 1 1 1 1 0 1 1 0 1 1 1 1 1 1 1 1 0 1 1 1 0 1 0 1 1 1 0 1 1 1 0 1 1 1 1 0 0 1 1 1 1 1 1 1 0 1 0 0 1 0 0 1 0 1 0 1 1 1 1 0 1 1 1 1 1 0 0 0 1 1 1 1 0 0 0 1 1 0 1 1 1 1 0 1 1 1 0 1 1 1 1 1 1 1 0 1 0 1 1 1 1 0 0 0 1 0 1 0 0 1 0 1 0 1 1 1 1 1 1 0 1 1 0 0 0 1 1 1 1 1 1 0 1 0 0 0 0 1 1 1 1 1 1 1 0 0 1 1 1 0 0 1 1 1 1 0 1 1 0 1 0 1 0 0 1 1 0 1 0 0 0 1 1 1 1 1 1 1 1 1 1 1 0 0 1 1 1 1 1 1 1 1 0 0 1 1 1 1 0 1 1 1 0 1 0 1 0 1 0 0 1 1 0 0 0 0 0 0 1 1 0 0 1 0 0 1 1 1 1 1 0 0 1 1 1 0 1 1 1 0 1 1 1 0 1 1 0 1 0 1 1 1 1 1 1 1 1 1 0 1 1 0 1 1 1 1 1 1 1 0 1 1 1 1 1 0 0 1 1 0 1 0 1 0 1 0 1 1 1 1 1 1 1 1 1 1 1 0 1 0 1 0 1 1 1 0 1 0 1 0 0 1 0 0 1 1 0 1 1 1 0 1 0 1 1 1 0 0 1 1 1 0 1 0 1 1 1 1 1 1 0 1 1 1 1 1 1 1 1 1 1 1 1 1 0 1 0 1 1 0 1 1 1 1 1 1 0 0 0 1 0 1 1 1 0 1 0 1 1 0 0 1 1 0 1 0 1 1 0 1 1 0 0 1 0 0 1 0 1 1 0 1 1 1 0 1 0 1 1 1 1 1 1 1 0 0 1 1 0 1 1 1 1 0 0 0 0 1 1 1 1 1 1 1 0 1 1 0 1 1 1 0 1 0 1 1 0 1 1 1 0 0 1 1 1 1 1 0 0 1 0 1 0 0 0 1 0 1 1 0 1 1 1 1 1 1 1 0 1 1 1 1 1 0 1 1 0 0 1 0 1 1 0 1 1 1 0 1 1 1 0 1 1 0 1 0 0 0 0 0 1 1 0 1 0 1 0 1 1 1 1 1 1 0 0 1 1 1 1 1 1 1 0 0 1 1 1 1 1 0 1 1 1 0 0 1 1 1 1 0 1 1 1 1 1 1 1 0 1 0 1 1 1 0 1 0 1 1 1 1 0 1 1 1 0 1 1 0 0 1 1 0 0 1 0 1 1 1 1 0 1 0 1 0 1 1 1 1 1 0 1 0 1 0 0 1 1 0 1 1 1 1 1 0 1 1 1 1 1 1 1 0 1 1 0 1 1 1 1 1 1 0 1 1 1 1 1 0 1 0 1 1 0 1 1 1 1 1 0 0 1 0 0 0 1 0 1 1 0 1 0 1 0 1 1 0 1 1 1 1 1 0 0 1 0 1 1 0 1 1 1 1 1 1 0 0 1 1 1 1 1 0 1 0 1 1 0 1 1 0 1 1 1 1 0 0 1 1 1 1 1 1 0 0 1 1 1 1 1 1 1 1 1 1 1 1 1 1 1 1 1 1 1 1 1 1 1 1 1 1 1 1 0 1 0 1 0 1 1 1 1 1 1 1 1 1 1 0 1 0 1 1 1 1 1 1 1 1 0 1 0 1 1 1 1 1 1 1 1 1 0 0 1 0 0 1 1 1 1 1 1 1 1 1 1 1 1 1 0 0 1 0 1 1 1 1 1 0 1 1 0 1 1 0 1 0 1 0 1 1 0 1 1 1 1 1 1 1 1 1 1 0 1 1 1 1 1 1 1 1 0 0 1 1 1 1 0 1 0 1 1 0 1 1 0 1 1 1 1 1 1 1 0 1 1 1 1 0 1 1 1 1 1 0 1 0 1 0 1 1 1 1 0 0 1 1 1 0 0 1 1 0 1 1 1 1 1 1 1 1 0 1 1 1 0 1 0 1 0 0 0 0 1 1 1 1 1 1 1 1 1 0 1 1 1 1 1 1 1 1 1 1 0 1 1 1 1 1 1 0 1 1 1 1 1 0 0 1 1 1 0 1 1 0 0 0 0 0 1 0 1 1 1 1 1 1 1 1 1 1 1 1 0 1 0 1 0 1 1 1 1 0 0 1 0 0 1 0 0 1 1 0 1 1 1 1 1 1 0 1 1 1 1 0 1 0 1 1 1 1 1 0 0 1 1 1 0 1 1 1 0 1 1 1 1 1 1 1 1 1 1 1 1 1 1 1 0 1 0 1 0 1 1 1 1 1 1 1 0 1 1 1 1 0 0 1 1 0 1 1 1 1 0 1 1 0 1 1 0 0 1 1 1 1 1 0 0 0 0 0 1 1 0 1 1 1 1 1 1 0 0 0 0 1 1 1 1 1 0 1 1 0 0 0 1 0 1 1 1 1 0 0 1 1 1 1 1 1 0 1 1 1 1 1 1 0 1 0 1 1 1 1 1 0 1 1 0 1 1 1 1 1 1 0 1 0 1 1 0 0 1 1 0 1 0 1 0 1 0 1 1 1 1 1 0 1 1 1 0 1 0 0 1 1 0 0 0 1 1 1 1 0 0 1 0 1 0 0 0 1 0 0 1 1 0 1 0 1 1 0 0 0 1 1 0 1 0 1 1 1 1 1 1 1 1 0 0 1 1 0 1 0 0 0 1 1 1 1 1 1 1 1 1 1 0 1 1 0 1 1 1 1 0 1 1 1 1 1 0 1 1 1 1 1 0 1 1 0 1 1 0 1 1 1 1 1 1 1 1 1 0 0 0 0 0 0 1 0 1 0 1 1 0 0 1 1 0 1 1 1 1 0 0 0 1 1 1 1 1 1 1 0 0 1 1 1 1 1 1 1 0 0 1 1 0 1 0 0 1 0 1 1 0 0 1 1 1 1 1 1 0 0 1 0 1 0 0 1 1 1 1 1 0 1 1 1 1 1 1 1 1 1 1 1 1 0 1 0 1 1 0 1 1 1 0 0 1 0 1 0 1 0 1 1 1 0 1 1 1 1 1 1 1 1 0 1 0 1 0 0 1 0 1 0 1 0 1 0 1 1 1 1 1 1 1 1 1 0 1 0 1 1 0 1 1 1 1 1 0 1 1 1 1 1 1 1 1 1 0 1 1 1 0 0 1 1 1 1 1 1 1 1 1 1 0 1 1 1 0 1 0 1 1 1 1 0 1 0 0 1 1 0 0 1 0 0 1 1 1 0 0 1 1 0 1 0 1 0 1 0 1 0 1 1 1 1 1 1 1 1 1 1 1 0 0 1 1 0 1 0 0 0 1 1 1 1 1 1 1 1 1 0 1 1 1 1 1 1 1 1 1 1 1 1 1 0 0 1 0 0 1 0 1 1 1 1 1 1 1 1 0 1 1 1 1 1 1 1 1 1 1 1 1 1 1 1 0 1 1 1 1 1 1 1 1 1 0 1 1 1 1 1 1 1 1 1 1 0 1 0 0 1 1 1 1 1 1 0 0 1 0 0 1 1 0 1 1 1 1 1 1 0 1 1 1 0 0 1 1 1 1 1 1 1 1 1 0 0 0 1 1 0 1 0 1 0 1 0 1 1 1 1 1 0 1 1 1 1 1 1 1 0 0 0 1 1 1 1 1 0 1 0 1 1 1 1 0 1 1 1 0 1 0 1 1 1 0 1 1 0 0 0 1 1 1 1 0 0 1 1 0 1 1 1 0 1 1 0 0 0 1 1 1 1 0 1 1 0 1 1 1 0 0 1 1 1 0 1 1 0 0 1 1 1 0 1 1 1 1 1 0 1 1 0 1 1 1 1 0 1 1 1 0 0 1 1 1 0 0 0 0 1 1 1 1 1 1 1 1 1 1 1 0 1 1 1 1 0 1 0 1 1 0 1 0 1 1 1 1 1 0 1 1 0 0 1 1 1 1 1 1 1 1 1 0 1 1 1 1 1 1 1 0 1 1 1 1 0 1 0 1 0 1 1 0 1 1 1 1 1 0 0 1 1 1 1 1 1 1 0 0 1 1 0 1 1 1 1 1 1 0 1 1 0 1 1 0 0 0 1 0 0 1 1 1 1 0 1 1 0 0 1 1 1 1 1 1 1 1 1 1 0 1 0 1 1 1 1 0 1 1 1 0 0 1 1 0 1 0 1 0 1 0 1 1 0 0 1 1 1 1 1 0 0 1 0 1 1 1 1 1 1 1 0 1 1 1 1 0 0 0 1 0 0 1 0 1 1 0 1 1 0 1 0 0 0 1 1 1 1 1 0 0 1 1 1 1 0 1 0 0 0 1 1 1 1 0 0 1 1 1 0 1 0 0 1 1 0 1 1 0 0 1 1 1 1 1 1 1 1 0 1 0 1 1 0 1 0 1 0 0 0 1 0 1 1 1 0 1 1 0 0 0 1 1 0 0 1 1 0 1 1 1 1 0 0 1 1 1 1 1 0 0 0 1 1 0 1 0 1 1 0 0 1 1 0 0 0 1 1 0 1 1 1 1 0 0 1 1 1 0 1 0 1 0 1 1 0 1 0 0 1 1 1 1 1 0 1 1 0 0 1 1 0 0 1 1 0 1 1 1 1 0 1 1 0 1 0 1 1 1 0 0 1 1 1 0 1 1 1 1 1 1 1 1 0 1 0 1 0 0 0 0 0 1 0 1 0 1 1 0 0 1 0 1 0 1 1 0 1 1 1 0 1 1 1 0 1 1 0 1 1 0 1 0 1 0 1 1 0 1 1 0 0 1 1 1 1 1 0 0 0 1 1 1 1 0 1 1 1 0 0 0 0 1 1 1 1 1 1 1 1 1 0 1 1 1 1 1 1 1 1 1 0 1 0 0 1 1 0 0 0 1 0 0 1 1 1 0 0 0 0 0 1 1 1 1 0 0 1 0 1 0 1 1 1 1 1 0 1 1 1 1 1 1 0 0 1 1 1 1 1 1 0 0 0 1 1 1 0 1 1 1 1 0 0 1 1 0 1 1 1 1 1 1 1 1 1 1 1 0 1 1 1 1 1 1 0 1 1 0 0 1 0 0 1 1 0 0 1 1 1 0 1 1 1 1 1 1 1 1 1 1 1 1 0 1 0 1 1 1 0 1 1 0 0 1 1 1 1 1 0 1 1 1 0 0 1 1 0 1 1 0 1 0 0 1 1 0 1 0 0 1 1 1 1 0 1 0 0 1 1 1 1 1 1 1 1 1 1 1 0 1 0 1 1 1 0 1 1 1 1 1 0 1 1 0 1 0 1 1 0 0 0 1 0 1 1 0 1 1 1 1 1 1 0 0 1 1 1 1 1 0 0 0 1 1 1 1 0 1 1 1 1 0 1 0 1 1 1 1 0 0 0 1 1 1 1 1 1 1 0 1 1 1 1 1 0 1 1 1 1 0 0 1 1 0 1 1 1 1 1 0 1 1 1 0 1 0 0 1 1 1 1 1 1 1 1 0 1 0 0 1 0 0 1 1 1 0 1 0 0 1 1 1 0 1 0 0 0 1 1 0 1 1 0 0 1 1 0 1 1 0 1 0 0 1 1 1 1 1 0 1 0 1 1 1 1 1 1 1 0 0 1 1 1 1 1 1 1 0 1 0 0 0 1 0 1 0 0 1 1 0 1 1 0 0 1 1 1 1 1 1 0 1 1 0 1 0 0 0 0 0 1 0 1 1 0 0 0 1 0 0 0 1 1 1 0 1 1 0 1 1 1 1 1 1 1 0 1 1 1 0 0 0 1 0 1 1 0 0 1 1 1 0 1 1 0 1 1 1 1 1 1 1 0 0 1 1 0 1 0 1 1 1 1 1 0 0 1 1 1 1 1 0 1 1 1 1 1 1 1 0 0 1 1 1 1 0 0 1 1 0 1 1 1 0 1 1 1 1 1 1 0 1 0 1 1 0 1 0 0 0 0 0 0 0 1 1 0 1 1 1 0 1 0 0 1 1 1 0 0 0 1 1 0 1 1 1 0 1 1 1 1 0 1 1 1 1 0 0 1 1 1 0 1 1 1 0 0 1 1 1 1 0 1 0 1 1 1 1 0 0 1 0 0 1 1 1 1 1 0 1 1 1 1 0 0 1 1 1 1 1 0 1 0 1 1 1 0 1 0 1 1 1 0 1 0 0 1 1 1 1 1 0 1 1 1 1 0 0 0 0 1 1 0 0 1 1 1 1 1 1 1 1 1 1 0 1 1 1 0 1 0 1 1 0 0 1 0 1 0 0 1 1 0 1 1 1 1 1 1 1 1 1 1 1 1 0 0 0 1 0 0 1 1 1 0 0 1 0 0 1 0 0 0 1 1 1 1 1 0 0 1 0 0 1 1 0 1 1 0 1 1 0 1 0 1 1 1 1 0 1 1 1 1 1 1 1 1 0 1 1 1 0 1 1 0 0 1 1 0 1 1 1 1 1 1 0 0 1 1 1 1 0 1 0 1 1 1 1 0 1 1 1 1 1 1 0 0 0 1 1 1 1 0 0 0 1 1 1 1 1 0 1 1 0 0 1 1 1 0 1 1 1 1 0 1 0 1 1 1 1 0 1 0 1 1 1 0 0 1 0 1 1 1 0 0 0 1 0 1 1 0 1 1 1 0 1 0 1 0 1 0 0 0 1 0 0 0 0 1 1 1 0 0 1 1 1 1 0 1 1 0 0 1 0 1 1 0 1 1 1 0 1 1 1 1 1 1 1 0 1 0 1 1 1 1 0 1 1 1 1 1 0 0 1 0 0 0 1 1 1 1 1 1 0 1 0 0 1 1 1 1 1 1 0 1 1 1 1 0 1 0 1 1 1 1 0 1 1 1 0 1 0 1 1 0 1 1 1 1 0 1 0 0 1 1 1 1 0 1 0 0 1 1 1 1 0 0 1 0 1 1 1 0 0 1 1 1 1 0 0 1 1 1 0 1 1 1 0 1 1 1 1 1 1 1 1 1 0 1 0 1 1 1 1 1 1 1 0 1 1 1 0 1 1 1 0 1 1 1 1 1 1 1 0 1 1 1 0 1 1 1 1 1 1 0 1 1 1 1 1 0 1 1 1 1 1 1 0 1 1 1 1 1 0 1 1 1 1 0 1 1 1 1 1 1 0 1 1 1 0 1 0 0 0 0 1 1 1 1 1 1 1 1 0 1 1 0 0 1 0 1 1 0 1 1 1 1 1 1 1 1 0 1 1 1 1 1 1 1 1 1 1 0 0 0 0 0 0 1 1 1 1 0 1 1 1 1 0 1 1 1 1 0 1 1 0 1 1 0 0 0 0 0 0 0 1 1 1 1 1 0 1 1 1 1 0 1 1 1 1 1 1 1 1 1 1 1 1 1 1 1 0 1 0 0 0 0 1 1 1 1 0 0 0 1 1 0 1 1 1 1 1 1 1 1 1 1 0 0 0 1 0 0 1 1 0 0 1 1 1 1 1 0 1 1 1 1 0 1 1 0 1 1 1 1 0 1 1 0 0 1 1 0 0 1 0 1 0 1 1 1 1 1 1 1 1 1 1 1 1 0 0 1 1 1 1 1 0 1 1 1 1 0 1 0 1 0 1 0 1 0 0 0 0 1 0 1 1 1 1 0 1 0 1 1 0 1 1 1 1 1 0 1 1 1 1 1 1 0 1 1 0 1 1 0 0 0 1 1 1 0 0 1 1 0 1 1 1 1 1 1 0 1 1 1 0 1 0 1 1 1 1 1 1 0 1 1 1 1 1 1 0 1 1 1 1 1 0 1 1 0 0 1 1 0 1 1 1 1 1 1 1 0 0 0 1 0 1 1 1 0 1 0 1 1 1 0 1 1 0 0 0 1 1 1 1 1 0 1 1 1 1 0 0 0 1 1 0 1 0 0 0 1 1 1 0 0 0 1 1 1 1 1 1 1 0 1 1 1 1 1 1 1 0 1 1 1 1 1 1 1 1 0 1 0 1 0 1 1 1 1 1 1 1 1 1 1 1 1 0 1 0 1 0 0 0 1 1 0 0 0 1 1 1 0 1 1 1 1 1 1 1 1 1 0 1 0 1 1 1 1 0 1 0 1 1 1 1 1 1 1 1 1 1 1 0 1 1 1 0 0 1 1 0 1 1 1 1 1 0 0 1 1 1 0 1 1 1 1 1 1 1 1 1 1 0 0 1 1 1 1 0 0 0 1 1 1 0 1 0 1 0 1 1 1 0 1 1 1 1 1 0 0 0 0 1 1 1 1 0 0 0 1 0 0 1 0 1 1 1 0 1 1 1 0 0 0 0 0 1 1 1 1 1 0 1 1 1 1 1 1 0 0 1 1 1 1 1 1 0 1 1 1 1 1 1 1 1 0 1 1 1 1 0 1 0 1 1 1 0 0 1 0 1 1 1 0 1 1 1 0 1 1 0 0 1 1 1 1 1 0 1 1 0 1 0 1 0 1 0 1 1 1 1 1 1 1 1 1 1 1 1 0 1 1 0 1 0 0 0 1 0 1 1 1 1 0 1 1 0 1 1 0 1 1 0 1 1 1 1 1 0 0 0 1 0 1 0 1 1 1 1 1 1 1 0 0 0 1 0 1 0 1 1 1 1 1 1 1 0 1 0 1 1 1 1 1 0 1 1 1 1 0 1 1 1 0 0 1 1 1 1 1 1 0 0 0 1 0 1 1 1 1 1 1 1 1 1 1 1 1 1 1 0 1 1 1 1 1 1 1 0 0 1 1 0 1 1 1 1 0 0 1 0 1 1 1 1 1 1 1 1 0 1 1 1 1 0 1 0 1 1 1 1 0 0 1 0 0 1 1 1 0 1 1 1 1 1 1 1 1 1 1 0 1 1 0 1 0 0 1 1 0 1 0 1 0 1 0 1 1 1 1 1 0 0 1 1 1 1 1 1 1 1 1 1 1 1 1 1 0 0 1 0 1 1 1 1 1 0 1 1 1 0 1 0 1 1 1 1 1 1 1 1 1 0 0 0 1 0 1 1 1 1 0 1 1 0 1 0 1 1 1 0 1 1 1 1 1 0 1 0 1 1 1 0 0 1 0 1 1 0 0 0 1 1 0 1 1 1 0 0 0 0 1 0 1 1 1 0 0 0 0 1 1 1 0 0 1 1 1 1 1 0 1 0 1 1 0 1 1 1 1 0 0 1 0 1 0 1 0 0 1 1 0 1 1 1 1 1 1 1 0 1 1 1 1 0 0 1 1 1 1 1 1 1 0 1 0 1 1 1 0 1 0 1 0 0 1 1 1 1 1 1 1 1 1 1 0 1 1 1 1 1 1 1 1 1 1 1 1 1 1 1 1 0 1 1 1 1 1 1 1 1 1 1 1 1 0 1 1 0 1 0 0 1 1 1 1 1 1 1 0 1 0 1 1 1 0 1 1 1 1 0 1 1 0 1 1 0 1 1 0 0 1 0 0 1 0 1 1 0 1 0 1 0 0 1 1 0 1 1 0 1 0 1 0 0 1 0 1 0 1 1 1 1 1 1 1 0 1 0 1 1 1 0 1 1 1 1 1 1 1 1 0 0 0 1 0 1 1 1 1 0 0 1 0 0 1 1 1 0 1 1 1 1 1 0 0 1 0 1 1 1 1 0 1 1 1 1 1 1 1 1 1 1 1 1 0 1 0 1 0 0 1 1 1 1 1 1 1 0 1 1 1 1 1 1 1 0 1 0 1 1 1 1 1 1 0 0 1 1 1 1 1 0 0 0 1 1 1 1 1 0 0 0 0 0 0 1 0 1 1 1 0 1 0 1 1 1 1 0 1 1 0 0 1 1 1 0 1 1 1 0 1 1 1 1 0 1 1 1 1 1 1 0 0 1 1 1 1 0 1 1 1 1 0 0 1 1 0 1 1 1 1 1 1 1 1 1 0 1 1 1 1 1 1 1 1 1 1 1 1 0 0 0 1 0 0 1 1 1 1 1 0 1 1 1 1 0 0 0 1 0 1 1 0 0 1 1 1 1 1 1 0 1 1 1 1 0 0 1 1 0 1 0 0 1 0 1 1 1 0 1 1 0 1 1 1 1 1 1 0 1 0 0 0 1 1 1 1 1 1 0 1 1 0 0 0 1 1 0 1 1 1 1 0 1 1 1 1 1 1 1 1 1 0 0 1 1 1 0 1 1 0 1 1 1 1 1 1 1 1 1 0 1 1 0 1 1 0 0 0 1 1 1 1 1 1 1 0 1 0 0 1 1 1 1 1 1 1 0 1 0 0 1 1 1 1 0 1 1 1 1 1 0 1 1 0 0 1 0 1 1 1 1 1 0 1 1 0 1 1 1 1 1 1 1 1 1 1 1 0 1 1 1 1 0 1 1 1 1 0 1 1 1 0 1 1 1 1 1 1 1 1 1 1 1 1 1 1 1 0 0 1 1 1 1 1 0 0 0 1 0 1 1 1 1 1 0 1 0 0 1 0 1 1 1 0 1 1 1 1 0 1 1 1 1 0 1 1 1 1 1 1 1 1 1 0 1 0 0 1 1 0 1 1 1 1 1 1 1 1 0 0 1 1 1 1 0 1 1 0 1 1 1 0 1 1 0 1 1 0 1 1 1 0 1 1 1 0 1 0 0 1 1 1 1 1 0 1 0 1 1 1 0 1 1 1 0 1 0 0 1 1 1 1 1 1 1 1 1 1 0 0 1 1 1 1 1 1 0 1 0 1 0 1 0 0 0 1 1 1 0 1 1 1 0 1 1 0 1 1 1 0 1 0 1 0 1 1 1 0 1 1 1 1 0 1 1 1 1 0 1 0 0 1 0 0 0 0 1 0 1 1 1 0 0 1 1 1 0 1 1 1 0 1 0 1 1 1 1 1 1 1 1 1 1 1 1 1 1 1 1 0 1 1 1 1 1 0 1 0 1 1 1 1 0 1 1 1 0 0 0 0 1 1 1 1 1 1 1 0 1 1 1 0 0 1 1 1 1 1 1 0 1 1 0 0 0 1 1 0 0 1 0 1 1 1 0 0 1 0 0 1 1 0 1 1 1 0 0 1 0 0 1 0 1 1 0 1 1 0 1 1 0 0 1 1 1 0 1 0 1 0 1 1 1 0 1 1 1 1 1 1 1 1 1 1 1 0 1 1 0 0 1 0 0 1 1 0 1 1 1 1 1 1 0 0 1 1 1 0 1 1 0 1 1 1 0 1 1 1 0 1 1 1 0 1 1 1 1 1 1 1 0 1 1 1 0 1 1 1 1 1 0 1 0 1 0 1 1 1 0 1 1 1 1 0 1 1 1 1 0 1 0 1 0 1 1 1 1 1 0 1 1 0 1 1 1 1 1 1 0 1 1 1 1 1 1 0 1 0 0 1 1 0 1 1 0 1 1 0 0 1 1 1 1 1 1 0 1 0 0 1 1 1 1 1 0 0 1 1 1 1 1 0 1 0 1 1 1 0 0 1 1 0 0 1 1 1 1 1 1 1 1 1 0 1 1 1 0 1 1 1 0 1 1 1 1 1 1 1 1 1 1 1 1 1 1 0 1 1 1 1 1 1 1 1 1 1 1 0 0 0 1 1 1 1 0 1 1 0 1 1 0 1 0 1 1 1 0 1 1 1 1 1 0 1 0 0 0 1 1 0 1 1 1 1 1 1 1 1 0 1 1 1 0 0 1 1 0 1 1 0 0 1 1 1 1 0 1 0 1 0 1 1 0 0 0 1 1 1 1 1 1 0 1 0 1 1 1 1 1 0 0 1 1 1 1 0 1 1 1 1 1 1 0 1 1 0 1 1 1 1 1 0 1 0 0 1 1 1 1 1 0 1 1 1 1 1 0 1 1 0 1 1 1 0 1 0 0 1 1 1 1 0 1 1 1 0 0 1 1 1 1 1 1 0 1 1 1 1 0 1 1 0 1 0 1 1 1 1 1 1 0 1 1 1 1 1 1 1 1 1 0 0 1 1 0 1 1 1 0 0 1 1 1 0 1 1 1 1 1 0 1 1 1 1 1 1 1 0 1 1 1 1 1 1 1 1 0 1 0 1 1 1 1 1 0 1 0 0 0 1 1 1 1 1 1 1 1 0 0 1 1 0 0 0 0 1 1 1 1 1 1 1 0 1 1 1 0 1 1 1 0 0 1 1 1 1 0 1 1 1 0 1 1 1 1 1 1 1 1 1 0 1 1 1 0 1 0 0 1 1 1 1 0 1 1 1 1 1 1 1 0 1 0 1 1 1 1 1 0 1 1 0 1 1 0 0 0 1 1 0 1 0 1 1 0 1 0 1 0 0 1 1 0 0 1 1 1 1 0 1 0 1 0 1 1 1 1 1 0 0 1 0 0 1 1 1 0 1 1 1 0 1 0 1 0 1 1 0 1 1 1 1 1 1 1 1 0 1 1 0 1 1 1 1 0 1 1 1 1 1 1 1 1 0 1 0 0 1 0 1 1 1 1 1 1 1 1 1 1 1 0 0 1 1 1 1 1 0 0 1 0 0 1 0 1 1 0 1 1 1 0 0 1 1 1 1 0 1 1 1 0 0 1 0 1 0 0 0 0 1 0 0 1 0 1 1 0 1 1 1 1 1 1 1 1 0 1 1 1 1 1 1 1 1 1 1 0 0 1 0 1 0 0 1 1 1 1 1 1 0 1 1 1 1 1 1 0 0 1 1 1 0 1 1 1 1 1 1 1 1 1 0 1 0 1 0 1 0 0 1 0 1 1 0 0 1 1 1 0 1 1 1 1 1 1 1 1 1 1 1 0 0 0 1 0 0 1 1 1 0 1 0 1 1 1 1 0 0 0 1 0 0 1 1 1 0 1 0 1 0 1 1 1 1 1 1 1 0 0 1 1 1 1 1 0 1 1 1 1 1 1 1 1 1 1 0 0 1 0 1 0 1 1 0 1 1 0 0 1 0 0 0 0 1 0 1 0 1 1 1 1 0 0 1 1 0 1 1 1 1 1 1 0 1 1 1 1 0 1 0 1 1 0 0 0 0 0 1 0 1 1 1 1 1 1 1 0 0 1 0 1 0 1 0 1 1 1 1 1 1 1 0 1 1 0 0 1 0 1 1 1 1 0 1 1 1 1 0 1 1 0 1 1 1 1 1 1 1 0 0 1 1 1 1 0 0 1 1 1 1 1 0 0 1 1 1 1 1 1 0 1 1 1 1 1 1 0 0 0 0 0 0 1 1 0 0 1 1 1 1 0 1 1 0 1 1 1 1 0 0 1 0 1 1 0 0 1 0 0 0 0 1 0 1 1 0 1 1 1 1 0 1 1 1 1 1 1 1 1 0 1 1 0 1 1 1 1 0 1 1 1 1 1 0 0 1 0 1 0 1 1 0 1 0 1 1 1 1 1 1 1 1 1 1 0 1 1 1 1 1 0 0 1 1 1 0 1 1 1 0 0 1 1 0 0 1 0 1 1 1 0 1 1 1 0 0 1 1 0 1 1 1 1 1 1 0 1 0 0 1 1 1 1 1 0 1 1 0 1 0 0 1 1 1 0 1 1 0 0 1 1 1 0 1 0 1 0 0 1 1 1 1 1 1 0 1 0 1 0 1 1 1 1 0 1 1 1 1 1 1 0 0 1 1 1 0 0 1 1 1 1 1 1 1 1 1 0 0 1 0 0 0 1 1 1 1 1 0 1 1 1 1 1 1 1 1 1 1 0 1 1 0 1 0 1 1 1 0 0 1 1 0 1 1 0 0 1 1 0 0 0 1 1 1 1 1 1 1 1 1 1 1 1 1 1 1 0 1 1 0 0 1 1 1 0 0 1 1 1 0 1 1 1 0 0 1 0 1 1 1 1 0 0 0 1 1 1 1 1 1 1 1 0 1 1 1 1 1 1 1 1 1 1 1 1 1 1 1 1 0 0 1 1 1 1 1 1 0 1 0 0 1 1 1 0 1 0 0 1 1 1 0 1 0 1 1 1 1 1 1 0 1 0 1 1 1 0 1 1 1 1 1 1 0 0 1 1 1 1 1 1 0 1 1 1 1 0 1 1 0 1 0 1 1 0 1 0 1 0 1 1 1 0 1 0 1 0 1 1 1 1 0 0 0 1 1 1 0 0 1 1 1 0 1 0 1 0 1 0 1 1 1 0 0 1 0 1 1 1 1 0 1 0 1 0 1 1 1 1 1 1 1 1 1 1 1 1 0 1 1 0 1 1 1 1 1 0 0 1 1 0 1 1 1 1 1 1 1 1 1 1 1 1 0 1 1 1 1 1 1 1 0 0 0 0 1 1 1 1 1 1 1 0 0 0 1 1 1 0 1 1 1 0 1 1 1 0 1 1 1 1 1 1 0 1 1 1 1 1 0 1 0 1 1 1 1 1 1 1 1 1 1 1 1 1 0 1 1 1 1 0 1 1 1 0 0 0 0 1 0 0 0 1 1 0 1 1 1 0 0 0 0 1 0 0 0 0 1 0 1 1 0 0 0 1 0 1 1 1 1 1 1 0 0 1 1 1 1 1 1 1 1 0 0 0 1 0 0 0 1 0 0 1 1 1 0 1 0 1 0 0 1 1 1 1 1 1 1 1 0 1 1 1 0 1 1 1 1 1 1 1 0 1 1 0 1 1 0 1 1 0 1 1 1 1 1 0 1 0 1 1 1 1 1 1 0 1 1 1 1 1 1 1 0 1 1 1 0 0 0 1 1 1 0 1 1 0 1 1 1 1 1 0 1 1 1 1 0 0 0 1 1 1 1 1 0 1 1 0 1 1 1 1 0 1 1 1 1 1 0 1 1 0 1 0 1 0 1 1 1 0 1 1 0 1 1 1 1 0 0 1 1 1 1 1 1 1 1 1 1 1 1 1 1 1 1 0 0 0 0 1 1 1 1 1 1 1 0 1 0 1 1 0 1 0 1 0 1 1 0 0 1 1 1 0 0 1 1 1 1 1 0 1 0 0 0 0 1 1 1 0 1 1 0 1 1 1 1 1 1 1 1 1 0 0 1 1 0 1 1 0 1 0 1 1 0 1 0 1 1 0 1 1 1 0 0 1 0 1 0 1 0 1 1 0 0 0 1 1 1 1 1 1 0 1 1 1 1 1 0 0 1 1 1 1 1 1 1 0 0 1 1 1 1 1 0 1 1 1 0 0 1 1 0 1 0 0 1 1 1 0 1 0 1 0 1 1 1 1 1 1 1 0 1 1 0 1 1 1 1 1 1 1 1 1 0 1 1 1 1 1 1 1 1 1 0 1 1 1 1 1 0 1 0 1 1 1 1 1 1 1 1 1 1 0 1 1 1 0 1 1 0 1 0 0 0 1 1 1 1 1 0 1 1 0 1 0 0 1 0 1 1 0 0 0 1 1 0 1 0 1 0 0 0 0 1 1 0 0 1 0 0 1 1 1 0 0 0 0 1 1 1 1 1 0 1 1 1 1 1 0 1 0 1 0 0 1 1 1 1 1 1 0 0 1 1 1 1 1 1 1 0 0 0 0 0 0 1 1 0 1 1 0 1 1 1 1 1 1 0 0 1 0 1 0 1 0 0 0 0 1 0 1 1 1 1 1 1 1 0 1 0 1 0 1 0 1 1 1 1 1 1 1 1 1 0 1 1 0 1 1 1 0 1 1 0 0 1 0 0 1 1 1 1 0 0 1 0 1 0 1 1 1 1 1 1 1 0 0 1 1 1 1 0 1 0 1 1 1 0 1 1 0 1 1 1 1 1 1 1 0 1 1 1 1 1 1 0 0 0 0 1 1 0 1 0 0 0 1 0 1 1 1 1 0 1 1 0 1 1 1 0 1 1 1 1 0 1 1 0 0 1 1 0 1 1 0 1 1 0 1 1 0 1 1 1 1 1 1 1 1 0 1 1 1 1 0 0 1 0 0 1 0 1 1 1 1 1 0 1 1 1 0 1 0 0 0 1 0 1 1 1 1 1 1 1 1 1 1 1 0 1 1 1 1 0 0 0 1 0 1 1 1 0 0 0 1 1 1 1 0 1 1 1 1 1 1 1 1 0 1 1 1 1 1 0 1 1 1 1 1 1 1 1 1 1 0 1 1 1 1 1 1 1 1 1 1 1 1 1 1 1 1 1 1 1 1 1 1 1 0 1 0 1 0 1 1 1 0 1 1 1 0 1 1 1 1 1 0 0 1 0 0 0 0 0 1 1 1 1 1 1 1 0 1 1 0 0 0 1 1 0 1 1 1 1 1 1 0 1 0 1 0 1 1 1 1 0 0 1 1 1 0 1 1 1 1 1 1 1 1 1 1 1 1 0 1 1 1 0 1 0 1 0 1 0 1 0 0 1 1 1 0 0 1 0 1 0 1 1 1 0 1 1 0 1 0 1 0 1 1 1 0 1 1 1 1 1 1 1 0 1 0 1 1 1 0 1 1 0 0 1 1 1 1 0 0 1 0 1 0 0 1 1 1 1 0 0 1 1 1 0 1 1 1 1 1 1 1 1 1 1 1 0 1 1 0 1 1 1 1 0 0 1 1 1 1 1 0 1 0 1 1 1 0 1 1 0 1 1 1 1 1 1 1 1 1 1 1 0 1 1 0 1 1 1 1 0 1 1 0 1 1 0 1 0 0 1 1 1 1 1 1 1 1 1 1 1 1 0 1 1 0 1 1 1 0 0 0 1 1 0 1 1 1 1 0 1 1 1 1 1 1 1 1 1 1 0 1 1 1 1 1 0 1 1 1 1 1 0 1 1 0 1 1 1 0 0 1 1 1 0 1 0 1 1 1 1 1 1 0 0 1 1 0 1 0 1 1 0 1 1 1 1 1 0 0 0 1 1 1 1 1 1 0 0 1 1 0 1 0 0 1 0 1 1 1 0 1 1 1 1 1 1 1 1 1 0 0 1 1 1 1 0 1 1 1 1 0 1 1 1 1 0 1 1 0 1 0 1 0 0 1 1 1 1 0 1 0 0 0 1 1 1 1 1 1 1 0 1 1 0 1 1 1 1 1 1 0 1 1 1 0 0 1 0 0 0 1 0 0 0 0 1 1 1 1 1 1 1 1 0 1 1 1 0 1 1 1 1 1 0 0 1 0 0 1 1 0 0 1 1 1 1 1 1 1 0 0 1 1 1 1 1 1 1 1 1 0 1 0 1 1 1 1 1 1 0 1 1 1 1 1 1 0 1 1 1 0 1 0 0 1 1 1 0 1 0 1 0 1 1 1 1 1 1 1 1 0 1 1 1 1 1 1 1 1 1 1 0 0 1 0 1 1 1 0 1 1 0 0 1 1 0 1 1 0 1 1 1 0 1 1 1 1 0 1 1 0 1 1 1 0 1 0 1 1 0 1 1 0 1 0 0 1 1 1 0 0 1 1 0 1 1 1 1 0 0 1 1 0 1 1 1 1 1 1 1 1 1 1 1 1 0 0 1 1 1 1 1 1 0 0 1 1 0 1 1 1 1 1 0 1 0 1 1 1 1 0 1 1 1 1 1 1 1 1 1 1 1 0 1 1 0 0 1 1 1 0 0 0 0 0 0 0 0 1 1 1 1 1 1 1 1 0 1 1 1 1 1 1 0 0 0 1 0 0 0 1 1 0 0 1 1 0 0 0 1 1 0 1 0 1 1 1 1 1 1 1 1 1 1 0 0 1 1 0 1 1 1 0 0 1 0 1 0 0 1 1 0 1 1 1 1 1 1 1 1 1 1 1 1 1 1 1 1 1 1 1 1 1 1 1 1 1 0 0 1 1 1 1 0 0 1 1 1 1 0 1 1 1 1 1 0 1 1 1 1 1 1 0 1 1 1 1 1 1 1 0 1 0 1 1 1 0 1 0 1 1 0 1 1 1 0 0 0 1 0 1 1 1 0 0 0 1 0 0 0 0 1 1 0 1 1 1 0 1 1 1 1 1 1 1 1 1 1 1 1 1 1 1 1 1 0 1 0 1 0 0 0 1 0 1 1 1 0 1 1 1 0 1 1 1 1 1 1 1 0 1 1 1 1 0 1 1 1 0 1 1 1 1 0 1 1 1 1 0 0 1 1 1 1 1 0 1 1 1 0 1 0 1 1 0 1 1 0 1 1 1 1 1 1 0 1 0 1 1 0 0 1 1 1 1 0 1 0 1 1 1 1 0 1 1 1 1 0 0 1 0 1 1 1 1 1 0 0 1 0 1 0 0 0 0 1 1 1 1 1 1 1 1 1 1 0 1 1 1 1 1 1 1 0 1 0 1 1 1 1 1 1 1 1 1 1 1 1 1 0 0 1 1 0 1 0 1 1 1 0 0 0 1 1 1 1 1 1 0 0 0 0 1 1 1 1 1 1 0 1 1 1 1 1 1 1 0 0 1 1 1 1 0 0 1 0 0 1 1 1 1 1 1 1 0 1 1 0 1 1 1 0 1 1 1 0 1 1 0 1 1 0 0 1 0 1 1 0 1 1 1 0 1 1 1 1 0 1 0 1 0 1 1 1 1 1 0 1 1 1 1 1 0 1 1 1 1 0 1 0 0 1 1 1 1 1 1 1 1 1 1 1 1 1 0 0 0 1 0 1 1 1 1 0 1 1 1 1 1 0 1 1 1 0 1 1 1 1 1 1 1 1 0 0 1 1 0 1 0 1 1 1 1 0 1 1 1 0 0 1 1 1 1 1 1 0 0 1 0 1 0 1 0 0 1 1 0 1 0 1 0 0 1 0 1 1 1 1 0 1 1 0 1 1 1 0 1 1 0 0 1 1 0 0 0 0 0 1 0 1 1 1 0 1 1 1 1 1 1 1 1 1 1 1 1 1 0 1 0 1 0 1 0 1 1 0 1 1 1 1 1 1 1 0 0 1 0 1 0 1 1 1 0 0 0 1 1 1 1 1 1 1 1 1 1 1 1 1 1 0 1 0 1 1 1 1 1 1 1 1 1 1 1 1 0 1 1 1 0 1 0 1 1 0 1 1 0 1 0 1 0 1 0 0 0 1 0 1 1 1 0 1 1 1 1 1 1 1 1 1 1 1 1 0 0 1 1 1 1 1 1 1 1 0 1 1 1 1 0 0 1 0 1 1 1 1 1 1 1 1 1 1 1 1 1 1 0 0 1 1 1 0 1 1 1 0 1 1 1 0 1 0 1 1 0 1 1 0 0 1 1 1 0 1 1 0 0 0 1 0 0 1 1 0 1 0 1 1 1 1 1 1 1 1 1 1 1 1 1 1 1 1 1 1 1 1 1 1 1 1 0 0 1 0 0 1 1 1 0 0 0 1 1 1 0 1 1 1 1 0 1 1 1 1 1 1 1 0 1 1 0 1 1 1 0 1 1 1 1 1 1 0 1 0 1 1 0 1 1 0 0 1 1 1 0 1 1 1 1 1 0 1 1 1 1 1 0 1 0 1 1 0 1 0 1 1 0 1 1 1 1 1 0 1 0 1 1 1 1 1 1 0 1 1 1 1 1 0 1 1 1 1 1 0 1 1 0 1 0 1 1 0 1 1 0 1 0 1 1 0 0 1 1 0 0 1 1 1 1 0 1 1 1 1 1 1 1 1 1 0 1 1 1 1 1 0 1 1 1 1 1 1 0 0 1 0 0 1 0 1 0 1 1 1 1 0 1 0 0 1 0 1 1 0 1 1 1 1 1 1 0 1 1 1 1 1 0 0 1 1 0 1 1 1 1 1 1 1 1 0 0 1 1 1 0 1 1 0 0 1 1 0 1 0 0 1 0 1 1 1 0 1 1 0 1 1 1 1 1 1 0 1 0 1 1 1 0 1 0 1 1 1 1 1 1 1 0 1 0 1 0 0 1 1 1 1 0 0 0 0 1 0 1 1 1 1 1 1 1 1 1 1 0 1 1 1 0 1 1 1 1 1 1 0 1 1 0 1 0 0 0 1 0 1 1 0 1 1 1 1 1 1 1 1 0 1 1 1 1 1 0 1 1 1 0 1 1 1 1 0 1 1 0 1 0 1 1 0 0 1 1 0 1 0 1 1 0 1 1 1 1 1 1 1 1 1 0 1 0 0 0 1 1 1 0 1 1 1 1 0 1 1 0 1 1 0 1 1 0 1 1 1 0 0 0 0 1 0 1 0 1 1 0 1 1 1 0 0 1 1 1 1 1 0 1 1 0 1 0 1 1 1 1 0 1 0 1 1 1 1 1 1 1 1 0 1 0 1 0 1 0 1 0 1 1 1 1 1 0 1 1 1 1 1 0 1 1 0 1 0 0 1 0 1 1 0 1 1 1 1 0 1 1 1 0 1 1 1 0 1 1 0 1 1 0 0 1 1 0 1 1 1 1 1 0 0 1 0 1 1 1 1 0 0 1 0 1 1 1 1 1 1 1 1 1 1 0 1 1 1 0 1 1 1 1 1 1 1 0 1 1 1 1 1 0 0 1 1 1 0 0 1 1 0 0 1 1 1 0 0 1 1 1 1 0 1 1 0 0 1 1 1 1 1 1 1 1 1 0 1 1 1 1 0 1 1 1 0 1 1 1 1 0 1 0 0 0 1 1 0 0 0 0 1 1 1 1 0 0 1 1 1 0 1 1 1 1 1 1 0 1 1 1 1 1 1 1 0 0 1 1 1 0 0 1 1 1 1 1 1 0 1 1 1 1 0 1 1 1 1 1 1 0 1 1 0 1 0 1 0 1 1 1 1 1 1 1 0 1 1 1 1 1 1 1 1 0 1 1 1 1 1 1 0 1 1 0 0 1 1 1 0 1 0 0 1 1 1 1 1 1 0 0 0 1 0 1 1 1 1 0 1 0 1 1 1 0 1 1 1 0 1 0 1 1 1 0 0 0 0 1 0 0 0 1 1 0 0 0 0 1 1 1 1 1 1 1 1 0 0 1 1 1 0 1 1 0 1 0 1 1 1 0 0 0 1 1 0 1 1 1 0 1 1 0 1 1 1 1 0 1 0 0 1 1 1 1 1 1 0 0 1 1 0 0 0 0 0 1 1 1 0 0 1 1 0 0 0 1 1 1 0 1 1 1 1 0 1 1 0 1 1 1 1 1 1 1 0 1 0 0 0 1 1 0 1 1 1 1 0 0 1 1 0 0 0 0 1 0 1 1 1 1 1 1 1 0 0 1 0 0 1 1 1 0 1 1 0 1 1 1 1 1 1 1 1 0 1 1 1 1 1 1 1 1 1 1 1 0 0 1 1 1 1 0 1 1 1 1 0 1 1 1 1 0 0 1 0 1 1 1 1 1 0 0 1 1 0 0 0 0 0 1 1 0 1 0 1 0 1 1 1 1 1 0 0 0 0 0 1 1 0 1 1 1 0 1 1 1 0 1 0 1 1 0 0 0 1 1 1 0 1 1 0 1 1 1 0 0 0 0 1 1 0 0 1 1 0 0 1 1 0 1 1 0 0 1 1 1 1 0 1 1 0 1 1 1 0 0 1 1 1 1 1 1 1 1 1 1 1 1 0 1 1 0 1 1 1 0 1 1 1 0 1 0 1 1 1 0 1 0 1 1 1 1 1 1 0 0 0 1 0 1 1 1 1 1 1 1 1 0 1 1 1 0 1 0 0 1 1 1 1 0 1 1 1 1 1 1 1 1 1 1 1 1 1 1 1 1 1 1 1 1 1 1 1 1 1 0 1 0 1 1 1 0 1 1 0 1 1 1 1 1 0 1 0 1 1 0 0 0 1 1 1 1 0 0 1 0 0 1 1 1 0 1 1 1 0 0 1 0 1 1 1 1 1 0 0 0 1 1 1 1 1 1 1 1 1 1 0 1 0 1 1 0 1 1 1 1 0 1 1 1 1 0 1 1 1 1 1 0 0 1 0 1 1 1 1 0 1 1 0 1 0 1 1 0 1 1 1 0 0 0 0 1 1 1 0 1 1 1 0 1 0 0 1 1 0 1 1 1 1 1 1 1 0 1 1 1 1 0 1 1 1 1 1 1 1 1 0 0 1 0 1 1 0 1 1 0 1 0 1 1 0 0 1 0 1 1 1 1 1 1 1 1 0 1 1 1 0 1 1 1 1 1 1 0 1 0 1 1 1 1 1 1 1 1 1 1 0 1 1 1 0 1 0 1 1 1 1 1 1 1 1 0 1 1 0 1 0 1 0 1 1 0 0 1 0 0 1 0 1 1 1 0 0 1 1 1 1 1 0 0 1 1 1 1 1 1 1 0 1 1 1 1 1 0 1 1 1 1 1 1 0 1 1 1 1 1 1 1 0 1 0 1 1 0 0 1 1 1 1 0 1 0 0 0 0 1 0 1 1 0 1 1 1 1 1 1 1 1 0 1 1 1 1 1 1 1 0 1 0 1 1 1 1 1 1 1 0 1 1 1 1 1 1 1 1 0 0 1 0 1 1 1 1 1 1 1 1 1 1 1 1 1 0 1 1 1 1 1 0 1 1 0 1 1 1 1 1 0 1 1 1 0 0 1 1 0 1 1 1 0 1 0 0 1 0 1 1 1 1 0 1 1 1 1 1 0 0 0 1 1 1 0 1 1 1 0 1 0 1 1 1 1 1 1 0 1 0 0 0 1 1 0 1 1 1 1 1 1 1 1 1 0 0 1 1 1 0 0 1 1 1 1 1 1 1 0 1 1 0 1 1 0 1 0 1 1 0 0 0 1 1 0 1 1 0 0 1 1 1 0 1 1 0 0 0 1 1 0 1 1 1 1 1 0 1 1 1 1 1 1 1 1 1 1 1 1 0 1 0 1 1 0 0 0 1 0 1 1 0 0 1 1 1 0 0 1 0 1 1 1 1 0 1 0 1 0 0 1 0 1 1 1 0 1 1 1 0 0 1 1 1 0 1 1 0 1 0 1 1 0 1 1 1 0 1 1 1 1 1 1 1 1 1 1 1 1 1 1 1 1 0 1 1 1 1 0 0 0 1 1 1 1 1 1 1 1 1 1 0 1 0 1 1 1 0 1 1 0 0 1 1 1 0 0 0 1 1 1 1 1 1 0 0 0 1 1 1 0 1 1 1 1 1 1 1 1 1 0 0 1 1 1 1 1 1 1 1 0 1 1 1 1 1 1 0 1 1 1 0 0 0 0 1 0 1 1 1 1 1 0 0 1 1 0 0 0 0 1 1 1 1 1 1 1 1 1 1 1 1 1 1 1 1 0 0 1 1 1 1 1 1 0 0 0 1 1 1 1 0 0 1 1 0 1 1 1 1 0 1 0 1 0 1 0 0 0 1 0 0 1 0 1 1 1 1 0 1 0 1 1 1 1 1 1 0 1 0 1 1 1 1 0 1 1 1 1 1 1 1 0 1 0 1 1 1 1 0 0 0 0 1 1 0 1 0 1 0 1 0 1 1 0 1 1 1 0 1 0 1 1 1 1 1 1 1 0 1 0 1 1 1 1 1 1 1 0 1 1 0 1 1 1 1 1 1 1 0 1 1 1 1 1 1 1 1 1 1 1 1 1 0 1 1 1 1 1 1 1 1 1 1 0 1 1 1 1 1 0 1 1 0 1 0 0 0 0 1 1 1 1 1 0 1 1 1 0 0 0 1 0 1 1 1 1 1 1 1 0 1 0 1 1 1 0 0 1 1 1 1 1 1 1 1 0 1 1 1 1 1 1 0 1 1 0 1 1 1 0 1 0 1 0 1 0 1 1 1 1 0 0 0 1 0 1 1 1 1 1 1 1 1 1 0 0 1 1 1 1 0 1 1 1 1 1 1 1 1 1 1 0 0 1 1 1 1 0 1 1 1 1 1 0 0 1 1 0 1 1 1 0 1 0 1 1 0 0 1 0 1 1 1 1 1 0 1 1 1 1 1 1 1 0 0 1 1 1 1 0 1 1 1 1 1 1 1 1 0 1 0 1 1 1 1 1 1 1 1 1 1 1 0 0 1 0 1 0 1 1 1 1 1 1 0 1 1 1 1 1 0 1 1 1 0 1 1 1 1 1 1 1 1 0 1 1 1 1 1 1 1 1 0 0 0 0 1 0 1 1 0 1 0 0 1 0 1 1 1 1 1 0 1 1 0 0 1 1 1 1 0 1 0 1 0 1 1 1 1 0 1 1 1 1 1 1 1 0 1 0 0 1 0 1 0 1 0 1 0 1 1 1 1 1 1 1 0 0 1 0 1 1 1 0 1 1 0 0 1 0 1 0 1 1 0 1 1 1 0 1 1 1 0 1 0 1 1 1 0 0 1 1 1 0 1 1 0 1 1 1 1 1 1 1 1 0 1 0 1 0 1 0 1 0 1 1 1 1 0 1 1 1 1 1 1 1 0 1 1 0 0 1 0 0 1 1 0 1 0 1 1 1 0 1 1 0 1 0 1 0 1 1 1 0 1 1 1 1 1 0 1 1 1 1 1 1 1 0 1 0 0 1 0 1 0 0 0 0 1 0 1 1 1 1 1 0 1 1 0 1 1 0 1 1 1 1 0 1 1 1 1 1 1 1 1 1 1 1 1 1 1 1 1 1 1 0 0 0 1 0 1 1 0 0 1 1 1 1 0 1 1 0 1 1 1 0 1 1 1 1 1 0 1 0 1 1 1 1 1 1 1 0 0 1 1 1 0 1 1 0 1 0 0 0 1 1 1 1 0 1 1 0 1 1 0 1 0 1 0 0 1 1 1 1 1 1 1 1 1 1 1 1 0 1 1 1 0 1 0 1 1 1 1 1 1 1 0 1 0 0 0 1 1 1 1 1 1 1 1 1 1 1 1 1 1 1 1 1 1 1 0 0 1 1 1 1 1 0 0 0 1 1 1 1 1 1 0 1 1 1 1 1 1 1 1 1 1 0 1 1 0 1 1 0 0 0 1 0 1 0 1 1 1 1 1 1 0 1 0 1 1 0 1 1 1 1 0 1 0 1 1 1 0 1 1 0 1 0 1 1 1 1 0 1 1 1 1 0 0 1 1 0 1 0 1 0 0 0 1 0 1 1 1 0 0 1 1 1 1 0 1 1 0 0 1 1 1 1 1 1 1 1 0 1 1 1 1 0 1 1 1 1 0 1 1 1 1 0 1 1 0 1 1 1 0 1 0 1 0 1 1 0 0 1 0 0 1 0 1 0 1 1 1 0 0 0 1 1 1 0 0 0 1 1 1 1 1 1 1 1 1 1 1 1 1 1 1 0 0 1 1 1 1 1 1 1 1 0 1 1 1 0 1 1 1 1 1 0 1 1 1 1 1 0 1 1 0 1 0 1 0 1 0 1 1 1 0 1 1 0 0 1 1 1 1 1 1 0 1 0 0 1 1 1 1 1 1 1 1 0 0 0 1 1 0 1 0 1 1 1 1 1 1 0 1 1 1 1 1 1 1 1 1 1 1 1 1 1 1 1 0 0 1 0 1 1 1 1 1 0 1 1 1 1 1 1 1 0 1 0 0 0 1 1 1 1 1 1 1 1 1 1 0 0 1 0 0 1 0 0 1 1 0 1 0 1 0 0 1 1 0 0 1 1 0 1 1 1 0 1 1 1 1 1 1 1 1 0 1 0 0 1 1 1 1 1 0 1 1 0 1 1 1 1 1 0 1 1 0 1 0 1 0 0 1 1 0 1 0 1 0 1 0 1 1 0 0 0 1 1 0 0 1 1 1 1 1 1 0 1 1 1 0 1 0 1 1 1 1 0 1 1 1 1 0 1 1 1 1 0 1 1 1 0 1 1 1 1 1 0 1 1 0 1 1 0 1 1 1 1 0 1 1 1 0 1 0 0 1 1 1 1 1 0 1 0 1 1 1 1 1 1 1 0 1 0 1 1 1 0 1 0 1 1 0 0 1 0 0 1 1 0 1 1 1 1 1 0 1 1 1 0 1 1 1 1 1 1 0 1 0 1 1 1 1 0 1 1 1 1 1 0 0 0 1 0 0 0 1 1 1 1 1 0 1 1 1 0 1 0 1 1 1 1 1 1 1 1 1 1 1 1 0 1 1 1 1 1 1 0 1 0 0 1 1 0 1 1 1 0 1 0 0 1 0 0 0 1 1 0 1 1 1 0 0 1 1 0 1 1 1 1 1 0 1 0 1 1 0 1 1 1 1 1 1 1 1 1 0 0 0 1 1 1 0 1 1 1 1 1 1 1 0 1 1 1 1 1 1 1 0 1 1 1 1 0 0 1 0 1 1 0 1 0 0 1 1 1 1 1 0 0 1 1 1 1 0 1 1 1 0 1 1 1 1 1 1 1 0 1 1 0 1 1 0 1 0 0 1 1 1 0 1 1 0 0 1 0 1 1 1 1 1 1 0 1 1 1 0 0 1 1 1 1 1 1 0 1 1 1 1 1 1 1 1 1 0 1 1 0 0 0 1 1 1 1 1 1 1 0 1 1 1 1 0 1 0 1 1 1 1 0 0 1 1 0 1 0 1 1 1 1 1 1 1 1 1 1 1 1 1 1 1 1 1 0 1 0 0 0 1 1 1 1 0 1 1 1 1 0 1 1 0 1 1 1 1 1 0 1 1 0 0 1 0 1 0 1 1 1 1 0 1 0 0 1 0 0 1 1 1 1 0 0 0 0 1 1 1 1 1 1 1 1 1 1 0 1 1 1 1 1 1 1 1 1 1 1 1 1 1 1 1 1 1 0 1 0 1 1 1 0 1 0 1 1 1 1 1 1 1 1 1 1 0 1 1 1 0 1 1 1 1 1 0 1 1 0 1 0 0 0 1 1 1 1 1 1 1 1 0 1 1 0 1 1 0 0 1 1 1 0 0 1 1 0 1 1 1 1 1 1 1 1 0 1 1 1 1 0 0 1 0 0 0 0 1 1 1 0 1 0 1 0 1 0 1 1 1 1 1 0 0 0 1 1 1 1 1 1 1 0 0 0 0 0 1 0 1 1 1 1 0 0 0 0 1 1 1 1 0 1 1 1 1 1 0 1 1 1 0 1 1 1 1 1 0 0 1 1 1 0 1 0 1 1 1 1 0 1 1 1 1 0 1 1 0 1 1 1 1 1 1 1 1 1 1 1 1 1 1 1 1 1 1 0 1 1 1 0 1 1 1 1 1 1 0 0 0 0 1 1 1 1 1 1 0 1 1 1 1 1 0 0 1 0 0 1 0 1 0 1 1 1 1 1 0 0 1 1 1 0 1 1 1 1 1 0 1 0 0 1 0 1 1 0 0 1 1 1 0 1 1 0 1 0 1 1 0 1 1 1 1 0 1 1 1 1 0 0 1 1 1 1 1 0 1 0 1 1 1 1 0 1 0 0 1 1 1 0 1 0 1 0 0 1 1 1 1 1 1 1 1 0 1 1 1 1 1 1 1 0 1 1 1 0 1 1 1 1 0 0 0 1 1 1 1 1 1 1 0 0 1 0 0 0 1 0 1 1 1 1 0 1 1 0 0 0 0 0 1 1 1 1 1 1 1 1 1 0 1 0 1 1 1 0 0 1 0 1 1 0 1 1 0 0 1 1 1 1 1 1 0 1 0 0 1 1 1 1 1 0 0 0 1 1 0 0 0 0 1 0 0 0 1 1 1 1 1 1 1 0 1 1 1 1 0 1 1 1 1 1 0 1 1 0 1 1 1 0 0 1 1 1 0 0 1 1 1 0 1 1 1 1 1 1 1 1 1 1 1 1 1 1 1 0 1 1 1 1 0 0 1 1 0 1 0 1 0 1 1 1 1 1 0 0 1 1 1 1 0 1 1 0 1 0 0 0 1 0 0 1 1 0 1 1 0 1 0 1 1 1 1 0 0 1 0 1 1 0 1 1 1 1 1 0 0 0 1 0 1 0 1 1 0 0 1 1 1 0 1 1 1 0 1 1 0 1 0 0 1 1 1 0 1 0 1 1 1 1 1 1 1 1 0 1 1 1 1 0 0 1 1 1 0 0 1 0 1 0 0 1 1 0 1 0 1 1 1 1 1 1 1 0 0 1 1 0 1 1 0 0 1 1 1 1 1 1 1 1 1 1 1 1 1 0 1 1 1 0 1 1 1 1 0 0 1 1 0 1 0 1 1 0 0 1 1 0 1 0 1 1 0 0 0 1 0 1 1 1 1 0 1 1 1 1 1 1 0 0 0 1 1 1 1 1 1 1 1 0 1 1 0 0 0 1 1 0 1 1 0 1 1 1 0 1 1 1 1 0 1 1 0 1 1 0 1 1 1 1 1 1 1 0 1 1 1 0 1 1 1 1 1 1 1 1 1 1 0 1 1 1 1 0 1 1 1 1 0 1 1 1 1 1 1 1 1 1 1 0 1 1 1 1 1 0 1 1 0 1 0 1 0 1 1 1 0 0 1 1 1 1 1 1 0 1 1 0 1 1 1 0 1 1 1 1 1 0 1 1 0 1 0 1 0 1 1 0 0 1 0 1 1 1 1 1 1 0 0 0 1 1 1 1 1 0 1 1 1 0 1 1 1 1 1 1 1 1 1 1 0 0 1 1 1 1 1 1 1 1 1 1 0 0 1 1 1 1 1 1 1 1 1 1 1 0 1 0 1 0 1 1 1 0 1 1 1 1 0 0 0 1 1 1 1 0 1 0 0 1 0 1 0 1 1 1 1 1 1 1 1 0 1 1 1 1 1 1 0 0 1 1 1 0 1 1 0 1 0 1 0 1 1 1 1 1 1 1 1 0 0 1 1 1 0 1 1 1 1 0 1 1 0 1 1 1 1 0 1 0 1 0 1 1 1 1 1 1 1 0 0 1 1 1 1 1 1 0 1 1 0 1 0 0 1 1 1 1 1 1 1 1 0 1 1 1 1 1 1 1 1 1 1 1 0 0 1 1 1 1 0 1 1 1 0 1 1 1 1 1 0 1 0 1 1 1 0 1 0 1 0 1 0 1 1 1 1 1 0 1 1 1 0 0 1 0 0 1 1 0 0 1 1 1 1 1 1 1 1 1 0 1 0 1 1 1 1 0 0 0 1 0 1 1 1 1 1 1 1 0 1 1 1 1 1 1 1 1 1 1 0 1 0 1 1 1 1 1 1 1 0 1 1 0 1 0 1 0 1 0 0 1 1 1 1 1 1 1 0 0 1 1 1 1 1 1 0 1 1 1 1 0 0 1 0 0 1 1 1 1 0 0 0 0 1 0 1 0 0 1 0 0 0 0 1 1 1 1 1 0 1 1 0 0 1 1 1 1 1 1 1 1 1 1 1 1 1 1 0 0 1 1 0 1 1 1 0 1 1 1 0 1 0 0 0 1 1 1 1 1 1 1 0 1 0 1 1 1 0 0 0 1 1 1 0 0 1 1 1 0 0 1 0 1 1 0 0 0 1 0 1 1 1 0 0 1 0 1 0 1 1 1 1 1 1 1 0 1 1 0 1 0 0 1 0 1 0 1 0 0 1 1 1 1 1 1 0 1 1 0 1 1 0 1 1 1 0 0 1 1 1 1 1 0 1 0 0 1 1 1 0 1 0 1 0 1 0 1 0 1 1 0 1 0 1 1 1 0 1 0 0 0 1 1 1 1 1 1 1 1 1 0 1 0 1 1 1 1 0 1 1 0 0 1 0 1 1 1 1 1 0 1 0 0 0 1 1 0 0 1 1 0 1 1 1 1 1 1 1 1 0 1 0 0 1 1 1 0 1 1 0 1 1 1 1 1 1 1 1 1 1 0 1 1 1 1 1 1 0 1 1 0 0 0 1 1 1 1 1 1 1 1 1 1 1 1 1 0 1 1 1 1 1 1 1 1 1 1 1 1 0 1 1 0 1 1 1 1 1 1 1 0 0 0 1 1 1 0 1 1 0 1 0 0 1 1 1 1 0 1 1 1 0 1 0 1 1 0 0 1 1 0 0 1 1 0 0 1 1 1 1 0 0 1 1 1 0 1 0 1 1 1 1 1 1 1 0 1 1 1 1 0 1 1 1 1 1 1 0 0 1 1 1 1 0 0 0 1 1 0 1 0 1 1 1 0 1 1 1 0 1 1 1 1 1 1 1 1 1 0 0 1 1 0 1 0 1 1 1 1 1 1 1 0 1 1 1 1 1 1 1 1 1 1 1 1 1 1 1 1 1 1 1 0 0 1 1 1 1 1 1 1 0 1 1 0 0 1 0 0 1 1 1 0 0 1 1 1 1 1 0 1 1 1 1 1 1 1 1 0 0 1 1 1 1 0 0 0 1 1 1 0 0 1 0 0 1 1 0 0 1 0 1 1 0 0 0 0 1 1 0 0 1 1 1 1 1 0 0 0 0 1 1 0 1 1 1 1 1 1 1 0 0 1 0 1 0 1 1 1 0 1 0 0 1 1 1 0 1 1 1 1 1 0 0 1 0 1 0 0 1 0 1 1 0 1 1 0 1 1 0 1 1 1 1 0 1 1 0 1 1 1 0 1 1 1 0 1 1 1 1 1 1 1 1 1 1 1 1 1 0 1 0 1 0 1 1 0 1 1 1 1 0 1 1 0 0 1 1 1 0 0 0 1 1 0 1 0 1 1 0 1 0 1 0 1 1 1 1 1 1 0 1 1 1 0 0 1 1 1 1 1 1 1 0 1 1 1 0 1 1 0 1 1 1 1 1 1 1 1 1 1 0 1 0 1 0 1 1 1 0 1 0 0 0 1 1 1 1 1 1 0 1 1 1 1 1 1 1 1 1 1 1 1 1 1 1 0 1 1 0 1 0 1 0 1 1 0 1 0 0 1 1 1 1 0 1 1 0 1 0 1 1 0 1 1 0 0 1 0 1 0 1 0 1 0 1 1 1 1 1 1 1 1 0 1 0 1 1 1 1 1 0 1 1 1 1 1 1 1 1 1 1 1 0 1 1 1 1 0 1 1 1 1 1 1 0 1 1 0 0 1 1 1 0 1 1 0 1 1 0 1 1 0 1 1 1 1 1 1 1 1 1 1 0 1 1 1 1 0 0 0 1 1 1 1 0 1 0 1 0 0 0 1 0 1 1 1 1 1 1 0 1 1 1 0 1 1 1 1 1 1 1 0 1 1 1 1 1 1 0 1 0 1 1 0 1 1 1 0 0 1 1 0 0 0 0 1 0 1 1 1 1 0 0 0 1 0 0 1 1 1 0 1 1 0 0 0 0 1 1 1 1 1 1 1 1 1 1 1 1 1 1 0 0 1 0 1 1 1 1 0 1 1 1 1 1 1 0 1 1 1 1 0 0 1 1 1 0 1 1 0 1 1 1 1 1 0 1 1 1 0 1 1 1 1 0 1 1 1 1 1 1 1 1 1 1 0 1 0 1 1 1 0 0 0 1 1 1 0 0 1 1 0 1 0 1 1 1 1 1 1 1 1 1 1 0 1 1 0 1 1 0 1 0 1 1 1 0 1 1 0 0 0 0 0 1 1 0 1 1 1 1 0 1 1 0 1 1 0 1 1 1 1 1 0 1 1 0 0 0 0 1 0 1 0 1 1 0 1 0 0 1 0 1 1 1 0 1 0 1 0 0 1 1 1 0 1 0 0 0 1 1 0 1 0 1 1 1 0 1 1 1 1 1 0 1 0 0 1 1 0 1 0 1 1 1 0 1 0 1 1 0 1 0 1 0 0 1 0 0 1 0 1 0 0 0 1 1 1 1 1 1 1 1 0 1 1 0 1 1 1 1 1 1 1 1 1 1 1 1 1 1 0 1 0 0 1 0 0 1 0 1 1 1 0 1 0 0 0 1 1 1 0 1 0 1 1 1 1 1 1 1 1 0 1 0 1 0 1 0 0 1 1 0 1 1 1 1 1 1 0 1 1 1 1 0 0 1 0 1 1 1 1 1 1 1 1 0 0 0 1 1 1 1 1 1 0 1 1 0 1 0 1 1 1 1 1 1 1 1 1 1 1 0 1 1 1 1 1 1 1 1 0 0 1 0 1 0 0 0 1 0 1 1 1 1 1 1 1 1 1 1 1 1 0 1 1 0 1 0 1 1 1 1 1 0 1 1 1 1 0 0 1 1 0 1 1 1 0 1 1 0 1 1 0 1 1 1 0 0 1 0 0 0 1 1 1 1 1 0 1 0 0 1 0 1 1 1 1 1 0 1 1 1 1 1 1 0 0 1 0 1 0 0 1 1 1 1 0 1 1 1 1 1 1 0 1 0 1 1 0 1 0 1 0 1 1 0 1 0 1 1 1 1 1 1 1 1 1 0 1 1 1 1 1 0 1 0 1 1 1 0 1 1 1 1 1 1 0 0 0 1 1 1 1 0 0 1 1 1 0 1 0 1 1 0 1 1 1 0 0 0 1 1 1 1 1 0 0 1 1 1 1 1 1 0 0 1 1 1 1 0 0 0 1 0 1 0 0 0 0 0 1 1 1 1 0 1 1 0 1 0 1 1 1 1 1 1 1 1 1 1 0 1 0 0 1 0 1 1 1 1 0 0 0 1 0 0 0 1 1 1 1 1 1 1 0 0 1 1 1 0 1 1 1 0 0 1 1 0 1 0 1 1 1 1 1 1 0 1 0 1 1 0 1 1 0 1 1 1 1 0 1 0 1 1 1 1 1 1 1 1 0 1 1 1 1 0 1 0 0 1 1 0 0 1 0 1 1 1 0 1 1 1 1 1 1 0 1 1 1 0 1 1 1 1 1 1 1 0 1 0 1 1 0 0 1 1 1 0 1 1 1 0 1 1 0 1 1 1 1 1 1 1 1 1 1 1 0 1 0 0 0 0 1 0 1 1 1 1 1 1 1 1 0 1 1 0 1 0 1 0 0 1 1 0 1 1 1 1 0 1 1 1 1 1 1 1 1 1 1 1 1 1 1 1 1 1 1 1 0 0 1 1 1 1 0 1 1 1 1 1 1 0 1 1 1 1 0 1 1 0 0 0 1 1 1 1 1 0 0 1 1 1 1 1 0 0 0 1 0 1 0 1 1 1 0 1 1 1 1 0 1 1 1 1 1 1 1 1 0 1 1 1 1 1 0 1 0 1 1 1 1 1 1 1 1 1 1 1 0 1 1 1 1 1 1 1 0 1 0 1 0 1 0 1 0 1 1 1 0 0 1 0 1 1 1 1 1 1 0 1 1 1 0 1 1 1 0 1 0 1 0 1 0 0 1 1 0 1 0 0 1 0 0 1 1 0 1 1 0 1 0 1 1 1 1 1 0 1 0 1 1 1 0 1 1 0 1 1 0 0 0 1 1 0 0 1 1 0 1 0 0 1 0 1 1 1 1 1 1 1 1 1 1 1 1 1 1 1 0 1 1 1 1 0 1 1 0 1 1 0 1 1 0 1 1 0 1 0 1 1 0 1 1 1 1 0 1 0 0 1 0 1 1 1 1 1 0 1 1 0 1 1 0 0 0 1 0 0 0 1 1 1 0 1 1 1 1 0 0 1 1 0 1 1 0 0 1 0 1 0 1 1 1 0 0 1 0 1 1 0 0 1 1 0 1 1 1 0 1 1 1 0 1 1 1 1 0 1 1 1 1 0 0 0 1 0 1 1 1 1 0 1 1 0 1 1 0 0 1 0 1 1 1 1 0 1 1 1 1 1 0 0 1 0 1 1 1 1 0 1 0 1 0 0 1 1 1 0 1 0 0 0 1 0 1 1 1 0 1 1 0 1 1 0 0 0 1 1 1 1 1 1 1 1 1 0 1 0 0 1 1 1 0 1 0 1 1 0 1 0 1 0 1 1 1 1 1 1 1 1 1 0 1 0 1 1 0 1 0 1 0 1 1 0 0 1 1 1 1 0 1 0 1 1 1 1 0 1 1 0 0 1 1 0 0 0 1 1 1 1 1 1 1 1 1 1 0 0 1 0 1 1 0 1 1 1 1 1 0 1 0 0 0 0 0 0 1 1 1 1 0 1 0 0 0 1 0 1 0 1 1 0 0 1 0 1 1 1 1 0 1 0 0 0 1 0 1 1 1 1 1 0 1 0 1 1 0 1 1 1 1 1 1 1 1 0 0 1 0 0 0 1 1 0 1 1 1 1 0 0 1 0 1 1 1 1 1 0 1 1 0 1 1 0 1 1 1 1 1 1 1 0 1 1 0 0 0 1 0 1 0 1 1 1 1 0 1 1 0 1 1 1 1 1 1 0 0 1 1 1 0 1 1 1 1 0 1 1 1 1 1 1 0 0 1 1 1 1 1 1 1 0 0 0 1 1 1 0 1 1 0 0 1 1 1 1 0 0 1 1 1 1 0 1 1 1 0 1 0 1 1 1 1 0 1 1 0 1 1 1 0 1 1 1 0 1 1 1 0 1 0 1 1 0 1 1 1 0 1 0 1 1 0 1 0 0 0 1 1 1 0 1 1 1 1 1 1 1 1 1 0 0 1 1 1 1 0 1 1 1 0 0 1 0 0 1 1 1 1 0 1 1 1 1 1 1 1 0 1 1 1 1 1 1 0 1 1 1 1 0 1 0 0 1 0 1 1 1 0 1 1 1 1 1 1 1 1 1 1 1 1 1 1 0 0 0 1 1 1 1 0 0 1 1 1 0 1 1 1 0 1 0 1 1 1 0 0 1 0 1 0 1 1 1 1 1 0 0 0 1 1 0 1 0 1 0 1 1 1 0 0 0 1 1 1 1 0 1 1 1 1 1 1 1 0 0 1 1 1 1 0 0 1 1 1 0 0 0 1 1 0 1 1 1 0 1 0 0 1 1 1 1 0 1 1 1 0 0 1 1 0 1 1 1 1 0 1 0 0 1 1 1 1 1 1 1 1 1 1 0 1 1 1 1 0 1 1 1 1 1 0 1 1 1 1 1 1 1 0 1 1 1 0 1 1 1 1 1 1 1 1 1 0 1 0 0 1 1 1 1 1 1 0 0 1 1 0 0 1 1 1 1 1 0 1 1 0 1 1 1 0 0 1 1 1 1 0 1 1 1 1 0 0 1 1 0 1 0 1 0 0 1 0 0 1 1 0 1 1 1 1 1 1 1 1 0 1 1 0 1 1 1 1 1 1 0 0 1 0 1 1 0 1 1 1 1 1 1 1 0 0 0 1 1 1 0 1 0 1 1 1 1 0 1 1 1 1 1 1 0 1 0 0 1 1 1 1 1 1 1 1 1 1 1 0 1 1 1 1 1 1 1 1 1 1 1 1 0 1 0 1 1 0 1 1 1 1 1 1 1 1 1 1 1 1 1 0 1 0 1 1 0 1 1 1 1 1 1 1 1 1 1 1 0 1 1 0 1 1 0 1 1 1 0 1 1 0 1 1 1 1 0 1 1 1 1 1 1 1 1 0 1 0 1 1 0 1 1 1 1 0 1 1 0 1 1 0 1 1 1 0 0 0 1 1 0 1 0 1 1 1 1 1 1 0 0 0 1 0 0 0 1 1 1 1 0 1 0 1 1 1 1 1 1 1 0 1 1 0 1 1 1 0 0 0 1 1 1 1 1 1 1 0 0 1 1 1 0 1 1 1 1 1 1 1 1 1 1 1 1 1 1 1 1 0 0 1 1 1 1 1 1 0 0 1 1 1 1 1 1 1 0 1 1 1 0 0 1 0 0 1 1 0 1 0 1 1 1 1 0 1 1 0 0 1 1 1 0 1 1 0 1 1 0 1 1 0 1 1 1 1 0 1 0 1 1 0 1 1 1 1 1 0 1 1 1 1 0 1 1 1 1 0 0 1 0 1 0 1 0 1 0 1 0 1 1 1 1 1 1 1 1 0 1 1 1 1 1 1 1 1 0 1 1 0 0 1 1 0 1 0 0 1 1 1 0 0 1 0 1 1 0 0 1 0 1 1 0 1 0 1 1 1 1 1 0 1 0 0 1 1 1 0 1 1 1 0 0 0 1 0 0 1 1 1 0 0 0 1 0 1 1 1 0 0 1 1 1 1 1 1 0 0 1 1 0 0 1 1 1 1 0 1 1 1 1 1 1 1 1 1 1 0 0 1 1 1 1 0 1 1 1 1 1 1 1 1 0 1 1 1 1 0 1 1 0 1 1 0 1 1 1 1 0 0 0 1 1 1 1 1 1 1 1 1 1 1 1 0 1 1 1 1 1 1 1 1 0 1 0 1 0 0 1 1 1 1 1 1 0 1 0 1 1 1 1 1 1 1 1 1 1 1 1 1 1 1 1 0 1 1 1 1 1 0 0 1 1 1 0 1 0 1 1 1 1 0 1 1 1 1 0 0 1 0 1 0 1 0 1 1 1 1 0 1 1 1 1 1 1 1 1 1 1 1 1 1 1 0 0 1 1 0 1 1 1 1 1 1 0 1 1 1 1 0 0 0 1 0 0 0 0 1 1 1 1 1 1 1 1 0 1 0 1 1 1 1 0 0 1 1 1 1 1 1 1 0 1 1 1 1 0 1 1 1 1 0 0 1 1 1 1 0 1 1 1 1 1 0 1 1 1 0 1 0 1 0 1 0 0 1 1 1 0 1 1 1 0 1 1 0 1 1 1 1 1 1 1 1 1 0 0 0 1 0 1 1 1 1 1 0 1 1 1 0 1 1 1 1 1 0 1 1 1 0 1 0 1 1 0 0 0 0 1 1 0 1 0 1 0 0 1 0 1 1 0 0 1 0 1 0 1 1 1 1 0 1 0 0 1 1 1 1 0 1 0 1 0 0 1 0 1 1 1 0 1 1 0 1 1 1 1 1 1 1 1 0 0 1 0 1 1 0 1 1 1 1 1 1 0 0 0 1 0 1 0 1 1 1 1 1 0 1 1 0 0 1 0 1 0 1 1 1 1 1 1 1 1 1 1 1 0 0 1 1 1 0 1 0 1 1 1 1 1 1 0 0 1 1 1 0 1 1 0 1 1 1 1 0 1 0 1 1 0 1 1 1 0 1 1 0 0 0 1 1 1 1 1 0 1 1 0 1 1 1 0 1 1 1 0 1 1 1 1 1 1 1 1 1 1 1 0 1 0 0 0 1 1 1 1 0 1 1 0 1 1 0 0 1 1 1 1 1 1 1 1 1 1 1 1 0 1 0 1 1 1 1 0 0 1 1 1 1 0 0 1 1 1 0 1 1 1 1 1 1 0 1 1 0 1 1 0 1 1 0 1 1 1 0 1 0 0 1 1 1 0 0 1 1 1 1 0 1 0 1 1 1 1 1 0 0 1 0 0 1 1 0 0 1 1 1 1 1 0 1 1 1 0 1 1 1 0 0 1 1 0 0 1 1 1 1 1 0 1 1 1 1 0 0 1 1 1 1 0 0 1 0 1 0 1 1 0 1 1 1 1 0 1 0 1 0 1 1 1 1 1 0 1 1 1 1 0 1 1 1 1 1 0 1 0 0 0 1 1 0 0 1 1 0 0 0 1 1 1 1 1 1 1 0 0 1 1 1 1 1 1 0 0 1 0 1 0 1 0 0 0 0 1 0 0 1 1 1 0 1 1 1 1 1 1 1 1 1 1 0 1 1 1 0 0 0 1 1 0 1 1 1 1 0 1 1 1 0 1 1 1 1 1 1 0 1 1 0 1 0 1 0 1 0 1 1 1 1 1 1 0 1 1 0 1 1 1 0 1 0 1 1 1 1 1 1 1 0 1 1 1 0 1 1 0 1 0 1 1 1 1 1 0 0 1 1 0 1 0 1 1 1 1 1 1 0 1 1 1 1 1 0 0 1 1 0 1 1 1 1 1 1 1 1 0 1 1 1 0 1 1 0 0 0 0 1 1 1 1 0 0 1 0 0 1 0 1 1 0 1 0 1 1 0 1 0 1 1 0 1 1 0 1 1 0 1 1 1 0 1 1 1 0 0 1 0 1 1 0 1 1 1 0 1 1 1 0 1 1 1 1 1 1 1 0 1 0 0 1 1 0 1 1 0 0 1 0 0 1 1 0 0 0 1 1 1 1 1 1 1 1 1 1 1 1 1 0 1 0 0 0 0 1 0 0 1 0 1 1 1 1 1 0 1 1 0 1 1 1 1 1 1 0 1 0 1 0 0 0 1 0 0 0 1 1 1 0 0 1 1 1 1 0 1 1 1 1 1 0 1 1 1 0 1 0 1 1 1 1 1 1 1 1 1 1 1 1 1 1 1 1 1 1 0 1 0 1 1 1 0 1 1 1 1 0 1 0 1 1 1 0 1 1 1 1 0 1 1 1 1 1 1 1 0 1 0 1 0 1 0 1 1 1 1 0 0 1 1 1 1 1 1 1 0 0 1 1 0 0 1 0 0 0 1 1 0 0 1 1 1 0 0 1 0 0 1 1 0 1 1 1 1 1 1 1 1 0 0 1 1 1 1 1 1 1 1 1 1 1 1 1 1 1 1 1 0 1 1 0 0 0 0 0 0 1 0 1 1 1 0 1 1 0 1 0 1 1 0 1 1 1 1 1 1 0 1 1 1 1 1 1 1 1 1 1 1 1 0 0 1 0 1 1 0 1 1 1 0 1 1 0 0 1 1 1 1 0 0 1 0 1 1 0 0 1 1 1 1 1 1 0 1 0 1 0 0 0 1 1 1 1 0 1 1 1 1 1 0 1 1 1 1 1 1 1 1 0 0 0 1 0 1 0 1 1 1 0 1 0 1 1 1 1 1 1 1 0 1 0 1 0 1 1 1 1 0 0 1 1 1 0 0 1 0 0 1 1 1 1 1 1 1 1 1 0 1 1 1 1 0 1 1 1 1 1 1 1 1 0 1 0 1 1 1 0 0 0 1 1 1 0 1 1 1 1 1 1 1 1 0 1 1 0 1 1 0 0 1 0 0 1 1 0 0 0 0 0 1 1 0 1 1 1 0 1 1 1 0 1 1 0 1 1 1 1 1 1 1 1 1 0 1 0 1 0 0 1 1 1 1 0 1 1 1 0 1 1 1 1 1 1 1 1 1 1 1 1 1 1 1 1 0 0 1 0 1 1 1 0 1 1 1 1 1 1 1 1 0 1 0 1 1 1 1 1 1 0 0 0 0 0 1 0 1 1 1 1 0 1 1 1 1 1 1 0 0 1 1 1 1 1 1 1 1 0 0 1 1 1 1 1 1 1 0 1 1 1 1 1 1 1 1 0 0 1 1 1 1 1 0 1 1 1 1 0 1 1 1 0 0 1 1 1 1 1 1 1 1 1 0 0 1 1 0 0 0 0 1 1 0 1 1 1 1 0 0 0 1 0 0 1 0 0 1 1 1 1 0 1 1 0 1 1 0 0 0 1 0 1 1 1 1 1 1 1 1 1 1 1 1 1 1 1 1 1 1 1 1 1 0 1 1 1 1 1 1 0 1 1 1 1 1 1 0 1 1 1 0 0 1 0 1 1 1 0 1 1 1 1 0 1 1 1 1 1 0 1 0 1 1 1 0 0 1 1 1 1 0 1 1 1 1 1 0 1 1 1 1 1 0 1 1 1 1 0 0 1 0 1 1 0 1 1 1 0 1 1 1 1 1 1 1 0 1 1 1 1 0 1 1 1 0 1 1 1 1 0 1 0 1 1 0 1 1 0 0 1 1 1 1 0 0 1 0 1 1 1 1 0 1 0 1 1 1 1 1 1 1 1 0 1 0 0 1 1 1 0 1 1 1 1 0 1 1 1 1 0 0 0 1 0 1 0 1 1 1 0 0 1 1 1 1 0 1 1 1 1 1 0 1 0 1 1 1 1 0 1 0 1 1 1 1 1 1 0 1 1 1 1 1 1 0 0 1 1 1 1 0 1 1 0 0 1 0 1 1 1 1 0 1 1 1 1 1 1 1 1 1 1 1 1 1 1 1 1 1 1 1 0 1 0 0 1 1 0 1 1 1 1 1 1 1 1 1 0 0 1 1 1 0 0 1 0 1 0 1 1 1 1 0 1 1 1 0 1 0 0 1 0 1 1 1 1 0 1 1 1 0 0 0 1 1 1 1 1 1 1 0 1 1 0 1 1 1 0 1 1 1 0 1 1 0 1 1 1 1 0 1 0 1 1 0 1 1 0 0 1 1 1 0 1 1 1 1 1 1 1 1 1 1 1 1 0 0 1 1 1 1 1 0 1 1 1 0 1 0 1 1 0 1 1 0 1 1 1 1 1 1 0 0 0 1 1 1 1 1 1 1 1 1 1 0 0 0 1 0 0 0 1 1 1 1 1 1 1 0 0 1 0 1 1 1 1 1 1 1 0 1 1 0 1 1 1 1 1 1 0 0 1 0 1 1 1 0 1 0 0 0 1 1 1 0 1 1 1 1 0 0 0 1 1 0 1 1 1 1 1 1 1 1 1 0 1 1 1 1 1 1 1 0 1 0 1 0 1 1 0 1 0 0 1 1 0 1 1 1 1 0 1 1 1 1 1 0 0 1 1 0 1 1 1 1 1 1 1 0 1 1 1 1 1 1 1 1 1 1 1 1 1 0 0 1 1 0 0 1 1 1 0 1 0 1 1 1 1 1 1 1 1 1 1 0 0 1 1 0 1 0 0 0 1 1 0 1 1 1 1 0 0 1 1 1 1 1 1 1 1 1 0 1 0 1 0 1 0 1 1 1 1 0 1 0 1 1 0 1 1 0 1 1 1 1 1 1 0 1 0 1 1 1 1 1 1 0 1 1 0 0 0 0 1 0 1 1 0 1 1 0 0 1 0 1 1 1 0 1 1 1 1 1 1 1 0 0 1 0 1 1 0 1 1 1 1 1 1 0 1 0 0 1 1 0 1 0 1 1 0 1 1 0 0 1 1 1 1 0 0 1 1 0 1 0 1 1 1 1 1 1 1 0 1 0 1 1 1 1 1 1 1 1 0 0 1 0 0 0 0 1 1 1 1 1 1 1 1 1 0 0 1 1 1 1 1 1 1 1 1 1 1 1 1 0 1 0 1 1 1 1 0 1 1 0 1 0 0 1 1 1 1 1 1 1 1 1 1 0 1 0 0 1 1 1 1 1 1 1 0 1 1 1 1 1 1 1 1 1 0 1 1 0 0 0 1 0 1 1 0 0 1 1 1 1 1 1 1 0 1 1 1 1 1 0 1 1 1 1 1 0 0 1 1 1 1 1 1 1 1 1 1 0 0 1 0 0 1 1 1 1 1 0 0 1 1 0 0 1 0 1 0 1 1 0 0 1 1 1 0 1 1 0 1 1 1 1 1 1 1 0 1 1 0 0 0 1 1 0 1 1 1 1 1 0 0 0 1 1 0 1 1 1 1 1 0 0 0 1 1 1 1 1 1 0 1 1 1 1 0 0 0 1 1 1 1 1 1 0 0 1 1 1 1 1 1 1 0 0 0 1 1 0 1 1 1 1 1 0 1 1 0 1 1 1 1 1 1 1 1 1 1 1 1 0 0 1 0 1 1 1 1 1 0 1 1 1 1 1 1 1 1 1 0 1 0 0 1 1 1 0 1 1 0 1 1 1 1 1 0 1 1 0 1 0 1 1 1 1 1 1 0 1 1 0 1 0 1 1 1 0 0 1 1 1 1 1 0 1 1 0 0 1 0 1 1 1 1 1 0 0 0 0 1 1 0 1 1 1 0 1 1 1 1 1 0 0 1 1 1 1 1 0 1 0 0 0 1 0 0 1 1 1 0 1 1 0 1 0 0 1 0 0 1 1 1 1 0 1 0 0 1 0 1 1 1 0 1 1 1 1 0 1 0 1 1 1 0 1 1 1 1 1 1 1 0 1 1 1 0 1 1 1 0 0 0 1 1 1 1 1 1 0 1 0 0 0 1 1 1 1 1 1 1 0 1 1 1 1 1 1 1 0 1 1 0 1 1 1 0 1 1 0 0 1 1 1 1 1 0 1 0 1 1 0 1 0 1 1 0 1 1 0 1 1 0 1 1 1 1 1 1 1 1 1 1 0 1 1 0 0 1 0 1 1 0 1 1 1 1 1 0 1 1 1 1 1 1 1 1 1 1 0 1 1 0 1 1 1 1 0 0 1 1 1 1 1 0 0 0 0 0 0 0 1 1 0 0 1 1 0 1 1 1 1 1 1 1 1 0 1 1 1 1 0 1 1 1 1 1 1 0 1 0 1 1 1 1 1 1 1 1 1 0 1 1 0 1 1 0 1 1 1 0 1 1 1 0 1 0 1 1 0 0 1 1 0 0 0 1 1 1 1 1 0 0 1 1 0 1 1 1 1 1 0 0 1 1 1 1 1 0 1 0 1 1 1 1 1 1 0 0 0 1 1 1 1 1 1 1 1 1 1 1 0 1 1 0 1 0 0 1 1 1 1 1 0 1 0 1 1 0 0 1 1 1 0 0 1 1 0 1 1 0 1 1 1 1 1 1 1 1 1 1 1 0 1 1 0 1 0 0 0 0 0 1 1 1 1 0 0 0 1 1 1 0 1 1 1 0 1 1 0 1 0 0 0 1 0 1 1 0 1 1 1 1 0 0 1 1 1 1 0 1 1 0 0 1 0 1 0 0 0 1 1 1 1 0 1 0 1 0 0 0 1 1 1 1 0 1 1 1 1 1 1 1 1 1 1 1 0 0 0 0 1 0 0 1 1 1 1 1 0 1 0 1 1 1 1 1 1 1 1 1 1 0 1 1 1 1 0 1 1 1 1 1 1 1 0 0 1 1 1 0 1 1 1 1 1 0 0 1 1 1 1 1 0 0 1 1 0 1 1 1 0 1 1 0 1 0 1 1 1 1 0 1 1 1 1 1 1 1 1 1 1 1 1 1 1 0 1 0 1 1 1 0 0 1 1 1 1 1 0 1 1 1 1 1 1 1 1 1 0 1 1 0 1 0 1 1 1 1 1 0 0 0 0 1 0 0 1 0 0 1 0 0 1 1 1 1 0 1 1 0 1 1 0 1 1 1 1 0 1 1 0 0 1 0 1 1 1 1 1 1 1 1 1 1 1 0 1 1 1 1 0 1 1 0 1 1 0 1 0 0 0 1 0 0 1 1 1 1 1 1 1 1 1 1 1 1 1 1 1 1 1 0 1 1 0 0 1 1 1 1 1 0 0 0 1 1 0 0 1 0 1 1 1 1 0 1 0 1 1 1 1 1 1 1 0 1 1 1 1 0 1 1 1 0 1 1 1 1 0 1 1 1 1 1 0 1 1 1 0 1 1 1 0 1 1 1 1 0 1 1 1 1 0 0 1 1 1 1 1 1 1 0 0 1 1 1 0 1 0 1 0 1 1 0 0 0 1 0 1 0 1 1 1 1 0 0 0 0 1 0 1 1 0 0 1 1 0 0 1 0 1 1 0 1 0 1 0 0 0 1 1 0 1 1 0 1 0 1 0 1 1 1 0 0 1 1 0 1 1 0 1 1 1 1 1 1 1 1 0 1 1 1 1 1 0 1 1 0 1 1 1 0 1 1 1 1 1 1 1 0 1 1 1 1 1 1 1 1 1 1 1 1 0 0 1 1 1 1 0 1 1 1 0 1 1 0 1 0 1 0 0 0 1 0 1 1 1 1 0 0 1 1 1 1 1 1 1 0 0 0 1 1 1 0 0 1 1 0 0 1 1 1 0 0 0 1 0 1 0 1 1 0 0 1 0 1 1 0 1 0 1 1 1 0 1 1 1 1 1 0 1 1 0 1 1 1 1 0 1 1 0 1 0 1 0 1 1 0 1 1 1 1 1 1 1 1 0 1 1 1 1 1 1 0 0 0 1 1 1 0 1 1 1 1 1 0 0 0 1 1 1 1 1 0 1 0 1 0 0 1 1 1 1 1 0 1 1 1 0 1 0 0 1 1 1 1 0 1 1 1 1 0 1 1 0 1 1 1 1 0 1 1 0 1 1 0 1 0 0 0 1 1 1 1 1 1 1 0 1 1 0 0 1 1 1 0 1 1 1 1 1 0 0 1 1 1 1 0 1 0 1 1 1 1 1 0 1 1 1 0 1 0 1 1 0 0 1 0 1 1 1 1 1 0 1 1 1 1 1 0 0 1 1 1 1 0 1 1 1 0 1 0 1 0 1 1 1 0 0 1 0 1 0 1 0 1 1 1 1 1 1 1 1 1 1 0 1 1 0 0 0 1 1 0 1 1 1 1 1 0 0 1 1 0 0 1 1 1 1 1 1 1 1 0 0 0 1 1 1 1 0 1 1 1 1 1 1 1 1 1 0 1 1 0 1 1 1 1 1 1 1 0 1 1 1 0 1 0 1 1 1 1 0 0 1 0 1 0 1 1 1 1 0 1 1 1 0 0 0 0 1 1 1 0 1 1 1 1 0 1 0 1 1 1 1 1 1 0 0 1 1 1 1 1 1 0 1 1 0 1 1 1 1 0 1 1 0 1 1 1 1 0 1 1 1 0 1 0 0 0 1 1 1 1 1 1 1 1 1 1 0 1 1 0 0 1 1 1 1 1 1 0 1 1 1 0 1 0 0 1 1 0 1 1 1 1 1 1 0 1 1 0 1 0 1 1 1 0 1 1 1 1 1 1 1 0 1 1 1 0 1 1 1 1 1 0 0 0 1 1 1 1 0 0 1 1 0 1 0 1 1 1 1 1 0 1 1 1 1 0 1 1 0 0 1 1 1 1 1 1 1 1 1 1 1 1 1 1 1 1 1 1 1 1 1 1 0 1 1 1 1 1 1 1 0 0 1 1 1 1 0 1 1 1 1 0 0 1 1 1 0 1 1 1 1 1 1 0 1 0 1 1 1 1 1 1 0 1 0 0 0 1 1 1 1 1 1 0 1 1 0 0 1 1 1 1 1 1 0 1 0 1 1 1 0 1 1 1 0 0 1 1 1 1 1 0 1 0 1 1 0 1 1 0 0 1 1 1 1 1 0 1 1 1 1 1 1 1 0 1 1 0 1 1 0 1 0 1 1 1 1 0 1 1 1 1 1 1 1 1 1 0 0 1 0 1 0 1 0 0 1 0 1 1 0 1 0 0 1 1 0 0 0 1 0 1 0 1 1 1 0 1 1 1 1 0 1 1 1 1 1 1 0 1 0 0 1 0 1 0 1 1 0 1 0 1 0 0 0 0 0 0 1 1 0 1 1 1 1 1 1 1 1 1 0 0 0 1 1 1 1 0 0 1 1 1 0 1 1 0 0 0 1 0 1 1 1 1 1 1 1 0 1 0 0 1 1 1 1 1 1 0 1 1 1 1 0 1 1 0 1 1 1 1 0 0 1 0 1 1 1 1 1 1 1 1 1 0 0 1 1 1 0 1 0 1 1 1 0 1 0 1 0 1 1 0 1 1 1 0 1 1 1 1 0 1 0 0 0 1 0 1 0 0 0 1 1 1 1 0 1 1 1 1 1 1 0 1 1 1 0 1 1 1 1 1 1 1 0 1 1 1 1 1 1 1 1 0 0 1 1 0 1 1 0 1 1 1 1 0 1 1 1 1 1 1 1 1 1 0 0 1 0 1 1 0 0 1 1 1 1 1 1 1 1 1 1 1 1 1 1 1 1 1 0 0 1 1 1 1 1 1 1 1 1 1 1 0 0 0 1 1 1 1 1 0 1 1 1 1 1 1 0 1 1 1 0 1 1 0 1 0 1 1 1 1 0 0 1 1 1 1 0 0 1 1 0 1 1 1 1 0 1 1 0 1 1 0 0 1 1 1 1 1 1 0 1 1 1 1 1 0 1 1 0 1 1 1 0 1 1 1 1 1 1 1 1 1 0 1 0 1 1 0 1 1 1 1 0 0 1 1 1 1 1 1 0 1 1 1 1 1 1 1 1 1 1 1 1 0 0 1 1 0 1 1 0 1 1 1 0 0 1 0 0 0 1 1 1 1 1 1 1 0 1 1 1 0 1 0 1 1 0 1 1 1 0 1 1 1 1 1 1 1 1 1 0 1 0 1 1 1 1 0 1 1 1 1 1 1 1 0 1 0 1 1 1 1 0 1 1 0 1 1 1 0 1 1 1 1 1 1 0 0 0 1 1 1 1 0 1 1 1 0 0 0 1 1 1 0 1 1 0 0 1 1 1 1 1 1 1 1 1 0 0 1 1 1 1 0 0 1 1 0 1 1 0 1 1 1 1 0 0 1 1 0 1 1 1 1 1 1 0 0 0 1 1 0 0 1 1 1 0 1 1 1 1 1 1 1 1 1 1 1 1 1 0 1 1 1 1 0 1 1 0 1 1 1 1 1 1 0 1 1 1 1 1 1 1 1 1 1 1 1 0 0 0 0 0 0 1 1 1 1 1 1 1 0 0 1 1 1 0 1 1 1 1 1 0 1 1 1 1 1 0 0 1 0 1 1 0 0 0 1 1 1 1 1 1 1 1 1 1 0 0 1 1 1 1 1 1 0 1 1 1 1 1 1 0 1 1 1 1 1 1 0 1 1 1 1 0 1 1 1 1 0 1 1 0 1 1 1 1 1 1 1 1 1 0 1 1 1 1 1 1 1 1 1 1 1 1 1 1 1 0 1 0 1 1 1 1 1 1 1 0 1 1 0 1 1 1 0 1 0 0 1 1 1 1 0 0 0 0 1 1 1 1 0 1 0 1 1 1 0 1 1 1 1 1 1 1 1 1 0 1 1 0 1 1 1 0 1 0 0 1 1 1 1 1 1 1 1 1 1 1 1 0 0 0 0 1 1 1 0 1 1 0 1 1 1 1 1 1 1 1 0 1 1 0 1 0 1 1 0 1 1 1 0 1 0 1 0 1 1 1 1 0 0 1 1 1 0 1 1 0 1 0 1 0 1 1 1 1 1 0 1 1 1 0 1 1 1 1 1 0 1 1 1 1 1 1 1 1 0 1 0 1 0 1 0 1 0 1 1 0 0 0 1 1 1 1 1 1 0 1 1 1 1 1 1 1 1 1 1 1 0 1 1 1 1 1 0 1 0 0 1 1 1 1 1 1 1 0 0 1 1 1 1 1 0 1 1 1 1 0 1 1 0 1 1 1 1 1 0 1 1 1 1 0 1 1 1 1 0 1 1 0 1 1 0 1 1 1 1 0 1 0 0 1 1 1 1 1 1 1 0 1 1 1 1 1 1 0 1 0 1 0 1 1 1 1 1 1 0 1 1 0 1 0 0 1 0 0 1 1 1 1 1 0 1 1 1 1 1 1 0 1 0 1 1 1 1 1 1 0 1 1 0 1 1 1 1 1 0 0 1 1 0 0 1 1 1 1 1 0 0 0 1 1 0 0 1 0 1 1 0 0 0 0 1 0 1 1 0 1 1 0 1 1 1 1 0 1 0 1 1 0 1 1 1 1 0 1 1 1 1 1 1 1 1 1 1 1 1 1 1 0 0 0 1 0 0 0 1 0 1 0 0 1 0 1 1 1 0 1 1 1 1 1 0 1 0 0 1 1 1 1 1 1 0 1 1 1 1 1 1 1 0 0 1 0 1 1 1 1 1 0 0 1 1 1 1 0 1 0 1 1 1 1 1 1 1 1 0 0 0 0 1 1 1 1 0 1 1 1 0 1 1 1 1 0 1 0 1 0 1 1 1 1 0 1 1 1 1 0 1 0 1 0 0 1 1 1 1 1 1 1 1 0 1 1 0 1 0 0 1 1 0 1 1 0 1 0 1 0 1 1 0 0 0 1 1 1 1 1 1 0 1 0 1 1 1 1 1 1 1 1 1 1 1 1 1 1 1 1 1 1 0 1 1 1 1 0 1 0 1 1 0 0 1 1 1 1 0 1 1 1 1 1 1 1 1 1 0 0 1 1 1 1 1 0 1 1 0 1 1 1 1 1 0 1 1 1 1 1 1 0 1 1 0 1 1 1 1 1 0 1 0 1 1 1 1 1 1 0 1 1 1 1 0 1 1 1 1 0 1 1 1 1 1 1 1 1 1 1 1 1 1 1 1 0 1 1 0 1 1 0 0 1 0 1 0 0 0 1 1 1 0 1 1 1 1 1 1 1 1 0 1 1 1 1 1 1 1 0 1 1 1 1 1 1 1 1 0 1 1 0 1 0 0 1 1 1 1 1 1 1 1 0 0 1 1 1 0 1 0 1 1 1 1 1 1 1 0 1 1 1 0 1 1 1 1 0 0 1 1 0 0 0 1 0 0 0 0 1 1 1 1 1 1 0 0 1 1 1 1 1 0 1 0 1 1 0 0 1 1 1 1 0 1 1 1 1 1 0 1 1 1 1 0 1 0 1 1 1 0 1 1 1 1 0 0 0 1 1 1 1 1 1 1 0 0 1 1 0 0 1 0 1 0 1 1 0 1 1 1 0 1 1 1 0 0 1 0 1 0 0 0 0 0 0 1 1 0 1 1 1 1 1 0 1 1 1 1 0 1 0 1 1 1 1 1 1 1 1 1 1 1 1 0 1 1 1 1 1 1 1 1 1 1 1 1 1 0 1 0 0 1 0 1 1 0 1 0 1 1 0 0 0 1 1 1 1 0 0 0 1 1 1 1 1 1 1 0 1 1 1 1 1 0 1 1 0 1 1 0 1 1 1 1 0 0 1 1 1 1 1 1 0 1 0 0 1 1 1 0 1 1 0 0 1 1 0 0 1 1 1 0 1 1 0 1 0 1 1 0 0 0 1 0 1 1 0 1 1 0 1 1 1 0 1 0 1 0 0 0 1 0 1 1 1 0 1 0 1 1 1 0 1 1 1 1 1 1 1 1 0 1 1 1 1 1 1 1 0 0 0 0 0 1 1 1 1 0 1 1 0 1 1 1 0 0 1 1 1 1 1 1 0 1 0 1 1 1 1 1 1 1 1 1 1 0 0 1 1 1 1 1 1 1 1 1 1 1 1 1 0 1 0 1 0 1 1 1 1 0 0 0 0 0 1 1 1 1 0 1 0 0 1 0 0 1 1 1 1 0 0 1 1 1 1 0 1 0 1 1 0 1 0 1 1 1 1 1 1 0 1 1 0 1 0 1 1 0 1 1 1 0 0 0 1 1 1 1 1 1 0 1 0 0 1 0 1 1 1 1 0 1 1 1 0 1 1 0 0 1 1 1 1 1 1 1 1 1 0 1 1 1 1 1 1 0 0 1 1 1 0 1 1 0 1 0 1 0 1 1 0 1 0 1 0 1 0 1 1 0 0 1 0 1 0 1 1 0 0 1 0 0 1 0 1 1 1 1 1 1 1 1 1 0 1 1 1 1 0 1 0 1 1 1 0 0 1 1 0 1 1 1 0 1 1 1 1 0 0 1 1 1 0 1 1 1 0 0 0 1 1 1 1 1 1 1 0 0 1 1 1 0 1 1 1 1 1 1 1 1 1 1 1 0 1 1 1 1 1 1 0 1 0 1 1 1 1 1 0 1 0 0 1 1 1 0 0 0 1 1 1 1 0 1 1 0 0 1 1 1 0 1 0 1 1 0 1 1 1 0 1 0 0 1 1 0 1 1 0 0 1 1 0 1 1 1 1 1 0 1 1 1 1 1 0 1 1 1 1 1 0 1 1 1 1 1 1 1 1 1 1 1 1 0 1 0 1 1 1 1 0 1 1 0 1 1 0 1 1 1 1 1 1 1 1 1 0 1 0 1 0 1 1 1 1 0 1 1 1 1 0 0 0 1 1 0 1 0 0 1 1 0 1 1 0 1 1 1 1 1 1 1 1 0 0 1 1 0 0 1 0 1 0 1 0 0 0 0 1 1 1 1 0 1 0 1 1 1 0 0 1 0 1 1 0 0 1 1 0 1 1 1 1 1 0 1 1 1 0 1 0 1 1 1 1 1 1 1 1 1 0 1 1 0 1 1 1 1 1 1 1 1 0 1 1 1 1 1 0 1 1 1 1 1 1 1 1 1 1 1 0 1 1 1 1 0 0 0 1 0 1 0 1 1 1 1 1 0 0 0 1 0 0 1 0 0 1 1 1 1 0 1 1 1 0 1 1 1 1 0 1 1 0 1 1 1 0 1 1 1 1 0 1 1 1 1 1 1 1 1 1 1 0 1 1 0 1 1 1 1 1 1 1 1 1 0 1 1 0 1 0 0 0 0 0 1 1 1 1 0 0 0 1 1 0 1 0 1 1 0 1 1 1 1 0 0 1 1 0 0 0 1 1 0 0 0 0 1 0 0 1 1 1 0 0 0 1 1 0 0 0 0 0 1 1 1 0 1 1 1 1 0 0 0 1 1 1 1 0 1 1 1 1 1 1 0 1 1 1 0 1 0 1 1 0 1 1 1 1 1 1 1 1 0 1 0 1 1 1 1 1 1 1 1 1 0 1 0 1 1 1 0 1 1 1 1 0 0 1 0 1 1 1 1 0 0 1 0 0 0 1 1 1 1 1 1 1 0 1 1 1 1 1 1 1 1 1 1 1 0 0 0 1 0 1 0 1 1 1 1 1 0 1 1 1 1 1 0 1 1 1 0 0 0 1 0 1 1 0 0 1 0 1 0 1 1 0 1 1 1 0 0 0 1 1 0 1 0 1 0 1 1 1 1 0 0 1 0 0 1 1 0 1 1 1 0 1 1 1 1 1 0 0 1 1 0 1 1 1 1 1 1 0 0 0 1 1 1 0 1 0 1 0 1 0 1 1 1 1 0 0 1 0 1 0 1 1 1 0 0 1 1 1 0 0 1 1 0 1 1 0 1 1 1 1 1 1 1 1 1 1 0 1 0 1 0 1 1 1 1 1 0 1 1 1 1 1 1 0 1 0 1 1 1 1 1 0 0 0 1 0 1 1 1 1 0 1 0 0 1 1 1 1 1 1 0 1 1 1 0 0 0 0 1 1 1 1 1 1 1 1 0 1 1 1 1 1 1 1 1 0 1 1 1 1 0 1 1 1 0 0 1 1 0 1 1 0 1 0 1 1 0 1 1 1 0 0 0 1 1 1 1 0 0 1 0 1 0 0 1 1 0 1 0 0 1 1 1 1 0 1 1 1 1 1 1 1 0 0 1 0 1 1 1 1 0 1 0 0 0 1 0 0 0 1 1 0 1 1 1 0 1 0 1 0 0 1 0 1 0 1 1 1 1 1 0 1 1 0 1 1 0 0 1 0 1 0 1 1 0 1 1 1 1 1 0 1 1 1 1 0 1 1 1 0 1 1 0 1 0 1 1 1 1 1 1 1 1 1 1 0 1 0 0 1 1 1 1 1 1 1 1 1 1 1 0 1 1 0 0 1 0 1 0 0 0 1 1 1 1 1 0 1 1 1 0 0 0 0 1 1 1 1 1 1 1 0 0 1 1 1 0 1 0 0 1 0 1 1 0 1 1 1 1 1 0 0 1 1 1 1 0 0 0 0 0 1 1 1 1 1 0 1 0 1 0 0 1 1 1 1 1 1 0 0 1 1 1 0 1 1 0 0 1 1 1 1 1 0 0 1 1 0 1 0 1 1 0 1 1 1 1 0 1 0 0 1 1 1 0 1 1 1 1 1 1 1 1 0 1 1 1 0 1 1 1 0 0 1 1 1 1 0 0 1 0 1 1 0 1 1 1 1 1 1 0 1 1 0 0 1 1 0 1 0 1 1 0 1 0 1 0 0 1 1 0 0 0 0 1 1 1 0 1 1 0 1 0 0 1 1 1 0 1 0 1 1 0 0 0 0 1 0 1 0 1 1 1 1 1 1 0 0 0 1 0 0 0 1 1 0 0 1 1 1 1 1 1 1 1 0 1 0 1 1 0 1 0 1 1 0 0 1 1 1 1 1 1 1 1 1 1 1 1 1 0 0 0 1 1 1 0 1 1 0 1 1 1 0 1 1 0 1 1 1 0 1 1 1 1 0 0 0 1 1 1 1 1 0 1 1 1 0 1 1 1 1 0 0 1 0 1 1 0 0 0 1 0 0 1 1 1 1 1 1 1 1 1 1 0 1 1 1 1 1 1 1 1 1 0 1 1 0 1 1 1 1 1 0 1 1 1 1 1 1 1 1 0 0 1 0 1 1 1 1 0 0 1 1 0 1 0 0 1 0 1 1 1 1 0 0 1 1 1 0 1 0 0 1 1 0 1 1 1 1 0 1 1 1 1 0 1 1 0 1 0 1 1 1 1 1 1 1 1 0 1 1 1 1 1 1 1 0 0 1 0 0 1 0 1 0 1 1 1 0 0 1 1 1 1 1 0 1 1 1 0 1 0 1 1 1 0 1 0 0 1 0 1 1 1 1 1 1 0 1 1 0 0 1 1 0 1 1 0 1 0 0 0 0 1 0 1 1 1 1 0 0 1 1 0 1 0 1 1 1 1 0 1 1 1 1 1 1 1 0 1 1 0 1 1 1 0 1 1 1 1 1 0 0 1 1 0 1 1 0 1 1 1 1 1 1 1 1 0 1 1 0 1 1 1 0 1 0 1 1 1 1 1 1 0 0 1 0 0 0 1 0 1 1 1 1 1 1 1 1 0 1 0 1 1 1 0 1 1 1 1 1 1 0 1 0 1 1 1 1 1 0 1 1 1 1 1 1 1 1 1 1 1 0 1 0 0 1 1 1 1 0 1 1 1 1 1 1 1 1 1 0 1 0 1 1 0 0 1 1 1 0 0 1 1 1 1 1 1 1 0 1 0 0 0 1 0 0 0 0 1 0 0 1 1 0 0 0 1 0 0 0 1 1 1 0 1 0 1 1 1 0 1 0 0 1 1 1 1 1 0 1 1 0 1 0 0 1 1 1 1 0 1 1 0 1 1 1 1 0 1 0 1 1 0 1 0 1 1 1 1 0 1 0 1 1 1 0 0 1 1 1 1 1 1 1 1 1 0 0 0 1 1 1 1 1 1 1 1 1 1 0 1 1 1 0 1 0 0 1 1 1 1 0 1 0 1 1 0 1 0 1 1 0 1 1 0 1 1 1 1 1 1 1 1 1 1 1 1 1 1 0 1 1 1 1 1 1 1 1 1 1 0 1 1 1 0 0 1 1 1 0 1 1 1 1 1 1 1 1 1 1 1 1 1 1 0 1 1 1 1 1 1 1 1 0 1 1 0 1 0 1 0 1 1 1 0 1 1 1 1 1 1 0 0 1 1 1 1 1 1 1 1 1 0 1 1 1 1 1 1 1 0 1 1 0 0 1 1 1 1 1 1 1 1 0 0 1 0 0 1 1 1 1 1 1 1 1 1 1 1 1 1 1 1 0 1 0 1 0 1 1 1 0 1 1 1 1 0 1 1 0 1 1 0 1 0 1 1 1 0 0 0 1 1 1 1 1 1 1 1 0 0 0 0 0 0 0 0 1 0 1 1 1 0 1 1 1 1 1 0 1 0 1 1 1 1 0 1 1 1 1 1 0 0 1 1 0 1 1 1 1 1 1 1 1 0 1 0 0 0 1 1 1 1 1 1 0 1 1 1 1 0 0 1 1 1 0 1 0 0 0 1 1 1 0 0 1 0 0 1 1 1 1 0 1 1 1 1 1 0 0 1 1 0 1 1 1 0 1 1 1 1 1 1 1 1 1 1 1 1 1 1 1 1 1 1 0 0 1 0 1 1 1 1 1 0 1 1 0 1 1 1 1 1 1 1 1 1 1 1 1 1 1 1 1 0 1 0 0 1 1 1 1 1 1 1 1 0 1 0 1 1 1 1 1 1 1 1 1 0 0 1 1 1 1 1 1 1 0 0 1 0 0 0 1 1 1 0 0 1 1 0 1 1 1 0 1 1 0 1 1 1 1 0 1 1 1 1 0 0 1 0 0 1 1 0 1 0 1 0 1 1 1 0 1 0 0 1 0 1 1 1 0 1 0 1 1 1 0 0 0 1 1 1 0 1 0 1 0 1 1 1 0 1 1 1 1 0 0 1 1 0 0 1 1 0 1 1 0 1 1 1 1 0 1 0 0 1 1 1 1 0 1 1 0 1 1 1 1 1 1 0 1 1 1 1 1 1 1 1 0 1 1 0 1 0 1 0 0 1 1 0 0 1 1 1 0 1 1 1 1 1 1 1 1 1 1 1 1 1 0 1 1 1 0 1 1 1 1 1 0 0 1 1 1 1 1 1 0 1 0 0 1 0 1 0 1 1 1 0 0 1 1 1 0 1 1 1 1 1 1 1 0 0 1 1 1 0 1 1 0 0 1 0 1 1 0 1 0 1 1 0 1 1 0 1 1 0 1 1 1 1 1 1 1 1 0 0 1 1 1 1 1 0 0 1 1 1 1 1 1 1 0 0 0 1 0 1 0 1 0 1 1 1 0 1 1 1 0 1 1 1 1 1 0 0 1 1 0 0 1 1 1 1 1 0 1 1 1 1 1 1 1 1 1 1 1 1 0 1 0 0 1 1 1 1 1 1 1 0 1 1 1 0 0 1 1 1 0 1 1 1 0 1 1 1 0 0 1 1 0 1 0 1 1 1 1 1 0 1 1 0 1 1 0 1 1 1 1 1 1 1 0 1 0 1 1 0 1 0 1 1 0 1 1 1 1 1 1 1 1 1 1 0 1 0 1 0 0 1 0 1 0 0 0 1 0 1 1 0 0 1 1 1 1 0 0 1 1 1 0 0 1 0 1 1 1 0 0 1 1 1 1 0 1 0 0 1 1 1 1 0 0 0 1 0 1 1 0 0 1 1 1 0 1 0 1 1 1 1 1 0 1 1 1 1 0 1 1 1 1 0 1 1 1 1 1 0 0 1 1 1 1 1 1 0 1 0 1 1 0 1 0 1 1 1 0 0 0 1 0 0 1 1 0 0 1 1 0 1 1 1 0 1 1 0 1 1 0 1 0 1 1 1 0 1 0 1 0 1 1 1 1 0 1 1 1 0 0 0 1 1 1 1 0 1 0 1 1 0 0 1 1 1 1 1 1 1 1 1 0 1 0 0 0 1 1 1 1 0 0 0 1 1 1 1 0 1 0 1 1 1 1 1 0 1 1 0 0 1 1 1 1 1 0 1 1 0 1 1 1 1 1 1 0 0 1 0 1 1 1 1 0 1 1 1 0 0 0 1 1 0 0 1 1 1 1 1 0 0 0 1 1 1 0 1 0 1 1 1 1 0 1 0 1 1 1 0 0 1 1 1 0 1 0 1 0 1 1 1 1 1 1 1 1 1 1 0 1 0 1 1 1 1 1 1 1 1 0 1 0 1 1 0 1 1 1 1 0 0 1 0 1 0 1 1 0 0 1 1 1 1 1 1 1 1 1 1 1 1 1 0 1 1 0 0 0 1 1 1 1 0 1 0 1 1 0 1 1 1 1 1 0 1 1 1 1 1 0 0 1 1 1 0 1 0 1 1 0 1 1 0 1 1 1 1 1 1 1 1 0 1 0 1 1 1 1 0 1 1 1 1 0 1 1 0 1 1 1 1 1 1 0 1 0 1 1 1 1 1 1 1 1 1 1 1 1 0 1 1 1 0 1 0 0 0 0 1 1 1 0 1 1 1 1 0 1 0 0 1 1 1 1 1 1 1 1 1 1 0 0 1 0 0 1 1 1 0 1 1 1 1 0 1 1 0 1 1 1 1 1 1 1 1 0 1 1 1 1 1 0 1 1 1 1 1 1 0 1 1 0 1 1 0 1 1 0 1 1 1 0 1 0 0 1 0 0 1 1 0 1 1 1 0 0 1 1 1 0 0 1 0 0 0 0 1 0 1 1 1 1 0 1 1 1 1 0 1 0 0 1 1 0 0 0 0 1 0 1 1 0 1 0 1 0 0 1 0 0 1 1 1 1 1 0 1 1 1 1 0 1 1 0 1 0 0 1 0 1 1 1 1 1 1 1 1 0 1 0 1 1 1 1 0 1 1 1 1 0 1 1 0 0 1 1 1 1 1 1 0 0 1 1 1 1 0 0 1 1 1 0 0 0 1 0 0 0 0 1 0 1 1 0 1 1 1 1 1 0 1 1 1 0 1 1 1 1 0 1 0 1 1 1 0 0 1 1 1 1 1 1 0 1 1 0 1 1 0 1 1 1 1 1 1 1 1 0 1 1 1 1 1 0 1 0 1 0 1 1 1 1 1 1 1 1 1 1 1 1 0 1 1 0 1 1 0 1 0 1 1 0 1 0 0 1 1 1 1 1 0 1 1 1 1 0 0 1 0 0 0 1 0 1 1 0 0 1 1 1 0 1 0 1 1 1 1 1 1 0 0 1 1 1 1 1 1 1 0 1 1 1 1 0 1 0 0 1 1 1 0 1 1 0 0 0 0 1 1 1 0 1 1 0 0 0 1 1 1 1 0 1 0 1 1 0 0 1 1 1 0 0 0 1 1 1 1 0 1 0 1 1 1 1 1 1 1 1 1 1 1 1 1 0 0 1 1 1 1 1 1 1 1 1 1 1 1 1 1 0 1 1 1 1 0 1 0 1 0 0 0 1 1 1 1 0 1 1 1 1 0 1 1 1 0 1 1 1 1 1 1 1 1 1 1 1 0 0 0 1 1 1 1 1 1 1 0 0 1 0 1 0 0 0 1 0 1 1 1 1 1 1 1 1 1 0 0 0 1 0 1 1 1 1 1 0 0 0 1 1 0 1 1 0 1 1 0 0 1 1 1 1 1 1 1 0 0 0 1 1 0 0 1 0 0 1 1 1 1 1 1 0 0 0 1 1 1 1 1 1 0 0 1 0 1 0 1 0 1 0 1 1 1 1 1 1 1 0 1 1 1 1 0 0 0 1 1 0 1 1 1 0 1 0 1 1 1 0 0 1 0 1 1 1 0 1 0 1 1 0 1 1 0 0 0 0 1 1 0 0 1 1 0 1 0 1 1 1 0 1 0 1 1 1 1 1 1 1 1 1 1 1 1 0 1 1 1 1 0 1 1 1 0 1 0 1 1 1 1 1 0 1 0 0 1 0 1 1 0 1 1 1 1 0 1 1 1 0 1 1 0 0 0 0 1 1 1 1 1 1 1 1 0 1 0 1 1 1 1 1 0 1 0 1 1 0 0 0 1 1 0 0 0 1 1 0 1 1 1 1 1 0 1 0 1 1 0 1 0 1 1 0 1 1 1 1 1 1 1 0 0 1 1 1 0 1 0 0 0 0 1 1 1 0 0 1 1 1 1 1 1 1 1 0 1 1 0 0 1 1 1 0 1 1 1 1 1 0 0 0 1 1 0 1 1 1 1 1 0 1 0 1 1 1 1 0 1 0 1 1 1 1 1 1 1 0 1 1 1 1 1 1 0 0 1 0 1 1 1 0 0 0 1 1 1 1 1 0 1 0 0 1 0 1 0 1 1 1 0 0 0 1 0 1 1 1 1 0 1 0 1 0 0 0 1 1 1 1 1 0 0 1 1 1 0 1 1 0 1 1 1 0 1 1 1 0 0 0 0 0 1 1 1 1 1 1 1 1 1 1 0 1 1 0 1 1 1 1 1 0 1 1 1 1 1 0 1 1 1 1 1 1 0 1 1 1 1 1 0 1 0 1 1 1 1 1 1 1 0 1 1 0 0 1 0 0 0 1 1 1 1 0 1 0 0 1 1 0 1 1 0 0 0 1 1 1 1 0 0 1 0 1 1 1 1 1 0 1 0 1 1 1 1 1 1 0 0 1 1 1 1 1 1 1 0 0 1 1 1 1 0 0 0 1 0 0 0 0 0 1 1 1 1 1 1 1 1 1 0 1 0 0 0 0 1 1 1 1 1 1 0 1 1 1 1 1 1 0 1 0 1 0 1 1 0 1 1 1 1 0 0 1 1 1 0 1 1 0 1 0 1 1 1 0 1 0 1 1 1 1 0 1 1 1 1 1 0 1 1 1 0 0 0 1 0 1 1 1 0 0 0 0 1 0 1 1 1 1 1 1 1 1 1 1 0 1 0 1 1 0 1 1 0 1 1 0 1 1 0 0 1 1 1 1 1 0 1 1 1 1 0 1 1 0 1 0 1 1 1 0 0 0 1 1 1 1 1 1 1 1 0 1 0 1 0 0 1 1 1 0 0 1 0 1 1 1 1 1 1 1 1 1 0 1 1 1 1 0 0 0 1 0 1 0 0 0 1 1 1 1 0 0 1 1 1 0 1 1 1 0 0 1 1 1 0 1 1 1 1 1 1 0 1 0 1 1 1 1 1 0 1 0 0 1 1 0 1 1 1 1 0 1 1 1 1 0 1 1 1 1 1 1 1 1 1 1 0 1 1 0 1 1 1 1 1 1 1 1 0 1 1 1 0 1 1 1 1 0 1 1 1 1 0 0 0 0 1 1 1 0 1 1 0 0 1 1 1 1 1 1 0 0 0 0 1 1 1 1 1 0 1 0 0 1 1 1 1 1 1 0 1 0 1 1 1 1 0 1 1 1 1 1 0 1 0 1 1 1 0 1 0 1 1 0 0 1 1 1 1 1 1 1 0 1 1 1 1 0 1 0 1 1 0 1 1 1 1 0 1 0 1 1 0 0 0 1 0 0 0 1 0 1 1 1 1 1 1 1 0 1 0 0 1 0 1 1 0 1 0 0 1 1 1 1 1 1 0 0 1 1 1 1 1 1 0 1 1 1 0 1 1 1 1 0 1 1 0 1 1 1 0 1 1 1 1 1 1 0 1 1 0 1 1 1 1 1 0 1 1 1 1 1 1 1 0 1 1 1 1 1 1 1 1 1 1 1 0 1 1 1 1 0 1 0 1 1 1 1 0 1 0 1 1 1 1 1 1 0 1 0 1 1 1 1 1 1 1 1 1 1 1 0 0 0 1 1 1 1 1 1 0 0 1 0 0 1 1 1 0 0 1 1 0 0 1 1 1 1 1 1 0 1 0 0 1 1 1 1 1 1 1 1 1 1 1 1 1 0 1 1 0 1 1 1 1 1 1 1 1 1 1 0 1 1 0 1 1 0 1 1 1 1 1 1 1 1 1 0 1 0 1 1 0 1 0 0 0 0 1 0 1 1 1 1 0 0 1 0 0 1 0 0 1 0 1 1 1 1 0 0 1 1 0 1 1 1 0 0 0 1 1 0 1 1 0 1 1 1 0 1 1 0 1 1 0 0 1 0 1 0 1 1 1 1 1 1 1 0 0 1 1 0 1 0 0 0 0 1 1 1 1 1 1 1 0 1 1 1 1 1 1 1 1 0 0 1 0 0 1 0 1 0 0 0 1 1 0 1 1 0 1 1 0 0 1 1 1 0 1 1 0 1 0 1 1 1 1 0 1 1 0 0 0 0 1 1 1 1 0 0 1 1 1 0 1 1 1 1 1 1 0 1 1 1 1 1 1 1 1 1 1 1 1 0 0 1 1 1 1 0 1 0 1 0 1 1 1 1 1 0 1 1 0 1 1 1 0 0 0 0 1 1 1 1 1 1 1 1 0 1 0 1 1 1 1 1 1 1 1 0 0 1 1 0 1 1 1 0 1 0 1 1 1 1 0 1 1 1 1 1 0 1 0 1 0 0 1 1 1 1 1 1 1 0 1 0 1 1 1 1 0 1 0 1 0 1 0 1 1 0 1 1 1 1 1 1 0 1 1 1 1 1 1 1 1 1 1 1 1 1 0 1 1 0 1 0 1 1 1 1 0 0 1 1 1 0 1 1 1 1 1 1 1 0 0 0 0 1 1 1 1 1 1 1 1 1 1 1 1 0 0 0 1 0 1 1 0 1 1 0 1 1 1 1 0 0 1 0 1 1 1 0 1 0 1 1 1 1 1 1 1 1 1 1 1 1 0 0 0 1 0 1 0 1 0 1 0 1 1 1 1 0 0 0 1 1 1 1 0 1 1 0 1 1 1 1 0 1 1 1 1 1 0 0 0 0 1 1 1 1 1 1 1 1 1 0 1 1 1 1 1 1 1 0 0 0 0 1 1 1 1 1 0 0 0 1 1 1 1 0 1 1 1 1 1 1 0 1 1 1 1 1 1 1 1 1 1 1 1 1 1 1 1 0 0 1 1 1 1 0 1 0 0 1 1 1 1 1 1 1 1 1 0 1 1 1 0 1 0 1 1 0 0 1 0 1 1 0 1 0 0 1 0 1 1 1 1 0 1 0 0 0 1 1 1 1 1 1 0 1 1 1 1 1 1 1 0 0 1 1 0 1 1 0 1 1 0 0 0 1 1 1 0 1 0 1 1 1 1 0 1 1 1 1 1 0 1 1 1 0 0 1 0 1 0 1 1 1 1 1 1 1 0 1 1 0 0 1 1 0 0 0 0 1 1 1 1 1 1 0 1 0 1 1 1 1 1 0 1 0 1 1 0 1 0 1 1 1 1 1 0 1 0 0 1 1 0 1 0 1 1 1 1 1 1 0 1 1 0 1 0 1 1 0 0 1 1 1 0 0 0 1 1 1 0 1 0 0 1 0 1 0 1 1 1 1 1 1 1 1 0 1 0 0 0 0 1 0 1 1 0 0 0 0 1 1 0 1 0 1 0 0 0 1 1 1 1 1 0 1 1 1 1 1 1 0 1 1 1 1 1 1 1 1 0 1 1 1 1 1 0 1 1 1 1 0 0 0 1 1 0 0 1 1 1 1 1 0 0 0 1 0 1 1 0 0 1 1 0 0 0 1 1 1 0 1 0 1 1 1 1 1 1 1 1 1 0 0 1 0 0 0 0 1 0 1 1 1 1 1 1 1 0 1 0 1 1 1 1 1 1 1 1 1 1 1 1 1 1 1 1 1 1 0 0 1 0 0 1 1 0 0 1 0 0 1 0 1 1 0 1 1 1 1 1 0 1 0 1 0 1 0 1 1 1 0 1 1 1 1 1 0 1 0 1 0 1 1 1 1 1 1 0 0 1 1 1 1 0 0 1 1 1 1 0 1 1 0 1 1 1 1 0 0 1 1 0 1 0 1 1 1 0 1 1 1 1 1 1 1 1 1 0 1 1 0 1 1 1 1 0 1 1 1 0 1 1 0 1 1 1 1 1 1 1 1 0 0 0 1 1 0 1 1 1 0 0 0 1 1 1 1 1 1 1 1 1 1 1 1 0 1 0 1 1 0 1 1 0 1 1 0 0 1 1 1 1 0 1 1 1 1 1 1 1 0 0 1 0 1 1 0 0 1 1 0 1 1 1 1 1 1 1 1 1 1 1 0 0 0 1 1 1 1 1 0 1 1 0 1 0 0 1 1 1 1 1 1 1 1 1 1 1 1 0 1 0 1 1 1 0 0 0 1 1 1 1 0 1 1 1 1 1 1 0 1 0 1 1 1 1 1 1 1 1 0 1 1 1 1 0 1 1 1 0 0 1 0 0 1 1 1 1 1 1 0 0 0 1 1 1 1 1 0 1 1 1 0 1 1 1 0 0 1 1 1 1 1 1 0 0 1 1 0 0 0 0 1 1 1 0 1 0 1 1 1 1 1 1 0 0 0 0 1 1 1 1 0 1 1 1 1 1 1 0 1 1 0 1 0 1 0 1 0 0 1 1 1 1 1 1 1 0 0 1 0 1 1 0 1 1 1 1 1 1 1 1 1 0 0 1 1 1 0 1 1 1 0 1 1 1 1 1 1 0 1 1 0 1 0 1 1 1 1 0 0 0 0 1 1 1 1 1 1 1 1 0 1 1 1 1 1 1 1 1 1 1 1 0 0 1 1 1 1 1 1 1 1 0 1 1 1 1 0 1 1 1 1 1 1 0 1 1 0 1 1 0 1 1 1 1 1 1 1 1 0 0 0 0 0 1 1 0 0 0 1 1 1 1 1 1 1 1 1 0 1 0 1 1 1 0 0 0 1 0 1 1 1 1 0 1 0 1 0 0 0 1 1 0 1 0 1 1 0 1 1 1 1 1 1 0 1 1 1 0 1 0 1 1 0 0 1 1 1 1 0 1 0 1 1 1 1 1 1 0 1 1 0 1 1 1 1 0 1 1 0 1 1 1 0 1 0 0 0 1 0 1 0 1 1 0 1 1 1 1 0 0 0 1 0 1 1 1 1 1 1 1 1 1 1 1 0 1 1 1 0 0 1 1 0 0 1 1 1 0 0 1 0 1 1 1 1 1 1 0 1 1 1 1 1 0 1 1 1 0 1 1 1 1 1 1 1 1 1 1 1 1 1 1 1 1 0 1 0 1 1 0 1 0 0 1 1 1 1 1 1 0 1 1 1 1 1 1 1 1 1 0 0 1 1 0 1 1 0 1 1 1 1 1 0 1 1 1 0 1 1 1 1 0 1 1 1 1 0 1 1 0 0 1 1 0 1 1 0 1 1 0 1 0 1 1 0 1 1 0 1 0 0 1 1 1 1 1 1 1 1 1 1 1 1 1 0 1 1 1 1 1 1 1 1 1 0 1 1 0 0 0 1 1 1 0 1 1 1 1 1 1 1 1 1 1 1 1 1 1 0 1 1 1 1 1 1 1 0 1 1 1 1 1 1 1 1 0 1 0 1 1 1 1 0 1 1 1 0 1 1 0 1 1 1 1 1 1 1 0 0 0 1 1 1 0 1 0 1 1 1 1 1 1 1 1 1 1 1 0 1 1 0 1 0 1 1 0 0 0 1 0 1 1 0 0 1 1 1 0 1 0 1 1 0 0 1 1 1 1 0 1 1 1 1 1 1 1 1 1 0 0 1 0 1 1 1 1 1 0 0 0 1 1 0 1 1 0 1 0 1 1 0 0 0 0 1 0 1 1 1 1 1 1 1 1 1 1 1 1 1 1 1 1 1 1 1 1 0 1 1 0 1 1 0 1 0 1 1 0 1 1 1 1 1 0 0 0 0 1 1 1 1 1 1 0 1 0 1 0 1 0 0 0 1 1 1 1 1 1 1 1 1 1 1 0 1 1 0 1 1 1 1 1 1 0 1 1 1 1 0 1 0 1 1 1 1 1 0 1 1 1 0 0 1 1 0 0 1 1 1 0 0 1 1 1 1 1 1 0 1 0 1 1 1 1 1 1 0 1 1 0 1 0 1 0 1 1 0 1 0 1 1 1 1 1 1 1 1 0 1 1 1 0 0 0 1 1 0 0 1 1 0 0 1 1 1 1 1 1 1 0 1 1 0 1 1 1 1 0 1 1 1 1 1 1 1 1 1 0 0 1 0 1 0 0 1 1 1 1 1 1 0 1 0 1 0 0 1 1 1 1 1 1 0 1 1 1 0 1 1 1 1 1 1 1 1 1 1 1 1 1 1 0 1 1 1 0 1 1 1 0 1 1 0 1 0 1 1 1 1 0 1 0 1 0 1 1 1 1 0 0 0 0 1 1 0 1 1 1 0 1 1 1 1 1 1 1 1 0 1 0 1 1 1 1 0 0 1 1 0 1 1 0 0 1 1 0 1 1 1 1 0 1 0 1 1 0 1 1 1 0 1 1 0 0 0 0 0 0 0 1 1 1 1 1 1 1 1 0 0 1 1 1 0 1 1 1 1 1 1 1 1 1 1 1 0 1 0 1 1 1 1 0 1 1 1 0 1 0 0 0 1 1 1 1 0 1 1 0 1 1 1 0 1 1 1 0 1 0 1 0 1 1 1 1 1 1 1 1 0 1 0 0 0 0 0 1 1 0 0 1 0 0 0 1 1 1 1 0 1 0 1 1 1 1 1 1 1 1 1 0 1 0 1 1 1 0 1 1 0 1 1 1 1 1 0 1 0 1 1 1 1 1 1 0 1 0 1 1 1 1 0 1 1 1 0 0 0 1 1 0 1 0 1 1 1 1 0 1 1 1 1 1 1 0 0 1 1 1 0 1 1 1 1 1 1 1 0 1 1 1 1 1 0 1 1 1 0 0 0 0 1 1 1 1 1 0 1 1 0
16641 33282
59240 29620
8801 17603
39309 19654
21304 10652
14363 28727
19441 38882
49376 24688
34055 68110
44153 22076
49123 24561
25714 51428
248 497
17831 35662
7642 15284
24446 12223
19512 39024
59839 29919
10826 21652
40401 20200
593 296
16987 8493
44509 22254
16842 33685
13658 6829
22042 44085
3637 7275
13930 6965
26809 53619
42184 21092
7132 14264
67984 33992
1512 3024
19559 9779
30028 15014
26414 52829
17606 35212
719 1438
32953 65907
34584 69169
20706 41413
45352 22676
29662 59324
9125 18250
18991 37983
27131 13565
26386 13193
39111 19555
32378 16189
58488 29244
28052 56105
23946 11973
14743 29487
3881 7762
31061 15530
33 67
47372 23686
59454 29727
500 1001
18369 36738
2292 1146
10105 20210
13290 26581
37177 18588
50072 25036
13168 26336
14137 28274
66397 33198
6121 12242
45878 22939
12106 24213
38514 19257
10861 21723
8943 17886
61013 30506
68712 34356
51828 25914
64327 32163
33779 67558
13907 6953
16567 33135
52143 26071
27450 13725
29359 58719
38191 19095
68820 34410
23377 11688
28766 57533
59230 29615
26382 13191
53512 26756
8271 16543
55717 27858
5280 10560
67138 33569
6155 3077
29564 59129
29477 58955
12711 25423
44070 22035
27322 54644
6803 13607
33525 16762
23182 46364
17254 34509
43404 21702
7029 14059
43712 21856
18650 9325
24083 12041
53918 26959
27652 55305
68905 34452
67319 33659
17751 8875
3063 6127
42643 21321
23372 46745
50410 25205
938 1876
2231 4462
13804 6902
31084 62168
42047 21023
54935 27467
13834 27669
43864 21932
13491 26983
22139 11069
10840 5420
264 529
4120 8241
23856 11928
48641 24320
63135 31567
1191 2382
49735 24867
12307 24614
11891 5945
2358 4717
39338 19669
9095 4547
37221 18610
43157 21578
44206 22103
2681 5363
4050 2025
17848 8924
38646 19323
20846 41692
18560 9280
45859 22929
698 1397
41661 20830
25444 50888
24975 49951
64875 32437
122 244
34549 17274
66940 33470
15281 7640
17533 35066
5767 11534
8144 4072
2878 5756
64567 32283
57454 28727
23861 47722
1860 930
21775 10887
6937 3468
48003 24001
5132 2566
25022 12511
1867 3735
32787 65574
28378 56756
14046 28093
25788 51577
9380 4690
30537 15268
10863 21726
67670 33835
27174 54349
57022 28511
6291 12583
27579 55158
7231 3615
53572 26786
21170 10585
28744 57489
39368 19684
58953 29476
13625 27251
20655 10327
26971 53943
7884 15768
6030 12060
13099 26199
65398 32699
2250 4501
33863 67727
10829 21659
67084 33542
33888 16944
6139 3069
15984 31968
2314 4629
12882 25765
12228 24457
37712 18856
50097 25048
30866 15433
57528 28764
2377 4755
62935 31467
23715 47430
29929 59859
18118 36236
6204 12409
18423 9211
12393 24786
5299 10599
8304 16609
18566 9283
19228 38456
51007 25503
6618 3309
31235 15617
22266 44533
8616 4308
500 1000
59269 29634
63780 31890
369 738
52200 26100
9958 4979
16357 32715
15856 31712
18075 36151
6599 13199
29584 59169
8686 17373
26512 53024
45529 22764
30093 60186
27754 55509
19523 39046
11690 23380
23081 46162
61766 30883
35900 17950
58026 29013
23344 46689
2284 1142
34643 69286
26448 13224
3095 6191
54270 27135
11651 23303
9250 18500
4343 2171
13693 6846
65030 32515
374 749
19486 38972
59363 29681
61771 30885
29314 14657
66261 33130
23624 47248
42530 21265
45091 22545
21724 43448
60357 30178
31951 15975
16016 32032
22665 11332
35584 17792
403 807
15003 7501
33207 16603
29463 14731
18418 9209
26602 13301
33215 66430
20321 40643
18826 37652
6052 12105
31592 63185
28939 14469
20537 41075
17423 34847
6206 12412
43939 21969
30939 61879
28225 56451
27359 54719
15887 31775
10983 21966
21599 43199
28636 57272
41553 20776
19732 39465
9696 19393
25810 12905
52027 26013
50022 25011
13772 27544
63849 31924
27085 13542
6529 13058
56736 28368
10427 20854
30918 61837
1589 794
37525 18762
7346 14692
28022 56045
26668 53337
39005 19502
18691 37383
11357 5678
6762 13524
41200 20600
33976 67952
44222 22111
25409 12704
17149 34299
30083 15041
62679 31339
5579 11159
65423 32711
52484 26242
2264 4529
11825 23651
32729 65459
7463 3731
31324 62649
45148 22574
1205 602
21020 42041
15008 30016
27826 55653
39110 19555
45617 22808
359 718
59026 29513
4296 2148
34094 68189
1977 988
23150 46301
3603 1801
22830 11415
30361 60722
45851 22925
15261 30522
4570 9141
428 856
54669 27334
16827 33654
19269 9634
13221 26443
441 883
63887 31943
18452 9226
31452 15726
30564 61128
32808 65617
3884 1942
49985 24992
4842 2421
67730 33865
26050 52101
36980 18490
19945 39890
4924 9848
65747 32873
17896 35792
28289 56579
10532 21065
13853 27706
17026 34052
45421 22710
12774 6387
28057 56114
33039 66079
31735 63471
59260 29630
65924 32962
5075 10151
44005 22002
14664 29328
39581 19790
37963 18981
19459 38919
734 1469
31153 15576
4881 9762
10231 20463
8716 17433
47910 23955
52468 26234
17024 34049
20255 40511
7395 3697
52658 26329
718 1436
63922 31961
66347 33173
48232 24116
18921 37843
18172 36345
10450 5225
36807 18403
35915 17957
21100 42200
21037 42075
28045 14022
36143 18071
9361 18722
22473 44946
51488 25744
27373 13686
5038 2519
11370 22741
3108 1554
8917 17834
29928 14964
5229 10459
64224 32112
5536 2768
2030 1015
26985 53971
48063 24031
64639 32319
29653 59307
33832 67665
52783 26391
20944 41888
48536 24268
39981 19990
13726 6863
69157 34578
9856 19712
23073 11536
14551 29103
12344 6172
48134 24067
12339 24679
35760 17880
5730 11461
69202 34601
22685 45371
61464 30732
32034 16017
1831 3663
1791 3582
18416 36833
50005 25002
9424 18849
45942 22971
67593 33796
16993 8496
35786 17893
24531 12265
31889 63779
14123 28246
33042 66085
14185 28370
26715 53430
6801 3400
67989 33994
31421 15710
23783 47567
33268 66537
4248 2124
6447 12895
7932 15865
4632 9264
10239 20478
35965 17982
10547 21094
65928 32964
30287 60574
4957 9914
3488 1744
33499 16749
5390 2695
49360 24680
14392 28785
22392 11196
48987 24493
19607 9803
24471 48943
65083 32541
7981 15963
23116 46232
21624 10812
3276 1638
25103 12551
18284 36569
15218 30436
25307 12653
28362 56724
40108 20054
15628 31256
44761 22380
138 277
55498 27749
61500 30750
21780 10890
562 1124
12819 25638
65446 32723
44432 22216
19337 38674
930 1861
25120 50240
22655 45310
20516 41033
24046 12023
18435 9217
63373 31686
35035 17517
21482 42965
39247 19623
59787 29893
23537 11768
14511 29022
55736 27868
26454 52908
58130 29065
15408 30817
5442 10884
5197 2598
37392 18696
23232 46465
2283 4566
29633 14816
50415 25207
31829 63658
13973 27946
20414 40829
38083 19041
1035 2070
38439 19219
16180 8090
25157 50314
12202 24405
54372 27186
18692 37385
7463 14927
44117 22058
52144 26072
3487 1743
16376 32752
63633 31816
19193 38386
46657 23328
2729 5458
53162 26581
30597 15298
58200 29100
27867 13933
62216 31108
1846 923
5570 11141
17463 34927
7054 14109
65786 32893
97 194
9058 18117
27876 55753
8833 17666
32703 65406
19141 9570
10738 21476
53280 26640
12448 24896
1807 903
9387 18774
10434 20868
25731 12865
26841 53682
11031 22062
5151 10303
40625 20312
40238 20119
22270 44540
20140 40281
1956 978
24931 49862
22780 11390
7897 3948
14863 29727
23991 47983
9653 19306
51929 25964
25679 51359
14961 29923
24368 12184
35745 17872
13582 27165
30243 60486
9553 4776
6234 12469
1870 3741
11232 5616
56733 28366
20300 40600
47704 23852
12710 6355
9313 4656
7281 14563
13864 27728
18295 36590
20076 10038
69294 34647
3937 7874
15214 7607
10217 5108
12513 6256
26710 13355
25006 50013
51189 25594
8500 4250
24712 49424
6584 13168
30978 61957
10485 20971
31123 15561
26223 52446
26134 13067
32505 16252
6124 12249
62171 31085
61035 30517
8770 4385
28687 57375
33245 66491
27720 13860
16615 33231
467 935
25664 51329
23995 47990
21628 43257
26090 13045
27842 55685
9342 18684
37564 18782
11923 23847
30791 61583
55473 27736
593 1186
23518 11759
15858 7929
23482 46965
57006 28503
52490 26245
25771 51542
28311 56623
27414 13707
21202 42404
39261 19630
36385 18192
21077 42155
65278 32639
1893 3787
52457 26228
21537 43075
33767 16883
18154 36308
67010 33505
2939 1469
11064 22128
8972 17945
31431 62863
27032 13516
14403 28807
13293 26586
5918 11837
9233 18466
58777 29388
23660 11830
11607 23214
45623 22811
8322 16644
38447 19223
24976 49952
1975 3951
47488 23744
30119 60239
7678 15356
9832 4916
26728 53456
15945 7972
52427 26213
17827 8913
31572 15786
29008 58017
48038 24019
59082 29541
12285 24570
18011 9005
13392 26785
11951 23903
23336 46672
3557 7115
26345 52690
56782 28391
21393 42786
12052 6026
27745 55491
22183 44367
5173 10346
33824 67648
22465 44930
21474 42948
7201 3600
30750 15375
4015 8031
24677 49354
29036 58072
53425 26712
28875 57750
31241 62483
6878 13756
21111 42223
7598 3799
30251 60503
18283 36567
56028 28014
25252 50504
17479 8739
57911 28955
65906 32953
8772 17544
24080 48161
67249 33624
14607 29214
27569 55138
22754 11377
1609 3219
24657 49314
2605 5210
22171 44343
5820 2910
42177 21088
21518 10759
8433 16867
2080 4160
38033 19016
53806 26903
50748 25374
33917 16958
1466 733
45611 22805
26438 52876
65853 32926
573 1146
29843 14921
15549 31098
27279 54558
64420 32210
32830 16415
43779 21889
29177 14588
63868 31934
55197 27598
5641 2820
31015 62030
15077 30155
31082 62164
67817 33908
18632 37264
32388 16194
45457 22728
21296 42592
9940 19880
1346 2693
35876 17938
32107 64215
17404 8702
1600 800
36660 18330
39346 19673
355 710
26247 13123
66126 33063
18209 36418
56341 28170
15701 31402
68949 34474
29776 59552
28413 56827
33157 66315
29200 58400
36592 18296
66941 33470
27549 55099
2777 5555
32771 16385
41679 20839
6713 3356
14212 7106
8320 16640
7961 3980
63947 31973
30864 61729
32670 16335
22516 45032
25724 51448
9825 19650
8296 16592
28773 57547
16639 33278
33360 16680
21192 42385
19552 39105
15655 7827
54614 27307
54024 27012
29806 59612
21213 42426
3588 7177
8574 4287
24787 49575
4325 8650
42870 21435
30265 15132
25325 50651
18447 36894
33786 16893
17795 35591
5864 11729
9567 4783
16914 33828
21107 42214
44429 22214
21187 42374
47358 23679
49850 24925
6985 3492
7069 3534
69329 34664
16465 32931
56217 28108
15086 30173
9071 18142
39772 19886
34599 69199
45 22
24252 48504
29506 59012
34389 68778
50295 25147
5023 10047
35878 17939
7131 3565
27727 55455
11277 22555
37546 18773
36430 18215
25163 50326
6770 3385
4427 8855
13711 6855
25734 51468
4445 8890
32717 16358
20673 41346
24841 49683
921 1842
23799 11899
51372 25686
3644 7289
667 1335
30703 15351
2609 1304
25995 51991
26359 13179
4628 9257
11349 22699
23696 47393
11543 23086
13986 27973
23488 46976
14987 29974
10425 5212
25645 12822
23632 11816
62524 31262
666 1333
12717 6358
6767 13534
496 992
17226 8613
47799 23899
9837 19674
12684 25368
16494 32989
26783 53566
25121 50243
37333 18666
11665 23331
42421 21210
29238 58477
28177 14088
33554 67108
19381 38762
17075 34150
5007 2503
36438 18219
518 259
61602 30801
54315 27157
24468 48937
17205 34410
67144 33572
21256 10628
9322 4661
19669 39339
17510 35020
32265 64530
12108 24217
61637 30818
25820 51640
5611 2805
67772 33886
29395 14697
32363 64726
35252 17626
51293 25646
6861 13723
9828 19656
56788 28394
384 192
32224 64448
30194 15097
54695 27347
13124 6562
44342 22171
64747 32373
64546 32273
31299 62598
24375 12187
25405 50810
34205 68411
64406 32203
15714 31429
2874 5748
59480 29740
17925 8962
33926 16963
62044 31022
23598 47197
11243 5621
58700 29350
17695 35391
24390 48780
14546 29092
34908 17454
3099 6199
2222 1111
13410 6705
14104 28208
52931 26465
15189 30379
37255 18627
19119 38238
30445 15222
18105 36211
29946 59892
57863 28931
29468 58936
34454 17227
10883 21767
609 304
20012 40025
1633 3267
12464 24929
17862 35724
23652 47305
13459 26919
24418 48836
59772 29886
55289 27644
44821 22410
26368 13184
32059 64118
15856 7928
12815 25631
9607 19215
18835 9417
2731 5463
30497 60995
33588 67177
21085 10542
9514 19028
7223 14446
3948 7896
1628 3256
14513 7256
43509 21754
11409 22819
10413 20827
32384 64769
31106 62213
14601 29203
5976 2988
29722 59445
7242 14484
35865 17932
58515 29257
12835 25671
51547 25773
2524 5049
3693 7386
41634 20817
27664 13832
19201 9600
33124 66249
10503 21006
32644 16322
15740 31480
37377 18688
9027 18055
54857 27428
29066 14533
24492 48984
3768 1884
5801 11602
3712 7425
22036 44073
32158 64316
13849 27699
6077 12154
30215 60430
29781 59562
26938 53876
2100 4200
15914 7957
30246 15123
10886 5443
12995 25990
6006 12013
16291 8145
2886 5772
10979 21958
66280 33140
9390 18781
8327 16654
18727 37454
7791 15583
27901 55802
37775 18887
55223 27611
30088 60176
28386 14193
10139 20278
29648 59296
41302 20651
60122 30061
28068 56137
56671 28335
32085 16042
22471 44943
28943 57887
30605 61210
29823 59646
34272 68545
34012 68024
6674 13349
30372 60745
9985 19971
26639 53278
4993 2496
40794 20397
11773 23547
1691 3382
40610 20305
3177 6355
66289 33144
7209 14418
11097 22195
5295 10590
19333 38667
63925 31962
14209 28419
23598 47196
15558 31117
18369 36739
18534 37069
17142 34285
5051 10102
27270 54540
7889 15778
29550 59101
16481 8240
30209 60418
32247 64495
17837 35675
31466 62933
23439 11719
30194 60388
8601 4300
30148 15074
7315 14631
4370 8741
26545 53090
13135 26270
50280 25140
6351 3175
32491 64982
5341 10682
24443 48887
41744 20872
16456 32913
13669 27339
40677 20338
33371 66742
6260 12521
23721 47442
15390 30781
3635 1817
40302 20151
20564 41128
23843 47687
30612 61224
18960 37920
10473 5236
19652 9826
6771 13543
8137 16275
2230 4460
9962 4981
3513 7026
32552 16276
24029 48058
1987 3974
6642 13284
10177 20355
5113 2556
27469 13734
51936 25968
24832 49665
39879 19939
7672 15344
37151 18575
6512 3256
51473 25736
51228 25614
26060 13030
21905 43810
48922 24461
16826 33652
15373 30747
12139 24279
12882 25764
30923 61846
22863 11431
49324 24662
27724 55449
21076 42153
21153 42307
3728 7457
15168 7584
62460 31230
10507 21015
11924 23849
27965 55930
22758 45516
33622 67245
7023 3511
15392 30784
65583 32791
25189 50378
14631 29262
53123 26561
59928 29964
23424 46849
26033 13016
39300 19650
21215 42430
15808 31616
23780 47561
65120 32560
6389 12779
329 164
3521 1760
29748 59497
29947 59894
57358 28679
13250 6625
7375 14750
44093 22046
9286 4643
19511 39022
18886 37773
27438 54876
11081 22162
3967 1983
2629 5259
16011 32023
33837 67675
24934 49869
7808 15617
6338 12676
21423 42846
14157 7078
32791 16395
23517 47034
36509 18254
60415 30207
14614 7307
7984 15969
64424 32212
5309 10618
15747 7873
35466 17733
89 44
15484 30968
1054 527
46749 23374
9927 19854
19566 39132
23122 46245
5711 2855
12048 24097
12215 6107
17392 34784
32530 16265
66305 33152
17554 8777
26371 52743
17243 34487
24283 48567
22741 45483
6908 3454
33504 67009
31866 15933
23009 11504
2634 5269
34137 68274
29717 59435
32835 65671
3025 6051
39579 19789
43205 21602
9776 19553
18313 9156
18108 36217
2881 5763
20157 10078
12810 25620
20899 41798
40563 20281
23769 11884
120 241
58367 29183
45829 22914
28620 57241
2927 5854
34224 68448
17592 8796
55606 27803
359 719
12597 25195
50177 25088
16437 32874
32751 65502
6975 3487
3850 7701
10524 21048
67957 33978
48618 24309
1575 787
56036 28018
292 585
12215 24431
5300 10600
21734 43469
20180 40361
12086 24173
3857 7714
26870 53741
3040 6081
32295 64591
34018 17009
19302 9651
23219 11609
5861 11723
26376 13188
10286 20572
15005 7502
1678 839
2082 4165
3031 6062
23724 11862
7478 3739
14790 29581
47750 23875
28986 57973
23538 47076
13071 6535
37637 18818
25571 12785
53085 26542
18487 36975
55863 27931
19278 9639
66143 33071
59341 29670
42022 21011
22875 45750
63056 31528
17175 8587
1812 906
23171 46343
10730 5365
38235 19117
28908 14454
41487 20743
22092 44184
16921 8460
16925 33851
30914 61828
16629 8314
43970 21985
69207 34603
3140 6280
13833 27666
5855 2927
23015 46031
21650 43301
6734 13469
9836 19672
50902 25451
22755 45510
187 374
16089 32178
54135 27067
231 462
13452 26905
11346 5673
7636 15272
66690 33345
20833 41667
58849 29424
11332 22664
7745 15491
9897 19795
4567 9135
11225 5612
17625 35250
34308 68617
3236 6473
95 190
34335 68671
6011 12023
10558 5279
31245 62491
31182 15591
35172 17586
44023 22011
21199 10599
8355 16710
64791 32395
66957 33478
64624 32312
25339 50679
31955 63911
1903 951
10706 5353
48315 24157
27291 54583
21101 42203
37956 18978
52786 26393
22670 45341
15693 7846
18146 36292
47388 23694
65551 32775
56069 28034
7591 15183
6226 12453
60131 30065
14691 29382
3686 7373
23934 47868
3335 6670
5895 2947
29194 14597
22615 45231
5106 10213
4443 8886
19535 9767
42517 21258
31219 62439
65905 32952
52059 26029
22842 45685
30647 61295
63168 31584
39990 19995
8629 17258
2616 5233
17453 34906
2932 5865
525 1051
9047 4523
7129 14258
32174 16087
18143 36287
30866 61733
32515 16257
18388 36776
38326 19163
8437 16874
7529 3764
46811 23405
33209 16604
67749 33874
14478 7239
17514 8757
14792 29584
10113 20226
54636 27318
21130 42261
26733 53466
20275 40551
30670 61340
20020 40040
2274 4549
16142 8071
40726 20363
46324 23162
45673 22836
26388 52777
5003 10007
10571 5285
32880 65761
38097 19048
341 682
18774 37548
37851 18925
6263 3131
12967 25934
31230 62461
3628 7256
43099 21549
29780 59560
7848 3924
6578 13156
32520 16260
15084 7542
13934 6967
33391 66782
3270 6540
19109 38218
42222 21111
18754 37509
21829 43659
8876 17753
42729 21364
11530 23061
63309 31654
43369 21684
6073 3036
65404 32702
25413 50827
11641 5820
30783 15391
7644 3822
13091 6545
69251 34625
8603 4301
35469 17734
13175 26350
29420 58840
59674 29837
12110 24221
19329 9664
15164 30328
25859 51719
28211 56423
27529 13764
23592 11796
1470 735
42347 21173
28688 14344
37186 18593
1620 3240
24927 49854
19971 39943
18934 37869
24183 48366
19812 39625
27551 55102
63929 31964
2940 5881
30220 60441
42227 21113
57968 28984
31728 15864
64968 32484
21422 42845
14006 28012
17995 8997
54085 27042
29947 59895
18221 36442
43179 21589
16021 32043
12520 25040
6484 12969
23 46
2390 4781
18868 37736
23193 46386
10509 5254
1781 3563
21401 42803
26831 53662
48065 24032
29756 59513
17401 34802
9174 18349
51894 25947
10489 20978
18757 9378
7835 3917
15649 31298
17274 8637
33284 66569
8673 17347
17135 8567
15182 30364
12130 6065
57460 28730
10625 21250
3298 1649
67704 33852
666 1332
51949 25974
26574 53148
5846 2923
10529 21058
13803 6901
12899 6449
16116 32233
43191 21595
26630 13315
28710 57421
6360 12720
49299 24649
7119 3559
21811 10905
14200 28400
9556 4778
4320 8640
566 1132
9620 4810
28586 57172
23417 46834
11372 22744
34840 17420
15305 30610
17036 8518
2442 1221
20102 10051
17812 35624
32655 65310
20819 41638
43327 21663
66375 33187
29424 58848
3709 1854
5340 10680
32206 64413
18145 36290
47098 23549
30629 61259
19436 38873
27335 54670
36662 18331
24883 49766
54269 27134
8051 4025
49840 24920
19627 39255
65573 32786
33180 66361
21647 43294
21635 43271
46489 23244
12201 24403
49379 24689
58140 29070
33007 16503
27985 55971
26585 53171
27422 13711
30756 61513
56388 28194
5265 10530
28448 56897
14066 28132
66998 33499
25061 50122
21124 42249
14149 28298
8460 16920
17431 8715
1531 765
24432 48865
19593 39187
32971 65942
11384 5692
27827 13913
23932 47865
9479 4739
5779 11558
51057 25528
31885 15942
6197 12395
26272 52544
24638 49276
22697 45395
6595 13191
6679 13358
32778 65557
17906 35813
17988 35977
24287 48575
8884 17769
2940 5880
21776 10888
21181 42363
1804 902
8556 17113
28760 14380
9012 4506
4775 9551
16872 33744
50771 25385
18054 36109
36854 18427
16374 32748
34801 17400
25589 51178
2723 1361
13235 6617
8373 4186
48032 24016
52727 26363
11094 22189
27710 55421
68334 34167
43141 21570
7370 14740
65007 32503
63083 31541
20501 10250
30548 61096
34614 69228
1003 501
27951 13975
21852 10926
8491 16982
20223 40447
16016 8008
12607 25214
18617 37234
13820 27641
42849 21424
29632 59264
5703 11406
32631 16315
6152 12305
3104 6208
33065 66130
31657 15828
5871 2935
60786 30393
55610 27805
42472 21236
4321 8642
4772 2386
42403 21201
64623 32311
26027 52055
55078 27539
10427 5213
12362 6181
11011 5505
66610 33305
36373 18186
31800 63601
49290 24645
48732 24366
5237 10475
24169 48338
25381 50763
33453 16726
23511 11755
3746 1873
15788 31577
4342 8685
16732 33465
36393 18196
24264 12132
21224 42449
59121 29560
4330 8660
8773 17546
35039 17519
23441 46883
30075 15037
28596 57192
11001 22002
26806 53613
9329 18659
33699 67398
11086 22172
6186 12373
54426 27213
8893 17787
28972 14486
19133 38266
46078 23039
198 397
1594 797
25082 50164
21889 10944
25964 12982
12883 25766
33229 66459
50250 25125
24222 48445
44040 22020
34998 17499
67596 33798
57505 28752
16836 8418
32672 65345
39258 19629
33590 16795
29049 58099
2594 5189
8687 4343
17653 35307
26007 52014
6056 12112
27351 54703
28045 56091
36978 18489
33827 67654
26038 52076
11586 23173
12698 25397
3204 6409
32016 64032
13932 27864
12866 6433
23065 46131
9331 18662
56813 28406
16267 8133
44434 22217
22003 44007
42570 21285
18359 36719
53762 26881
61105 30552
33402 16701
16980 8490
40575 20287
50118 25059
30520 61040
33892 67785
47564 23782
30761 61522
19710 39421
31354 62708
26585 53170
25589 12794
10868 21736
11566 23132
22131 44263
32900 65800
58590 29295
13999 27999
46949 23474
28232 14116
13387 26775
16723 33446
31972 63944
56317 28158
6560 3280
45389 22694
54633 27316
2791 5582
65479 32739
28089 14044
7841 15683
24764 12382
17524 35048
4025 8050
51968 25984
6361 12723
31435 15717
6505 13011
20485 10242
51887 25943
65288 32644
4350 8701
33557 16778
31027 62054
17756 35512
34489 68978
1095 2190
17250 34501
28867 57735
23240 46480
20483 40966
55324 27662
52853 26426
45853 22926
10927 5463
17474 34949
2351 4703
33255 66510
62520 31260
39209 19604
6616 13233
32595 65191
1444 722
11668 23337
14739 29479
18915 9457
45713 22856
62823 31411
8208 4104
8119 16238
51413 25706
14980 29961
50068 25034
16004 8002
7588 15177
34987 17493
28878 14439
9959 4979
40660 20330
68123 34061
24916 12458
33001 16500
11887 23775
13059 6529
4770 2385
23741 47483
17073 34146
28303 56607
43701 21850
20837 41674
16857 8428
38265 19132
3042 1521
19940 39880
18953 37906
62619 31309
39824 19912
60727 30363
7479 14959
26933 13466
27323 54646
67434 33717
28979 57958
66593 33296
9110 18220
23899 47798
67334 33667
3011 6022
12053 6026
32960 16480
6131 12262
4326 8653
51926 25963
60889 30444
8865 17731
28114 14057
27540 13770
26894 53789
29228 58456
34557 69115
29531 59063
7888 15777
55978 27989
11545 23090
32674 65349
7045 14090
24087 48174
50031 25015
21541 10770
51304 25652
32889 65778
58137 29068
19811 39622
5963 11927
69142 34571
32402 16201
30711 61422
23914 47829
5125 10250
14945 29890
13654 27308
6512 13024
29758 59516
50170 25085
23572 47145
52863 26431
13096 26193
19199 38398
62298 31149
17976 35953
23556 47112
1971 3943
29416 58833
58957 29478
25689 51379
26294 52589
34085 68170
55852 27926
4483 2241
32173 64346
32065 16032
33587 67175
51159 25579
20429 10214
20649 10324
17610 35220
4295 2147
14907 29815
11046 5523
40862 20431
10354 20708
24012 48024
25741 51482
31891 63782
734 367
56358 28179
26240 13120
14001 7000
23556 47113
2245 4490
7852 15705
2983 5966
32199 64399
25637 12818
11840 23680
30350 15175
698 1396
27056 13528
22531 45062
4964 9928
18647 37294
30950 15475
2846 5693
17998 8999
65302 32651
56826 28413
22979 11489
741 1483
26077 52155
28207 14103
15841 31683
7102 14205
54975 27487
34069 68138
14079 28159
3758 7516
11950 23901
29282 14641
10196 5098
8661 17322
19843 39686
34663 69326
16218 8109
30162 60324
26696 53393
64398 32199
9211 4605
10697 5348
21850 10925
29549 59099
25225 50450
13398 26797
34480 68960
12021 6010
22918 45837
20633 10316
63656 31828
13715 27431
19047 38095
46132 23066
16133 32266
29396 58792
31611 63222
27840 13920
6244 12489
28641 57282
60839 30419
23107 46215
31868 63736
46844 23422
7751 15502
24393 48787
32159 64318
27819 55638
29966 14983
36998 18499
43095 21547
8564 4282
25247 50494
5011 10022
29621 59243
33003 16501
23014 46028
19554 39108
12997 25994
32314 16157
13878 27756
45104 22552
21982 43964
5405 10811
14845 29690
21591 10795
25168 50337
22117 44234
9372 18745
24784 12392
1193 596
5976 11953
28306 56613
26486 13243
4136 8272
1926 963
68733 34366
32252 64505
39592 19796
33997 67995
68762 34381
24886 49772
13743 27487
56625 28312
20414 10207
53093 26546
16661 33323
23352 11676
32957 65914
11620 5810
28436 56872
33903 16951
11149 22298
33623 16811
67794 33897
2416 4832
19833 9916
34490 17245
25261 12630
8772 4386
41430 20715
12670 6335
21055 42111
38059 19029
5267 10535
14150 28300
52726 26363
63494 31747
31145 62290
63799 31899
28394 56789
23210 11605
13554 6777
22165 44331
2960 5920
68873 34436
4236 8472
27434 54869
10557 21114
23014 11507
3028 6056
32914 65828
27526 13763
23 11
5719 11438
12417 24834
26216 52432
2797 5594
52318 26159
28144 56288
9844 4922
18012 36024
5309 2654
32917 65834
39068 19534
45572 22786
21686 10843
9376 18753
6615 3307
41355 20677
28682 14341
59485 29742
11449 22898
27793 55587
9791 19583
4477 2238
43059 21529
34438 68877
22893 45786
20869 10434
8763 17526
32834 65668
12937 25875
15780 31560
5808 2904
49262 24631
11944 23888
25342 50685
13038 6519
2708 1354
64132 32066
5750 2875
57671 28835
32627 16313
11872 5936
15453 30907
20539 41078
19549 39099
53371 26685
27915 55830
62762 31381
33243 66487
3433 1716
25244 50489
1513 756
52510 26255
63690 31845
33093 66187
45298 22649
13702 27404
29207 58415
24109 48218
6811 3405
58582 29291
40047 20023
63284 31642
28263 14131
11235 22470
12660 25320
13694 6847
10428 20857
30170 15085
24022 48045
33337 66675
15839 7919
3836 7672
542 1085
27064 54129
474 949
16944 8472
22357 44714
4721 2360
11334 5667
53551 26775
37144 18572
13882 27765
17902 35805
28153 56306
16030 32061
40725 20362
1296 648
31568 63137
16316 8158
61009 30504
45 91
18556 9278
45868 22934
3815 7630
64902 32451
68823 34411
22138 11069
15059 30118
16109 8054
50523 25261
29910 14955
8362 16724
41510 20755
9980 4990
11310 5655
1892 3784
11605 23211
51849 25924
7994 15988
26762 53524
52733 26366
31327 62655
27613 55227
26407 52814
24643 12321
40085 20042
3811 1905
60765 30382
41394 20697
7140 14280
1524 762
52470 26235
21607 10803
711 1422
26111 52222
49715 24857
30496 60993
8463 16927
28239 56479
21922 43845
56570 28285
38924 19462
9969 19938
6112 12225
12424 6212
46872 23436
28317 56635
33910 67820
30172 15086
14612 29224
49534 24767
29210 58420
31729 63459
30201 60403
1878 3757
12063 24127
14779 7389
39396 19698
11027 22054
33835 16917
19828 9914
35600 17800
33197 66394
9537 4768
55965 27982
58205 29102
22051 44103
31040 62081
31684 63369
36871 18435
43987 21993
64957 32478
36665 18332
29429 14714
63663 31831
40463 20231
15735 31470
46323 23161
66128 33064
5739 2869
27247 13623
12793 25586
34610 17305
13153 26306
17158 8579
44433 22216
18410 36820
33460 66921
15214 30429
15863 7931
69090 34545
32883 16441
10504 5252
17663 35326
29064 58129
1701 3402
14942 7471
8521 17043
43030 21515
17927 8963
28655 57310
51354 25677
20245 40490
24000 48000
21775 43550
1315 2631
6662 13324
7652 3826
3261 6522
15720 31440
15908 31817
26417 13208
22292 44584
30234 60469
28389 56779
2766 5532
13662 6831
31355 62710
62479 31239
37474 18737
9208 4604
13560 27120
26325 52651
25271 50543
12679 6339
57508 28754
7016 3508
21027 42054
20633 41267
5650 2825
49787 24893
13883 6941
27103 13551
63890 31945
61349 30674
22672 11336
25328 50656
6089 12179
24386 48773
39291 19645
32881 65762
48238 24119
2115 4231
32757 65514
1041 2082
33942 16971
7189 14379
23886 11943
51510 25755
26053 13026
27012 54025
9365 4682
23287 11643
53017 26508
21888 43777
49261 24630
65242 32621
27987 55974
4861 9722
14245 7122
885 1771
44571 22285
25576 12788
30647 61294
18395 9197
3753 7507
47004 23502
14542 29084
68613 34306
33261 66522
402 805
34078 17039
20637 10318
57193 28596
19528 9764
11506 23012
12330 6165
29833 59667
29697 59395
20722 41444
6062 12124
37373 18686
45197 22598
20171 40343
25110 12555
59615 29807
63242 31621
2577 1288
1225 2450
52157 26078
28884 57768
14028 7014
22448 44896
60563 30281
52657 26328
17865 35731
44124 22062
5494 10989
30837 15418
6461 12922
65623 32811
39473 19736
32806 16403
9802 19605
67499 33749
11976 23953
21706 10853
38131 19065
6119 12238
7642 3821
7091 3545
67760 33880
21210 10605
50104 25052
27149 54298
19928 39856
23852 11926
12610 6305
11999 23999
16799 33599
39020 19510
11907 5953
6789 13578
68981 34490
20901 41803
6261 3130
28648 57296
21148 42297
30962 15481
7435 14871
7600 15200
67932 33966
21554 10777
66693 33346
32126 16063
9468 18936
63148 31574
44973 22486
4883 2441
43112 21556
57845 28922
31862 63725
2191 4383
55168 27584
16614 33229
18841 37683
7718 15437
868 434
16383 32766
13977 27955
5456 10912
21095 42191
20252 40504
19159 38319
42023 21011
6889 3444
12254 24508
66485 33242
28399 14199
15452 7726
12505 6252
56336 28168
65987 32993
17299 34598
6659 3329
20190 40381
25672 51344
48197 24098
68575 34287
3724 7448
46391 23195
2045 1022
22017 11008
25431 50862
32410 64820
49926 24963
40765 20382
30886 61772
42064 21032
21764 43528
5400 10801
32592 65184
9607 4803
33959 67919
54364 27182
28531 57062
32480 64960
10792 21585
4789 9578
13196 26393
15694 7847
28878 57757
31674 15837
34348 68696
34259 68518
52495 26247
34544 69088
3029 6058
21951 43903
32628 65256
67849 33924
24080 48160
13793 27586
57871 28935
12381 24762
67920 33960
20250 40500
22478 44957
25433 50867
25956 51913
20959 41918
3176 6352
1012 2024
25752 51504
34288 17144
53610 26805
43944 21972
52629 26314
16097 8048
49994 24997
940 1880
22707 11353
11980 5990
5301 10603
18710 9355
8364 16728
12962 25924
9993 19987
4360 8720
43268 21634
62630 31315
9625 19250
28535 57071
26653 13326
49061 24530
22945 45891
43158 21579
11047 22094
31543 63086
8519 4259
19903 9951
13682 27365
67895 33947
2579 5159
29976 14988
11864 5932
26851 53703
15117 30234
14472 28945
18882 37764
34427 68854
10521 21042
771 385
34653 69306
5476 10953
67354 33677
60566 30283
22432 11216
61884 30942
15394 7697
43975 21987
63074 31537
64298 32149
4417 8835
36651 18325
60482 30241
10384 20768
28094 14047
36085 18042
21601 43202
23833 47667
694 347
2199 4399
29619 59238
3234 1617
8936 4468
31600 15800
649 1298
64496 32248
8953 17906
8964 17929
1713 856
22942 45884
13682 6841
14642 29285
6245 12490
7815 15630
48851 24425
35014 17507
49915 24957
2381 1190
51192 25596
2039 4079
18005 36011
13402 6701
37382 18691
54712 27356
51427 25713
14079 7039
56786 28393
52570 26285
8239 16479
16152 8076
63558 31779
41363 20681
24248 48496
3726 1863
25414 12707
24382 48764
38065 19032
64515 32257
19113 9556
26197 13098
34088 17044
65979 32989
4111 8223
21924 43848
31573 63147
26907 53814
17052 34104
24337 48674
3150 6300
15468 30937
41015 20507
24236 48472
8687 17375
24847 12423
5629 2814
13334 26668
63425 31712
28415 14207
24828 12414
978 1957
23486 46973
22206 44413
2349 4699
32922 65845
32411 64823
50840 25420
17476 34953
29983 14991
50725 25362
51623 25811
24995 12497
42975 21487
33433 66867
10415 5207
32319 16159
9051 4525
10699 21398
46739 23369
15782 7891
65164 32582
46077 23038
63273 31636
58357 29178
14920 7460
21331 42663
3089 6179
19374 38749
10048 20097
9747 4873
46045 23022
31809 63619
55116 27558
53376 26688
3749 7499
11183 22367
28327 14163
32360 16180
17654 8827
24703 49407
19512 9756
42103 21051
5885 2942
35764 17882
4063 8127
30745 61491
42270 21135
21674 43348
32852 16426
9169 18339
27486 54973
9909 19818
27897 55795
41283 20641
21231 10615
2244 4488
27856 13928
15222 30444
19749 9874
13852 6926
15254 7627
32246 64493
30559 15279
37133 18566
50466 25233
23869 47739
12988 25976
58924 29462
5773 11547
62111 31055
64901 32450
16621 8310
27348 54697
58044 29022
23491 46983
30486 15243
26967 53935
35418 17709
3027 6054
33949 67899
9660 19320
6309 12618
62252 31126
31490 62981
10251 20502
33562 67125
29167 58334
17592 35185
7513 15027
26403 52807
33998 16999
12950 6475
5852 11705
29873 59747
17359 8679
20444 40888
25798 51597
15604 31209
14890 7445
47549 23774
22882 45765
56834 28417
27892 55785
18246 36493
2231 1115
1175 2351
34031 17015
66398 33199
21690 10845
2780 5561
62411 31205
5925 2962
50208 25104
13029 6514
1224 2449
26589 53179
17246 34492
8738 17476
2482 1241
17345 8672
12568 6284
13072 26145
56982 28491
20204 40409
12903 25806
14788 29577
5735 11470
13322 6661
7673 15347
39482 19741
17180 34360
11040 22081
29344 58688
61649 30824
24727 49455
62470 31235
37716 18858
12553 6276
29813 14906
5499 2749
17405 8702
30037 15018
17168 34336
7628 15256
9988 19976
2983 1491
18777 37554
29310 58620
43415 21707
24684 49369
26042 52085
16817 33634
32928 65856
22908 45816
9266 4633
54479 27239
45119 22559
11202 22404
25029 12514
60673 30336
34328 68656
42582 21291
9145 18290
20549 41098
20597 41195
40752 20376
51521 25760
22486 44972
927 1855
29750 59500
20370 10185
16178 8089
16076 32153
4117 2058
10805 21610
10249 5124
27945 55891
24437 48874
29783 59566
31589 63179
8686 17372
12796 25592
18334 36668
18046 36092
61301 30650
54328 27164
29500 59000
16274 8137
28455 56911
41506 20753
19475 38951
62033 31016
28992 57985
24170 48340
31736 63472
58385 29192
9256 18512
28960 14480
13775 27550
15165 30330
6267 12534
44238 22119
3688 1844
16023 8011
42293 21146
26586 53173
60221 30110
20536 10268
6100 12201
28583 57166
39812 19906
67877 33938
23032 46064
50330 25165
11550 23100
21375 42751
29218 58436
34556 17278
28723 14361
4266 8532
43579 21789
42275 21137
7305 14610
14644 29288
24518 12259
45515 22757
52722 26361
58227 29113
44940 22470
26401 52802
1929 3858
30403 60807
4965 9931
7960 15921
55623 27811
22818 11409
18682 9341
34199 68399
3928 1964
10354 20709
16389 32779
31607 63215
31212 15606
43043 21521
30021 60043
27991 13995
31135 62271
6975 13950
28566 14283
57284 28642
30997 15498
10864 5432
8761 17523
29498 14749
26814 53629
32330 64661
17819 8909
452 226
31343 62686
13179 6589
26012 52024
631 1263
55773 27886
19556 9778
52666 26333
23187 11593
37343 18671
14133 7066
26099 13049
16692 8346
540 1080
49024 24512
9404 18808
805 1611
12052 24104
6968 3484
20057 40114
18740 9370
34556 69112
58131 29065
60183 30091
10172 5086
30392 60784
57155 28577
41474 20737
67086 33543
14295 28591
6678 3339
14618 29236
26721 13360
55636 27818
61334 30667
24050 48101
16356 8178
27941 13970
13681 27362
66985 33492
64389 32194
22293 44586
32367 64735
42295 21147
12821 25642
1527 3055
6614 13229
37602 18801
16464 32928
5205 10410
69325 34662
14350 28701
36461 18230
32949 16474
31819 63639
25743 12871
35440 17720
24860 12430
16525 8262
34261 68522
23015 11507
54268 27134
21023 10511
33836 67672
20530 10265
5290 10580
51972 25986
68193 34096
31340 62680
33927 67855
31976 63952
25987 12993
3645 1822
19896 39792
3265 1632
32635 16317
9699 19398
48581 24290
1547 3095
46027 23013
4020 8040
5528 2764
17470 34940
3691 7383
12418 24836
20004 40009
14260 28521
9287 18574
10898 21797
20879 41758
51829 25914
32284 64569
23722 11861
21394 42789
27608 13804
3146 6292
45174 22587
27837 55675
49322 24661
58136 29068
64133 32066
65678 32839
15708 31417
15881 31763
11717 23434
7007 14015
11734 23468
9132 18264
12208 24417
64816 32408
38164 19082
23589 47179
55605 27802
1509 754
53899 26949
31405 62811
26626 53252
33041 66083
21170 42340
11175 5587
19501 9750
386 193
44113 22056
68435 34217
43343 21671
11224 5612
20316 10158
16560 33120
5830 11661
12967 6483
42973 21486
10704 21409
30357 60715
16700 33400
38970 19485
3368 6737
55246 27623
11546 23092
18219 36439
10631 5315
30735 15367
14063 7031
9987 4993
12121 6060
32401 64802
21431 10715
33812 16906
21100 10550
53560 26780
1863 931
9884 19769
6877 13755
31408 62816
1453 726
22241 11120
12723 25447
31938 15969
57825 28912
18542 9271
55226 27613
19977 39954
34418 68836
47279 23639
34638 69277
12146 24292
293 146
4359 8719
64534 32267
43580 21790
14244 28488
8055 16111
25005 50010
32873 65746
12745 6372
7970 15940
31785 63570
53903 26951
18102 36204
48914 24457
22328 44657
39642 19821
67156 33578
46 93
12301 24603
62289 31144
1021 2043
8283 4141
2733 5466
25991 12995
11060 5530
52900 26450
57918 28959
16327 32655
40 20
4526 9052
37830 18915
13508 6754
14605 29210
5482 10964
25762 51524
63865 31932
7654 15309
24948 49897
10934 5467
17608 35217
40952 20476
25655 12827
2529 5058
6006 12012
29923 59847
24830 49660
11006 5503
22396 11198
31079 15539
47658 23829
15893 31786
17123 34246
1910 955
46464 23232
20908 10454
43420 21710
8806 17613
67745 33872
19410 38821
56640 28320
62418 31209
32665 65331
17748 35497
23516 47033
2073 4147
48667 24333
4826 9653
54040 27020
16866 33733
44914 22457
15163 30327
40466 20233
5062 10124
4068 8136
3430 6860
280 140
1409 704
15991 31982
5146 2573
32006 16003
31122 15561
15250 7625
31355 62711
31587 15793
10018 20037
25804 51609
21851 43703
59834 29917
14403 7201
51809 25904
9131 4565
8233 16466
27395 54791
6025 12051
29858 59717
63088 31544
44705 22352
12804 25609
9482 4741
66210 33105
49316 24658
8409 16819
3074 6148
19946 9973
7115 14230
4044 8088
12113 24227
1187 2374
234 117
11269 22539
17958 8979
46221 23110
11290 22580
31234 15617
26475 13237
49480 24740
13325 6662
31159 62318
7311 3655
15613 7806
2803 5606
56417 28208
27374 54748
3096 1548
7235 14470
50625 25312
58155 29077
12844 25688
4422 8844
30830 15415
27093 54186
26013 52026
14379 28759
4326 8652
21936 43873
20850 41701
55641 27820
4966 9932
62050 31025
29264 58528
3786 7572
53386 26693
49390 24695
23763 11881
8359 4179
9151 18303
2447 4894
34450 17225
28344 56688
19440 38881
18362 36724
28971 14485
20498 40996
24060 48121
1484 742
29140 58280
4322 8645
55559 27779
34374 68749
3552 7104
49583 24791
23352 46704
33339 66678
17001 8500
58154 29077
9555 19110
29995 59990
52627 26313
46034 23017
33450 66901
3684 1842
56401 28200
37866 18933
33196 66392
13501 6750
59388 29694
49274 24637
37406 18703
54071 27035
23776 47553
5487 10974
51206 25603
6675 3337
21463 10731
8655 17310
16416 32832
31147 62294
23311 11655
67939 33969
43915 21957
15448 30897
14073 28147
26671 13335
22242 44485
6791 13583
29272 14636
33262 16631
9884 4942
1249 2498
60909 30454
30862 15431
16993 33986
3559 7118
11665 5832
25665 51330
17992 35985
60351 30175
19137 38274
33853 67707
9550 19100
52421 26210
5492 2746
26171 52343
18571 37143
15466 30933
33760 16880
26887 53775
50545 25272
47728 23864
26188 52376
6825 13651
33379 16689
7727 3863
8076 4038
8899 17799
31089 62178
28110 56221
25401 50803
18883 37766
4041 2020
1155 577
11453 22906
2987 5975
27202 54404
20135 10067
60986 30493
34524 69048
50769 25384
20125 40250
40010 20005
27311 13655
20539 10269
11111 22222
56657 28328
17456 8728
23890 47781
65811 32905
10503 5251
23540 47081
15835 31671
9704 4852
37297 18648
7396 3698
4741 9483
228 457
23945 47891
5338 10676
25255 50510
16120 32241
54080 27040
11845 5922
1849 3698
19518 39036
860 1720
27938 55876
11821 23643
23298 46596
12404 24808
14007 28015
2453 1226
13087 26175
52550 26275
15015 30030
9078 18157
35151 17575
34286 68573
19219 38438
24924 49849
30922 61845
13722 6861
18460 36921
1013 506
23278 11639
57244 28622
19395 9697
11576 23152
48526 24263
58404 29202
27465 13732
21821 43643
16083 32166
3112 6224
48011 24005
11469 5734
21055 10527
16069 32139
13172 26345
43372 21686
3899 7799
39157 19578
66400 33200
21041 10520
55860 27930
27848 13924
30624 61248
21448 10724
39130 19565
5439 10878
40034 20017
25248 50497
13154 6577
33578 16789
9960 4980
332 665
58239 29119
60397 30198
55447 27723
68542 34271
68895 34447
30248 60496
13794 27588
54519 27259
31503 63007
23338 46676
59642 29821
35008 17504
66834 33417
35888 17944
54527 27263
10850 21701
2877 5754
37312 18656
35366 17683
20434 10217
17247 8623
33211 66423
21498 10749
21491 42982
28478 14239
22049 11024
20973 41946
68137 34068
13028 26057
30342 15171
19799 9899
23146 11573
66691 33345
6551 13103
15260 7630
5711 11422
19048 38096
23120 46241
8178 16357
16543 33086
31970 15985
2308 4617
19434 9717
60163 30081
41496 20748
1271 2542
38648 19324
31805 63610
41204 20602
34181 68362
9881 4940
12726 6363
58921 29460
7671 15343
33263 66527
3406 6812
7988 15977
29319 58639
62503 31251
25240 50480
60067 30033
31876 63752
5414 2707
3502 1751
17233 8616
13923 27847
11410 22820
59464 29732
50797 25398
26870 13435
62449 31224
24812 12406
31051 62103
11396 22792
15121 30242
33953 67906
24031 12015
47642 23821
18573 37147
27474 54948
36188 18094
32334 16167
10788 21576
20005 40011
472 945
26599 53198
6065 12131
6173 3086
25958 51916
25837 12918
54737 27368
31909 63818
21865 10932
130 65
38948 19474
31031 15515
43730 21865
18027 36055
12528 25056
66043 33021
8135 16270
27152 54305
11195 5597
58245 29122
6946 13893
4132 8265
16019 8009
47487 23743
23583 47166
7388 14777
19655 39310
4027 2013
49799 24899
28082 14041
8977 17955
31561 63122
24613 49226
7042 3521
48040 24020
50086 25043
19176 38353
12263 6131
33629 16814
19271 9635
43147 21573
24920 49841
31277 62554
31316 62632
45925 22962
43250 21625
11533 5766
39874 19937
3968 7937
17466 34932
17805 35611
34514 69028
20852 41704
60528 30264
19245 9622
30184 15092
65237 32618
25822 12911
26660 13330
31971 63942
6215 12430
32804 16402
10748 21496
68615 34307
66188 33094
30329 15164
1590 795
21708 43417
27014 54029
10420 20840
55960 27980
6083 12166
16748 33496
7433 3716
66440 33220
12949 25898
10572 5286
28927 14463
22586 45172
65319 32659
51932 25966
15150 7575
36861 18430
25832 51664
36379 18189
1597 798
43315 21657
41464 20732
32795 65591
30482 60965
32584 16292
12937 25874
51996 25998
1549 3099
56391 28195
7792 15585
60302 30151
32404 64809
26580 53161
35739 17869
21859 43719
53784 26892
40561 20280
21064 10532
25342 50684
30909 61819
784 1568
10946 5473
50393 25196
1928 964
66609 33304
13393 6696
22069 44139
28128 56257
5076 2538
33351 66702
40696 20348
19197 38395
19460 38920
11297 5648
16388 8194
24976 12488
26353 13176
19875 9937
13302 26605
32410 64821
31551 63102
65916 32958
7394 14788
26570 53140
19623 39246
17966 8983
30703 61406
9138 18276
61808 30904
48209 24104
16191 8095
10110 5055
26364 52728
65153 32576
11296 22593
3466 6932
3955 1977
30409 60818
14873 29747
6223 3111
31924 63848
65622 32811
17631 35262
42978 21489
62532 31266
21370 10685
25693 51387
15005 30011
25521 12760
49287 24643
30750 61501
56710 28355
10519 21039
2993 5986
6799 13599
62871 31435
31597 63195
33371 16685
2980 5960
14059 28118
12253 24506
13675 27351
20742 41484
15983 31966
3711 1855
24316 48632
23998 47996
19816 9908
1404 702
31699 63399
14316 28632
11349 22698
5394 2697
12204 6102
3883 7767
52290 26145
13619 27238
21298 10649
62838 31419
65851 32925
28111 14055
11873 5936
2912 1456
39952 19976
21113 42226
27583 55167
13178 6589
40592 20296
13442 6721
32145 64290
68475 34237
13868 6934
11587 5793
26085 13042
65860 32930
5454 10908
22277 11138
17940 35881
34033 68066
18254 36508
7818 15636
29231 58463
41067 20533
10992 5496
40276 20138
49744 24872
41031 20515
41783 20891
26311 13155
41223 20611
35394 17697
36761 18380
1882 3764
30244 60488
30616 15308
23566 11783
54010 27005
18668 37336
3962 1981
56302 28151
16095 32191
56242 28121
9503 4751
11087 22175
42817 21408
3306 6613
27454 54909
14239 28479
16781 8390
33719 16859
11486 22973
30901 61803
16271 32543
12381 6190
13227 26455
54427 27213
23096 11548
6564 13129
9012 18024
15420 7710
34394 17197
23270 46541
26269 52538
9750 4875
24483 48967
33483 16741
50723 25361
14012 28024
19574 9787
8291 16582
16055 32110
8769 17539
17149 34298
2192 4384
9673 4836
13672 27345
6213 12427
36713 18356
11725 23451
20104 40208
15592 31184
25344 50688
6328 3164
15241 30483
7357 14714
67624 33812
17534 35069
55973 27986
22224 44448
4491 8982
65342 32671
26032 13016
2254 4509
374 748
37285 18642
27883 55767
34793 17396
17112 34225
10939 21879
21590 43180
45520 22760
9227 18454
40650 20325
66629 33314
21049 42098
33538 67077
19473 38947
25583 51166
12691 25383
18371 36743
12466 6233
3954 7908
30360 60721
32068 16034
64746 32373
1798 3597
54932 27466
39059 19529
68983 34491
23125 46251
6238 3119
68958 34479
17673 35347
4964 2482
33292 66584
7359 3679
966 483
11908 5954
19452 38905
5250 10500
11464 22929
3506 7013
49395 24697
47409 23704
32489 64978
19515 39030
65304 32652
268 537
40352 20176
29306 14653
28041 56082
14791 7395
29730 59460
36788 18394
79 159
38888 19444
16224 32448
3090 1545
55884 27942
34133 68267
50058 25029
45445 22722
20392 10196
35801 17900
2839 5678
58206 29103
17680 35360
3160 6321
43791 21895
42321 21160
65388 32694
33866 16933
19233 38466
68462 34231
16489 32979
31042 62084
49239 24619
13295 26590
25438 50877
13987 6993
28299 56599
24789 12394
65982 32991
9540 4770
63452 31726
30543 61086
24460 48920
50324 25162
47414 23707
37263 18631
1675 3350
24451 48903
9053 18107
5404 10809
7277 14554
25175 12587
5111 10222
25498 12749
26965 53930
26117 52235
18655 37310
44006 22003
25297 50595
6176 12352
42483 21241
9602 19204
28241 14120
15204 7602
17698 8849
25064 12532
32544 16272
9008 18017
17979 8989
32589 65178
62667 31333
4154 8309
18735 9367
21646 10823
29362 58724
4088 2044
19562 39124
36690 18345
21527 10763
2902 1451
24693 12346
21407 42814
29029 58059
56315 28157
11499 22999
28697 14348
29617 59234
5293 2646
34431 68863
14314 28629
18911 37822
21530 10765
17139 34279
33901 16950
30861 61723
15315 30630
23422 11711
34539 17269
58727 29363
5950 2975
1536 768
13513 27026
55670 27835
33763 67527
20093 40187
21073 10536
67369 33684
23202 11601
28577 14288
17809 8904
18243 36486
15357 30714
18984 9492
41834 20917
11995 23990
47607 23803
23314 11657
46706 23353
23986 47973
40756 20378
49027 24513
24643 49286
24242 48485
49582 24791
21752 43504
47830 23915
21462 10731
32542 16271
32587 65174
48406 24203
66021 33010
56375 28187
10355 20711
54235 27117
27929 13964
6045 3022
31781 63563
14607 29215
26930 53860
41775 20887
19014 9507
2282 4565
28141 14070
15354 7677
19830 9915
13701 6850
17202 8601
41977 20988
76 152
62422 31211
31186 62373
12744 6372
26987 53975
16319 32639
30403 60806
23279 11639
18192 9096
18159 36318
13996 6998
29686 59372
29540 59081
37899 18949
65932 32966
67464 33732
34590 17295
31822 63644
32724 16362
11878 5939
699 1399
3030 1515
22190 44381
13401 6700
44549 22274
2742 1371
19810 9905
37469 18734
427 213
15503 31007
23854 11927
11872 23744
4325 8651
36377 18188
44771 22385
65865 32932
40416 20208
26490 52981
30463 60926
54931 27465
5112 10225
58753 29376
8484 16968
14242 28485
13403 26806
65000 32500
32813 65626
7671 15342
38209 19104
19943 39886
29640 14820
16441 32882
26511 53023
18586 37172
11460 22920
26088 13044
52668 26334
25824 51649
20574 41149
8213 16427
23944 47889
37839 18919
33458 66916
19596 39193
24554 49109
25741 12870
52487 26243
12034 24068
30479 60959
63271 31635
3119 6239
28042 14021
31459 62919
382 765
2150 4300
29795 59591
32474 64948
13369 26739
30472 60945
25405 12702
31884 63769
32074 64148
13676 6838
12157 24314
10299 5149
21733 10866
43551 21775
46233 23116
9172 18345
19502 9751
30671 61343
20997 41995
31935 63870
728 1456
23812 47625
15370 30741
38572 19286
10004 20008
9910 19821
28193 56386
60250 30125
18382 36765
12189 6094
24342 48684
24134 48268
28425 56850
18989 9494
30133 60267
21447 42894
37037 18518
44687 22343
32890 65781
2671 5343
2975 1487
16101 32203
17766 8883
58013 29006
20506 41012
39069 19534
13691 27382
9594 4797
20510 41021
50809 25404
5359 10718
34168 17084
65952 32976
29371 14685
509 1018
32151 64303
3114 6229
31649 63298
5510 11020
3124 6248
16737 33475
21649 43298
69122 34561
5331 2665
9982 19964
33190 66380
15535 31070
55434 27717
52764 26382
59054 29527
64829 32414
12736 25473
16866 33732
43479 21739
11490 22981
1645 3290
6630 3315
7485 14970
67886 33943
7489 14979
31746 63493
3729 7459
50931 25465
27790 55580
22014 11007
54032 27016
32586 65172
879 1758
20318 40636
33945 67891
61943 30971
31981 63963
67725 33862
2049 1024
29512 59025
17019 34038
16442 32884
34301 17150
60364 30182
13955 6977
54693 27346
20746 10373
7033 14067
67863 33931
13840 6920
32451 64903
12367 24735
60431 30215
43591 21795
23197 46395
16756 33512
43865 21932
63149 31574
7817 3908
40667 20333
24629 49258
12294 24589
58959 29479
13756 27512
3500 7001
40955 20477
18766 37532
53919 26959
45160 22580
3829 7658
4678 2339
28046 14023
24347 12173
21630 43261
1968 984
32124 16062
5164 2582
14709 29418
33058 16529
25284 50568
15582 31165
6581 3290
10765 5382
27821 55643
23553 47106
32635 65270
33291 16645
40435 20217
50054 25027
11520 23041
57618 28809
17378 8689
15735 31471
26286 13143
23410 11705
10241 20482
31490 15745
33742 16871
32243 64487
15006 30012
19572 39144
19935 39870
53013 26506
54756 27378
35221 17610
26999 53999
66421 33210
25878 12939
14773 29546
14213 28426
31336 62673
48237 24118
64271 32135
67574 33787
7753 3876
49721 24860
16836 33672
46719 23359
22348 44697
45544 22772
20656 41312
17998 35997
33154 16577
16476 8238
31114 62228
4771 2385
31600 63200
30720 61440
18602 9301
35989 17994
27661 55323
29641 14820
22927 45854
1759 3518
20759 10379
6488 12976
19995 9997
22870 11435
33041 16520
19003 38006
33522 67044
30319 60639
67254 33627
39506 19753
20947 41894
28712 57425
56664 28332
14911 7455
23510 47020
30403 15201
14212 28425
24371 48743
40819 20409
18193 36387
3534 1767
21350 42701
49655 24827
9537 19074
14326 28652
17639 8819
15507 7753
29797 14898
22355 44711
29907 59814
21086 10543
19766 39532
134 268
18538 9269
33069 16534
17164 34329
44944 22472
36683 18341
18947 37895
31108 62217
12104 24208
33964 16982
11061 22122
28192 56384
54818 27409
48167 24083
28879 14439
42680 21340
40427 20213
29837 59675
4488 8976
56497 28248
7015 14031
11146 22292
18985 37971
8904 4452
15930 31860
7241 14483
18117 36234
29694 14847
19809 39619
2207 4415
21211 42423
11893 23786
31665 63331
32694 65389
3935 7871
10515 21031
55361 27680
37523 18761
21154 42308
13190 26381
5325 10651
62474 31237
29463 58926
50165 25082
38405 19202
3491 1745
6091 12183
9177 18355
11154 5577
43275 21637
26885 53771
10839 21678
11342 22685
7407 14814
16715 8357
10441 5220
22677 45355
7454 14908
692 346
9679 19358
32120 16060
26949 13474
42746 21373
3453 6907
22196 11098
24264 48528
35850 17925
67972 33986
24015 48030
14182 7091
26593 53186
35475 17737
59713 29856
18466 36933
28959 57919
24477 48955
19474 9737
52348 26174
6072 12145
17784 8892
57722 28861
62389 31194
60317 30158
46568 23284
45679 22839
22415 44830
11112 22224
38528 19264
13319 26638
20217 10108
40014 20007
39224 19612
19144 38288
49342 24671
58105 29052
35928 17964
8832 17665
56617 28308
32968 65936
2694 5389
30438 60876
11061 5530
66810 33405
60181 30090
3083 6167
21227 10613
40323 20161
1373 2746
56981 28490
11271 22543
19021 38042
25457 50915
69324 34662
5686 11373
14499 28999
17692 8846
34100 17050
42781 21390
35092 17546
51024 25512
11992 23984
8827 17655
15619 7809
63364 31682
27934 13967
31471 62942
62131 31065
20838 10419
2054 1027
64851 32425
18081 9040
16112 32224
3405 6810
17261 34523
2555 1277
12938 25877
29307 58615
20213 40426
50991 25495
19407 38815
5656 11312
40421 20210
2010 1005
37806 18903
25819 12909
2499 4999
48996 24498
43565 21782
18855 37711
22997 45994
36156 18078
6969 13938
66741 33370
7930 15860
29311 58622
22386 44773
19087 38174
62628 31314
17539 35078
3386 6772
9410 18821
43280 21640
21132 10566
17935 8967
21166 42333
32729 16364
22623 11311
26511 53022
29329 58659
32315 16157
53263 26631
25047 50095
54811 27405
30922 61844
5035 2517
39612 19806
291 145
19368 38737
51255 25627
41518 20759
7502 3751
47431 23715
37258 18629
43523 21761
19980 9990
6987 3493
13265 26530
60292 30146
22608 11304
23416 11708
31373 62746
18006 36013
62882 31441
25987 51975
24 49
51511 25755
28871 57743
31312 62625
44918 22459
26338 13169
16317 8158
36046 18023
13892 27785
48071 24035
66429 33214
27436 54872
32477 16238
5352 2676
15489 30978
19567 39134
11201 22403
538 1076
59223 29611
17468 34937
65901 32950
23382 46765
52902 26451
17847 35695
965 482
29109 14554
11533 23067
8983 17967
28911 57823
67001 33500
5739 11479
3526 7052
6403 3201
41902 20951
8379 16759
54455 27227
6330 3165
2297 1148
57952 28976
9508 4754
17562 35124
30117 60235
10257 20515
47074 23537
10449 20899
17269 8634
20021 40042
44965 22482
14901 29803
7720 15441
8658 17316
55182 27591
26826 13413
10138 20277
15290 30580
21930 10965
12595 25191
26193 52386
18944 37888
1814 907
42954 21477
61436 30718
19986 9993
35036 17518
28953 57907
39717 19858
24753 49506
25740 12870
26788 13394
11134 22268
39815 19907
32516 16258
9142 18284
42758 21379
3014 6028
10191 20383
28084 56168
8457 16914
30755 61510
5630 11261
59431 29715
33715 67431
19269 38539
31910 15955
24592 49184
13854 27709
19170 9585
31391 15695
31924 15962
48680 24340
21942 10971
1063 531
26602 53204
16445 32891
33252 66505
1206 603
30534 61068
68277 34138
6878 13757
44231 22115
21329 42658
17115 34230
1385 2770
30232 60465
15494 30988
20958 10479
20036 10018
26563 53127
16444 32889
3121 6242
12307 24615
24370 48741
9663 19326
24315 48631
68971 34485
34875 17437
8488 4244
8063 16127
23665 11832
18341 36682
45674 22837
65864 32932
25493 50986
15317 30634
47334 23667
20131 40262
68016 34008
5298 2649
2852 1426
39527 19763
3564 7129
16562 8281
21363 42727
18330 36661
39143 19571
32366 16183
23895 11947
3213 1606
59023 29511
21235 42470
11539 5769
35501 17750
216 433
19394 38789
9638 4819
11766 23532
60141 30070
18826 37653
30809 15404
22199 11099
1483 2967
16054 32109
68175 34087
41896 20948
34001 68003
7694 3847
24665 49331
35728 17864
7992 15985
24523 49046
36128 18064
29470 58940
45018 22509
23410 46821
27089 54178
28461 14230
13403 26807
18654 37308
3195 1597
18693 9346
33649 67298
29027 58055
66587 33293
16696 8348
11324 22649
1290 2581
26129 52259
20878 10439
60445 30222
25366 50732
13542 6771
6404 3202
17407 34815
18242 9121
55204 27602
13778 6889
15612 7806
24245 48490
42358 21179
24896 49793
14563 29127
66552 33276
18289 36578
44424 22212
909 1819
10505 5252
5087 2543
19281 38563
18919 9459
14122 28245
45842 22921
21571 43143
744 372
34478 68957
22119 44239
50073 25036
20507 10253
3831 1915
18967 37935
34444 17222
26570 13285
4642 9284
24302 48605
28901 14450
3665 7331
39986 19993
50160 25080
44616 22308
18993 37986
5240 10481
24270 48541
7819 3909
18112 36225
26541 53082
29409 58819
52688 26344
34146 68293
55336 27668
51950 25975
7347 14695
52021 26010
26258 13129
1245 2490
31536 15768
33669 67338
23938 47876
32678 65356
28307 56615
30565 61130
22440 44881
6343 12686
25782 51564
9892 4946
9623 19247
7267 3633
6979 3489
8910 4455
16693 33387
9566 19132
1567 3135
10708 21417
30821 61643
28187 56374
65131 32565
17833 8916
22725 45450
19033 9516
48562 24281
10774 21549
28686 57372
16001 8000
68373 34186
22011 44022
10914 21829
68675 34337
11720 23441
447 894
25315 50630
3454 6909
14663 29326
16582 33164
10222 20444
30137 60274
7528 3764
28253 56507
9429 18859
31833 15916
44948 22474
14921 7460
59471 29735
27043 54086
7130 14261
27889 55779
12904 25808
19986 39972
28215 56431
20930 10465
68103 34051
60205 30102
13205 26410
22284 44568
28237 14118
13286 26573
41154 20577
14426 7213
6346 3173
48396 24198
52442 26221
28272 56545
3492 1746
52649 26324
15522 7761
55994 27997
26796 53593
12578 25156
12475 24950
59178 29589
57909 28954
29514 14757
26843 53687
11963 23927
9440 18881
10767 21534
23509 11754
49118 24559
33903 67806
5759 11519
22236 44472
59748 29874
41564 20782
7150 14300
34448 68897
15648 31297
2561 5122
12070 6035
10019 20039
15242 30484
11785 5892
66255 33127
12685 25370
17862 35725
23594 47188
11123 22246
60931 30465
29669 14834
32942 65885
55318 27659
45041 22520
54899 27449
29881 59762
52901 26450
9032 4516
12207 24414
17979 35958
39265 19632
16958 33916
20314 40629
920 460
57220 28610
10573 21146
20570 41140
56792 28396
31175 62351
9710 4855
3384 6769
22219 44439
35770 17885
18988 37976
68330 34165
21617 43235
24591 49183
22090 11045
51898 25949
25116 50233
7250 3625
4593 2296
48973 24486
8124 16248
28123 56246
22800 45600
7582 15164
63427 31713
10769 5384
22789 45579
13423 26847
6257 12514
41273 20636
12216 6108
9918 19836
16569 8284
55999 27999
31122 62245
19143 9571
13809 27619
21039 42079
24498 12249
15988 31977
52116 26058
42872 21436
55089 27544
45710 22855
10706 21413
18389 9194
1013 2027
23659 47319
28780 57560
17155 8577
9057 4528
1932 966
11936 23872
9410 18820
5646 11293
13529 27058
46664 23332
22540 45080
65895 32947
15088 30176
11081 22163
14039 28078
3578 7156
20598 41196
16786 33572
10787 21574
32584 65169
51433 25716
7683 15367
18137 9068
29255 58511
64698 32349
21219 42439
29552 59104
57829 28914
13770 6885
20092 40184
17294 34588
17039 8519
11231 5615
10861 5430
45793 22896
5639 11279
39025 19512
41297 20648
52217 26108
45512 22756
59650 29825
26359 52719
9442 18884
56225 28112
5150 2575
28224 56448
15101 30203
52537 26268
21583 43167
26121 52242
45711 22855
4080 2040
31935 63871
22136 11068
1129 564
31090 62180
19769 39538
66379 33189
9591 4795
44908 22454
49783 24891
27737 13868
15148 30296
42655 21327
21404 10702
20273 40547
23887 11943
39658 19829
15268 7634
19000 38001
27878 55756
39 19
26141 52283
1623 3246
13358 26716
44084 22042
38813 19406
28039 14019
25706 51412
37872 18936
30771 61542
15133 30266
24282 48564
25834 12917
40033 20016
61174 30587
35936 17968
34547 69094
55160 27580
16453 8226
8860 4430
26282 52564
29543 59087
1872 3745
6277 12554
59975 29987
26703 53407
10828 21657
713 1427
26312 13156
22161 44323
9402 4701
9290 18581
37655 18827
33013 66026
10748 21497
27214 13607
30480 15240
32040 16020
41807 20903
15982 31965
24627 49254
33285 66570
10649 21299
3596 1798
7877 15755
26970 13485
30471 15235
27806 55612
61012 30506
11316 22633
6777 13555
41356 20678
27858 13929
33673 67346
66838 33419
23399 11699
29393 58787
67934 33967
12479 24958
1032 2065
30200 60400
16981 8490
11433 5716
28795 14397
21990 10995
57119 28559
3275 6550
4495 8990
8153 16307
20346 10173
44694 22347
56815 28407
24711 12355
19581 39162
18033 9016
7541 15083
30016 60032
11142 5571
8156 4078
16588 8294
28776 57552
8749 17499
44954 22477
33048 66096
6883 3441
18960 9480
8217 16434
2083 1041
61338 30669
10106 5053
36710 18355
48757 24378
6958 13916
56961 28480
4692 2346
22831 45662
16147 8073
14173 28347
14792 7396
11599 23198
12413 24827
48056 24028
44240 22120
34268 68537
8332 16664
66517 33258
61569 30784
22285 11142
56001 28000
8354 16709
13562 27124
11606 5803
17905 35811
52723 26361
138 276
28602 14301
4513 9026
18567 9283
25241 12620
17234 34469
58443 29221
30470 15235
17552 8776
33929 16964
41232 20616
3173 6347
62036 31018
12054 24109
61410 30705
29595 14797
19971 39942
31907 15953
23493 46986
1530 3060
41956 20978
52140 26070
60999 30499
51971 25985
2704 5408
54099 27049
7276 3638
23977 11988
19308 38617
65565 32782
17096 34193
56482 28241
33355 16677
37743 18871
22482 44964
16607 8303
38733 19366
55894 27947
14315 28630
46255 23127
4378 8757
4092 8185
28764 14382
1797 3595
4274 8548
47205 23602
1052 2105
26049 52099
27521 13760
13639 6819
21310 42621
32038 64077
52926 26463
22364 11182
22709 45419
51740 25870
35155 17577
67055 33527
58279 29139
1500 750
17314 34628
21757 43514
30270 60540
37595 18797
15661 31322
32468 64937
8987 17975
61815 30907
2995 5990
5446 2723
20146 10073
34071 68142
56766 28383
6159 3079
29719 59439
56146 28073
27515 55030
20531 41063
5370 10740
21525 43050
33956 16978
64440 32220
16546 33092
14297 28595
14040 7020
26755 53511
40770 20385
31042 15521
24760 12380
32780 65560
2484 4969
30446 60893
18914 9457
23967 11983
19713 39427
53267 26633
20640 10320
25448 50897
17942 35884
27235 13617
34054 68108
30872 15436
54164 27082
20356 40713
48846 24423
1059 529
26203 13101
12413 24826
19162 38324
37533 18766
17588 35176
13232 26465
16463 8231
27159 54318
8680 4340
22519 11259
292 584
6618 13237
1904 3808
68279 34139
60873 30436
22177 11088
50765 25382
32717 65435
1906 953
10055 20110
716 358
58555 29277
39685 19842
11438 22877
34633 69267
7943 15887
62144 31072
16381 32762
28936 57873
1141 570
23033 46067
14025 28050
27840 55680
6773 13547
4591 9182
5187 10375
3933 7867
67753 33876
38305 19152
30352 15176
54185 27092
18474 36949
24431 48863
11150 5575
204 102
30481 60963
27081 54163
3523 7047
30286 15143
1269 2538
3565 1782
15460 30921
20493 40986
34177 17088
5658 11316
14366 7183
10370 20741
11937 5968
19842 9921
8478 16957
23245 46491
434 217
50996 25498
25618 51236
9886 19773
2985 5971
10150 5075
10375 20750
28909 14454
14871 29743
29915 59831
33997 67994
20405 40810
22379 11189
55055 27527
38200 19100
35308 17654
20534 41069
7846 3923
40214 20107
46278 23139
22892 11446
18712 37424
15821 7910
22689 11344
1688 3377
24910 49821
16556 33112
32818 65637
25298 50597
5128 10257
40146 20073
42019 21009
61360 30680
5263 10526
27703 55406
26102 52205
30341 15170
22604 45209
33990 67981
9763 4881
57347 28673
7655 3827
33597 67194
14706 7353
30123 60246
24380 48761
25949 51899
28154 14077
45042 22521
7867 15735
61434 30717
21811 43622
3767 7534
17782 35564
42743 21371
33168 66336
27951 55903
5374 2687
45262 22631
2009 1004
4104 2052
6691 13382
21417 42835
7444 14889
18364 9182
7415 3707
22248 11124
61159 30579
5073 2536
11141 22282
3368 1684
7996 15992
33212 66424
3150 1575
30702 61404
48124 24062
15977 31954
7508 3754
9995 19991
12056 24112
29788 59577
1615 3231
61626 30813
44563 22281
26622 13311
36884 18442
57727 28863
16061 32122
10943 21886
14666 7333
13234 6617
27625 55250
29539 59079
219 109
17148 34296
13966 27932
3975 7950
16446 8223
27387 13693
65509 32754
30831 61662
22387 11193
22500 11250
7404 14808
18544 9272
47322 23661
65207 32603
13101 26202
33668 16834
21150 42300
20759 41519
24634 49268
23283 11641
2915 5830
18299 36598
16297 32594
21333 42666
3941 7882
6778 13556
31627 15813
20011 40022
68858 34429
6324 12648
12731 25463
46180 23090
1915 957
21643 10821
17567 8783
12693 25387
16697 33395
31175 62350
60019 30009
20620 41240
9445 18890
50887 25443
26912 13456
14562 29124
53997 26998
25985 12992
57892 28946
328 164
51135 25567
21209 42419
18129 36258
57298 28649
12010 24020
33561 16780
32260 64520
24292 48584
1182 591
34104 68208
28949 57898
21701 43402
25746 51492
6622 3311
22794 45588
2383 1191
26748 13374
11908 23816
15806 31612
41393 20696
23984 47968
43798 21899
31991 63982
1079 2158
13651 27303
37116 18558
64585 32292
45412 22706
45886 22943
34343 17171
43047 21523
21136 10568
67767 33883
22406 44813
11710 23421
12443 24886
29996 14998
24426 48853
27599 13799
21212 10606
1056 528
3212 6425
9235 18470
30252 60505
4005 8010
8570 17140
41931 20965
3182 6364
1506 3012
60208 30104
27056 54113
33094 16547
11518 5759
2366 4733
20619 41239
16411 32822
42859 21429
30272 60544
4582 9164
18158 9079
37499 18749
25 12
28831 57662
5740 2870
60063 30031
20645 41291
34212 68425
2163 1081
16907 8453
10209 5104
17666 35333
9329 4664
14615 7307
31654 63308
43466 21733
41209 20604
26302 52604
52035 26017
14274 28548
10978 21957
19972 39945
26761 53523
17752 35505
30491 60983
17597 35194
16715 33431
23541 47082
17339 34679
13055 26111
48538 24269
27703 13851
26838 13419
1942 3885
3544 7089
17385 8692
18767 37535
9770 19540
35762 17881
36304 18152
23093 46186
26271 13135
20136 40272
33727 67454
15354 30708
51462 25731
2899 5799
41982 20991
31920 63840
64375 32187
33549 67098
14020 28040
13731 27463
18199 36399
19028 38056
28435 56870
68939 34469
19879 9939
21047 42094
23411 46822
23393 11696
10193 20387
5940 11880
32590 65181
31174 62349
29653 59306
55282 27641
24935 49871
16002 32004
67171 33585
68824 34412
17620 35241
13748 6874
38123 19061
46309 23154
9936 19872
49095 24547
13396 26793
23683 47366
14747 29494
14409 7204
21987 43974
10924 21848
3620 1810
52072 26036
30969 61938
59733 29866
10165 5082
10043 5021
33392 66784
6219 3109
37028 18514
34141 68282
14106 7053
26004 52009
25817 51634
53226 26613
11227 5613
49982 24991
32166 64333
15609 31218
23866 11933
56428 28214
24538 49077
32363 16181
56609 28304
23461 46923
3947 7895
27740 13870
26572 53144
17083 34166
13726 27453
1125 562
30807 61614
43765 21882
23547 47095
22832 45665
3704 7409
12568 25136
8710 4355
54906 27453
60641 30320
44993 22496
37960 18980
16482 32965
8706 17412
13525 6762
26648 13324
46801 23400
65375 32687
18780 37561
26477 52954
5905 11810
33763 67526
63499 31749
26436 52872
27639 13819
47070 23535
46270 23135
28605 14302
6100 12200
31655 15827
2515 5031
42728 21364
2991 1495
7034 14068
2879 1439
32701 65403
6236 12472
34152 17076
31268 62537
25995 51990
58331 29165
20833 10416
4526 2263
12029 24059
9497 18994
20370 40740
55356 27678
34343 68686
16965 8482
24069 48138
37731 18865
24151 12075
4771 9543
55101 27550
42415 21207
8353 16707
36957 18478
56713 28356
16064 32129
26415 52830
13813 27627
36014 18007
18587 37175
29306 58613
11211 22423
50166 25083
31611 63223
25577 51155
29130 58261
25888 51776
24916 49832
33571 67142
65108 32554
813 406
3172 6345
34619 17309
57344 28672
21555 43111
43935 21967
25462 50924
8023 4011
2295 4591
299 598
1788 3576
20294 40589
42659 21329
52439 26219
1064 2129
23635 47270
431 215
66350 33175
68950 34475
29925 14962
21599 43198
31798 15899
8445 4222
15841 7920
14228 7114
57967 28983
20401 10200
9152 18304
9829 4914
38645 19322
23993 47986
19545 39090
15730 31461
51905 25952
14242 28484
20286 10143
31575 63151
38609 19304
29126 58252
24124 48249
28136 14068
27476 13738
55456 27728
23206 46413
9419 18839
8705 17411
33972 67945
32504 16252
23208 46416
60325 30162
22760 11380
2653 5306
23759 47519
10337 20674
13422 26844
55780 27890
6411 12823
41551 20775
57660 28830
14956 29913
20835 41671
38580 19290
6919 13838
15358 30717
18452 36905
32468 64936
2534 5069
56378 28189
33011 16505
59623 29811
14917 7458
17481 8740
28916 14458
17964 8982
37125 18562
37065 18532
60227 30113
30013 60026
30538 15269
3562 7125
27109 54219
33398 66796
20838 41676
31325 62651
52476 26238
1197 598
42083 21041
13058 26116
33138 66277
28785 57570
1040 2081
23918 47837
51128 25564
16200 8100
3272 6545
47694 23847
6402 12804
20198 10099
30711 61423
32500 65001
50520 25260
28016 14008
28518 57036
27844 13922
6458 12917
26225 52451
55538 27769
32607 65215
19026 38052
32861 16430
58008 29004
32799 16399
1730 3461
59843 29921
19468 38936
19001 38002
6199 12398
24225 48450
12976 25953
28251 14125
27154 54308
14970 29941
51824 25912
36547 18273
33868 67736
18738 37477
1735 867
63691 31845
16336 32672
58906 29453
28336 14168
18631 37262
38666 19333
27281 54562
69241 34620
66218 33109
20727 41454
35795 17897
19232 9616
1323 2647
39040 19520
11962 5981
11904 5952
3439 6878
5781 2890
36752 18376
66496 33248
16082 32164
37503 18751
30679 61359
15181 7590
62948 31474
23331 46663
13716 6858
48771 24385
4256 8512
15295 7647
8842 17684
24872 49745
64635 32317
26879 53759
32262 64524
43547 21773
2322 4644
8324 4162
54593 27296
29707 59415
14137 28275
1738 869
17681 35363
61895 30947
22504 45009
1934 3869
25453 12726
18248 36497
25301 12650
30957 61915
30792 15396
27924 55849
52887 26443
67004 33502
17174 34349
9458 18916
22474 11237
26483 52966
11123 5561
48626 24313
32935 65871
26937 53874
8132 16265
18925 37850
64442 32221
41768 20884
11611 23223
27576 55152
8339 4169
7707 15415
10452 5226
28387 56775
60478 30239
2766 1383
9318 18636
17181 8590
7678 15357
16659 8329
20101 40202
6645 3322
19090 38181
37246 18623
3237 1618
18494 36988
53375 26687
66098 33049
1751 3503
20894 41789
3216 1608
21962 10981
10034 5017
13254 6627
11932 5966
2412 4824
19653 39306
20334 40668
7458 14916
3952 1976
6973 3486
65921 32960
720 1441
7610 15221
54552 27276
32807 16403
19119 38239
25023 50046
60196 30098
37434 18717
7500 15001
49323 24661
54008 27004
33801 16900
3068 6137
33688 16844
14490 7245
10204 5102
15693 31387
37304 18652
27814 55629
17061 8530
22959 45919
7431 3715
24527 49055
1946 973
63587 31793
13235 26471
39595 19797
32702 16351
27118 13559
31510 63021
922 1845
11223 5611
11283 22567
58441 29220
30510 61021
33840 16920
11863 23726
1428 2856
57944 28972
21547 43094
28295 56590
27323 54647
37958 18979
60367 30183
18449 36898
25993 51986
44058 22029
48737 24368
12925 6462
31315 15657
50800 25400
49461 24730
21028 42057
26618 13309
9657 19315
13584 27168
27968 13984
21880 43760
13390 26780
10586 21173
21604 10802
31692 63385
41263 20631
8059 16118
57277 28638
436 873
12393 24787
15992 31984
57761 28880
24480 12240
17737 8868
14216 28433
30210 60421
58489 29244
17616 35232
45043 22521
49502 24751
3266 6533
69310 34655
27151 54303
12358 6179
53053 26526
36849 18424
58231 29115
31730 63461
31473 62947
24059 48118
3876 1938
55360 27680
7798 3899
16835 33671
34376 17188
11278 22556
4596 2298
64930 32465
9465 18931
9935 19870
28881 57762
36027 18013
55957 27978
21282 42565
29628 59257
28062 56125
69001 34500
24707 49414
53159 26579
35450 17725
20557 41114
8957 4478
9071 4535
33139 66279
1630 815
37010 18505
8555 4277
5107 2553
10835 21670
8365 16731
12279 24559
24634 49269
38642 19321
64599 32299
5413 10827
24108 48216
8393 16787
9582 19165
27332 54664
65927 32963
20292 10146
8561 17123
10241 5120
23320 46641
28290 56580
43868 21934
23273 11636
66195 33097
11222 22444
31662 63325
103 206
9033 18067
35880 17940
40585 20292
66222 33111
22153 44307
26606 53213
51736 25868
29829 59658
27399 54799
25584 51169
22517 45035
57536 28768
12985 25971
47187 23593
29315 58630
12529 25059
31043 15521
15890 31781
21257 42514
22866 45732
23429 46859
19077 9538
54983 27491
162 81
2424 4849
38483 19241
24024 48048
9130 18261
68011 34005
8732 17465
17907 8953
13318 26636
21583 10791
17386 8693
27320 54641
2554 5108
21702 10851
37395 18697
18992 37985
17333 34666
18504 37008
43341 21670
7077 3538
5025 10050
7172 14344
9781 19562
45024 22512
27871 13935
51912 25956
30788 15394
69146 34573
67261 33630
18355 36711
4238 2119
29609 59218
14580 29160
65663 32831
68213 34106
54547 27273
54047 27023
22246 44492
5750 11500
65938 32969
62155 31077
27667 13833
4639 9278
10872 21744
5651 11302
16038 8019
16526 33052
4436 2218
3391 1695
9419 4709
27869 55739
22163 44327
20363 10181
11125 22250
21467 42935
36416 18208
41906 20953
529 1058
42315 21157
30723 61446
38913 19456
19718 9859
1270 635
88 176
34448 17224
1142 571
58243 29121
44258 22129
13325 26651
12224 24448
27212 13606
36412 18206
21520 43040
60030 30015
31830 63660
67567 33783
31857 63714
4010 8020
50805 25402
23319 11659
27162 13581
8109 16219
66841 33420
52209 26104
56313 28156
9427 4713
1023 2046
15998 31997
43203 21601
65734 32867
58080 29040
8667 4333
16491 8245
24219 12109
10955 5477
31535 15767
30863 61726
27089 13544
25821 51643
9086 18172
1752 876
11830 23661
31852 63705
7488 14977
21177 10588
24603 49206
35474 17737
68642 34321
39455 19727
64877 32438
43619 21809
24394 48789
29411 58823
4384 8769
29045 14522
54339 27169
1551 3103
13970 6985
7536 15072
337 674
5751 2875
19613 9806
30216 15108
14239 7119
28790 57580
32406 16203
17600 35200
22059 44119
44897 22448
29723 59446
15358 30716
3629 7258
11182 5591
14971 29943
3565 7130
31610 63220
14073 28146
20897 41795
14558 29116
15262 30525
7213 14427
8322 16645
17144 8572
21680 43361
23749 11874
67304 33652
16945 8472
26277 52554
14358 28716
28291 14145
7051 14102
31594 63189
7032 14065
59678 29839
10899 5449
7953 15906
13985 27971
12125 6062
38892 19446
4473 2236
11747 23495
27186 13593
20427 40855
47770 23885
17260 8630
33645 16822
6225 12451
66805 33402
43933 21966
23732 47464
9962 19925
17854 35709
27103 54207
17202 34405
12914 25828
4116 8233
6193 12386
10823 5411
18265 36531
28822 14411
1661 3323
22631 11315
44456 22228
18484 36969
8902 17805
4050 8101
42161 21080
30078 60156
30424 60848
24632 49265
15411 30822
14008 7004
9956 19912
18879 9439
57935 28967
30455 60911
9901 19802
32386 64773
18845 9422
8966 17932
2154 4308
54801 27400
20873 41747
5039 10078
13980 27961
5663 2831
37918 18959
33 66
65683 32841
67718 33859
33363 66727
21167 10583
13697 27394
14662 29325
24785 49570
47229 23614
4118 8236
9888 4944
31405 62810
11600 23201
66945 33472
65666 32833
10889 21778
4070 8141
34341 68683
48985 24492
3260 6520
8137 4068
46089 23044
17937 35874
32796 16398
5442 2721
14823 7411
32941 65882
15780 31561
8075 16150
50943 25471
58652 29326
28172 56345
66660 33330
25129 50259
6308 3154
663 1326
21615 43231
55563 27781
21967 43934
48261 24130
25439 50879
19682 39364
13456 26913
66943 33471
371 743
9726 19452
5065 10131
12458 6229
30297 60594
711 1423
29408 14704
23777 47554
30913 15456
55295 27647
27584 55169
14981 7490
18704 37409
31282 62565
36161 18080
10343 20686
68718 34359
18563 37126
11338 22676
65561 32780
17725 8862
19564 9782
18070 36140
4121 8243
66937 33468
2021 4042
260 520
33663 67327
8791 4395
61003 30501
29137 58274
26908 53817
51303 25651
26551 53103
29613 59227
62059 31029
2316 1158
54391 27195
32670 65340
45551 22775
19023 9511
29845 59691
4575 9151
36991 18495
10646 21293
67237 33618
15953 31906
9970 19940
60215 30107
25273 50546
19768 9884
2670 5341
26389 52779
1810 905
7031 3515
26182 52364
39077 19538
58063 29031
26744 13372
14874 29748
20261 40523
11726 23452
16449 32898
12150 6075
19735 39471
30253 60507
17557 35114
56155 28077
21928 10964
21063 42126
24948 12474
208 417
36915 18457
12137 24274
13373 26746
5833 11667
59749 29874
65913 32956
4759 9519
18529 37058
41811 20905
15000 30000
32680 65361
32697 16348
2803 5607
32139 64278
5236 2618
21480 42960
26919 53839
1612 806
28649 14324
32159 64319
15431 30863
7579 3789
21388 42776
34514 17257
11838 23677
16169 32339
67378 33689
10521 5260
19454 38908
15165 30331
26478 52957
10971 5485
53616 26808
2986 5972
3733 7466
38889 19444
4563 2281
20080 40161
7303 14606
14826 7413
50287 25143
32863 16431
29661 59322
11098 22197
14780 29561
65996 32998
11760 23520
16440 8220
12843 25687
13224 6612
23299 46599
46441 23220
22256 11128
20164 40329
18192 36384
24134 12067
67544 33772
21547 10773
60759 30379
23636 11818
68811 34405
7884 15769
12252 24505
28325 56650
4324 8649
9606 4803
9178 18356
10725 21451
49244 24622
51819 25909
8627 17255
7999 15998
13509 27018
10015 5007
41509 20754
49421 24710
5717 11435
16123 8061
54953 27476
51702 25851
12312 24624
21291 10645
64907 32453
31523 63047
12719 25438
5337 2668
46952 23476
39107 19553
29174 58348
1185 2371
7305 3652
9464 18928
24505 49010
35922 17961
31339 62678
16971 8485
4010 2005
1905 952
46002 23001
20064 10032
33498 66997
33948 67897
27841 13920
21784 43568
25881 51763
30053 60106
34493 68986
67881 33940
29340 14670
11493 5746
32808 16404
18432 36865
31396 62793
19123 9561
477 238
47341 23670
12965 25930
26400 52801
22976 45953
4035 8070
25462 50925
9824 19649
42695 21347
17104 34208
44246 22123
28717 14358
1869 934
41269 20634
25220 50440
5129 10259
27474 54949
31134 15567
7319 14638
29734 59468
769 1538
3531 7063
24548 49096
31838 15919
4299 2149
45583 22791
66324 33162
25612 51224
4900 9800
26797 53595
55793 27896
56172 28086
30293 60587
31338 62676
8205 4102
10726 21452
8129 4064
54780 27390
5967 11935
49064 24532
5886 2943
55806 27903
10994 5497
32980 65961
38276 19138
65309 32654
5618 11236
9457 4728
53205 26602
48049 24024
68438 34219
6067 12135
17507 8753
19406 38812
1662 831
20591 41183
2246 4493
15933 7966
15745 7872
29456 14728
43925 21962
30371 60743
32370 64741
15271 30543
15771 7885
10124 20249
36962 18481
707 1415
25059 50119
16302 8151
21842 43684
32341 64683
9905 19811
20955 10477
41045 20522
28489 56979
31598 63197
3735 7471
18962 37924
48930 24465
820 1640
49399 24699
22146 44292
15822 7911
56485 28242
27376 54753
34644 69288
64675 32337
13147 26294
28767 14383
22061 44122
7727 15454
21084 42168
7101 3550
64892 32446
10621 21243
9762 19524
8333 16666
19212 38424
13709 6854
11909 5954
19928 9964
30398 15199
15363 30727
31179 15589
67678 33839
62602 31301
19438 38876
10873 21747
43986 21993
26808 13404
20958 41916
29808 59616
28777 57554
19437 38875
22936 45872
9101 4550
23223 46446
43588 21794
27629 55259
21228 42456
13547 27095
55570 27785
33341 16670
11113 22227
32346 64693
24969 49939
19470 38940
26372 52745
63146 31573
18200 36400
18506 9253
14128 28257
4632 2316
48727 24363
55229 27614
2497 4994
24591 12295
12763 25526
31163 62327
15410 30820
10006 20012
9288 18576
4439 8878
32138 16069
34886 17443
12209 6104
34426 17213
61048 30524
9868 4934
46392 23196
16384 8192
6476 12953
16217 8108
12610 25220
346 693
22747 11373
39088 19544
1405 2811
6323 12646
24066 48132
981 490
27534 55068
40313 20156
8169 4084
52285 26142
34888 17444
4271 8543
15098 30196
17230 34460
46565 23282
41641 20820
31624 63249
2346 1173
54149 27074
6379 3189
11437 22874
3957 7914
106 212
48544 24272
23734 11867
25481 50963
24947 49895
8276 4138
41942 20971
9397 4698
33951 67903
6745 13491
22393 11196
24210 12105
21501 43003
32079 16039
29559 14779
11587 23174
7582 15165
68177 34088
15448 30896
31100 15550
15989 31978
31931 15965
34542 69084
45701 22850
16875 8437
65590 32795
20131 40263
30735 61470
31374 62749
35623 17811
27560 13780
9172 4586
8265 16531
5571 11143
1727 863
60828 30414
28853 57707
19421 38843
51558 25779
27502 55005
10451 5225
4167 8335
42942 21471
8960 4480
37089 18544
2446 1223
33199 66399
56077 28038
9654 19309
34502 69004
32838 65677
6254 12509
14738 7369
2259 4519
30567 15283
41338 20669
24973 49947
1686 3372
12846 25692
2216 4432
1448 2896
67216 33608
4545 9091
1445 2890
27942 13971
1950 3900
26154 52308
48769 24384
64670 32335
32859 65718
31143 62286
16967 33935
69268 34634
32183 16091
25917 51834
8215 16430
8113 16227
49986 24993
41727 20863
16933 8466
12824 25649
13803 27606
10516 5258
5787 2893
52840 26420
56790 28395
37466 18733
15898 7949
13894 27789
13442 26884
35788 17894
27783 55566
55064 27532
58307 29153
33182 66364
32438 64876
5608 2804
5025 10051
15611 31222
53618 26809
14997 29994
6306 12612
3568 7137
54398 27199
25065 12532
29819 59638
15844 31689
33657 67314
55581 27790
53241 26620
29208 58417
68795 34397
10297 20594
28608 14304
67896 33948
26414 52828
4311 8622
20284 10142
63333 31666
226 113
42384 21192
33594 16797
25437 50875
13259 6629
7078 3539
52431 26215
32156 64312
9047 18095
66783 33391
2760 1380
2421 4843
39808 19904
31685 15842
46656 23328
26812 53625
15345 30691
4043 2021
34629 69259
28329 56658
58670 29335
15396 30793
52100 26050
30609 61218
39718 19859
26911 13455
14713 29426
37106 18553
15769 31539
39079 19539
23264 11632
24658 49317
25211 12605
8107 16215
56692 28346
603 301
29276 58553
7811 3905
22438 44876
17580 8790
1807 3614
34529 69059
25466 12733
49627 24813
10290 20580
31350 15675
1889 944
6814 13629
22318 44637
28616 57233
56540 28270
18324 36648
7492 3746
28850 57701
16055 8027
25785 51571
29488 58977
9191 4595
7501 15002
37 74
6145 3072
51292 25646
23843 47686
46213 23106
39729 19864
4767 9534
5416 10833
42095 21047
16386 32773
32578 16289
48407 24203
14156 7078
6608 13217
32201 64402
13940 27880
24396 48792
68115 34057
4758 2379
40154 20077
28765 14382
29350 14675
8301 16603
28739 14369
14052 7026
11061 22123
42848 21424
37720 18860
23973 47946
63391 31695
62097 31048
17314 8657
46401 23200
15698 31396
22371 11185
17351 34702
30994 61989
24496 12248
8781 4390
68179 34089
54900 27450
8391 16782
63162 31581
33605 67211
29933 14966
10024 20049
17379 8689
20118 40236
19944 39888
13639 27278
7823 15646
31134 62268
16843 33687
7239 14479
50589 25294
25249 50499
26125 52250
29580 14790
38819 19409
29598 14799
15119 30238
33661 16830
39433 19716
27164 54329
34368 68736
19840 9920
11434 22869
12586 6293
12127 24255
59316 29658
19569 39138
52774 26387
30579 61158
15989 7994
3710 7421
27313 54627
12031 6015
30733 61467
58288 29144
8849 17699
3513 7027
60802 30401
38945 19472
19743 39486
19066 9533
9246 18492
66217 33108
34266 68532
36706 18353
47951 23975
58009 29004
4760 2380
35549 17774
23859 47718
25046 50093
58635 29317
30523 61047
6808 13617
21939 43878
18039 36078
29599 59199
15802 31605
36860 18430
67733 33866
16301 8150
17738 35476
30958 61917
33604 67209
28837 57675
13502 27005
2411 4822
27171 13585
54128 27064
28405 56811
11222 5611
52696 26348
31526 15763
64736 32368
61194 30597
40769 20384
54166 27083
5688 11376
24137 48274
59373 29686
21045 42091
27061 54123
25767 51535
8709 17418
18078 9039
1408 2817
27409 13704
37130 18565
66821 33410
15017 7508
10363 20726
11551 23102
19514 39028
24632 49264
45918 22959
24560 49121
19787 9893
26992 53985
17169 34339
629 314
4264 8529
31620 63240
9989 19979
20934 10467
13424 6712
53898 26949
2674 1337
13921 27842
21445 42891
17339 8669
22093 11046
13468 6734
23832 47664
4887 9774
18886 9443
10300 20601
25100 50200
23047 46094
50390 25195
18655 9327
24834 49668
59209 29604
29746 14873
37760 18880
29265 14632
27491 54982
21077 10538
17937 8968
21449 10724
20569 41138
25505 12752
13414 6707
55435 27717
22575 11287
66946 33473
8502 4251
4892 2446
54213 27106
25199 50398
27383 54767
4482 8965
31266 15633
35296 17648
9053 4526
24956 12478
24549 12274
17469 8734
12989 25978
13974 27949
8154 16308
32192 64384
2182 1091
53486 26743
6642 13285
48471 24235
34503 69006
17851 8925
62028 31014
20625 41251
35301 17650
6797 13594
40988 20494
49853 24926
13122 26244
19189 38379
28515 14257
3977 1988
546 1092
13138 6569
19566 39133
32496 64993
14581 29162
28 56
27256 54512
22215 44430
33286 66572
29070 58141
60211 30105
2891 1445
32454 16227
34087 68174
23177 46355
1836 918
5251 2625
32310 16155
10184 20369
43959 21979
28026 56052
25313 50626
29741 14870
57396 28698
32631 65262
28574 57148
62185 31092
7554 3777
25294 12647
30620 61240
40607 20303
1820 3640
2015 4030
23700 11850
23578 47157
15249 30498
48849 24424
34892 17446
18749 9374
28678 57356
27418 13709
20856 41712
14961 7480
32909 65819
7807 3903
2562 5124
68306 34153
16348 32696
7749 3874
3888 7777
879 1759
23266 46533
21392 42785
27290 13645
25809 51619
30192 60384
13 26
32135 16067
24835 49670
18176 9088
13720 27441
30887 15443
45162 22581
11317 22634
28353 14176
15335 30670
13610 27220
33989 67979
31740 63480
55591 27795
2818 1409
12310 24620
66962 33481
3624 7249
11807 23614
2601 5203
15333 30666
54144 27072
13415 26830
33397 66795
26908 53816
33210 16605
24640 49281
2496 4992
4321 8643
23228 46457
5633 11266
41517 20758
56470 28235
58952 29476
33153 16576
2331 1165
37663 18831
6092 12184
28066 56133
14608 29216
21185 42370
9418 4709
2279 4558
6298 12596
47746 23873
16111 32223
11709 5854
1355 2711
31636 63272
46006 23003
19191 38382
17489 34978
2300 4601
3361 6722
25291 50583
15962 7981
34455 17227
5796 2898
41878 20939
17555 8777
1089 544
54379 27189
5344 10689
11839 5919
44074 22037
6364 12729
2784 5568
26934 53869
64594 32297
8534 17068
13321 26643
58608 29304
2152 1076
30496 60992
68856 34428
17493 8746
8067 4033
30142 60284
50147 25073
237 475
3765 7530
67531 33765
3444 6888
24353 48707
173 346
27089 54179
30562 61124
7368 14736
7114 14229
15703 31407
3944 7889
740 1481
13570 6785
13498 26996
10410 20821
53872 26936
32562 16281
36549 18274
29668 59336
55476 27738
11183 22366
47008 23504
33759 67518
11799 23598
62867 31433
10574 21148
16281 32563
25363 50727
46658 23329
43382 21691
64411 32205
21470 42941
22058 44116
24087 48175
27868 55737
18031 36063
56690 28345
18607 9303
10669 21338
18811 37622
62743 31371
47199 23599
5097 10194
35218 17609
57914 28957
16838 33676
22864 11432
8462 16924
6892 3446
2587 5175
14489 28979
4191 8382
32310 64621
34320 68640
21500 43000
45480 22740
7922 15845
22510 11255
243 121
30040 60081
3143 6286
44462 22231
30447 60895
6283 3141
9170 18340
9885 19770
12721 6360
22305 44611
13520 27041
66469 33234
25801 51602
39817 19908
15911 7955
56171 28085
48223 24111
3546 7093
34331 68663
11664 23329
27545 13772
68822 34411
7296 14592
19546 39093
16943 33887
62159 31079
16177 32354
24551 49102
6059 12118
21392 42784
41725 20862
2504 5008
55285 27642
58466 29233
715 1430
30644 61289
33424 16712
8122 16244
16665 33330
12695 25390
457 914
26536 53073
1360 2720
14684 29368
56149 28074
17919 35839
32472 64944
54990 27495
11394 22789
10727 5363
17561 35123
60228 30114
17037 8518
23126 11563
23556 11778
17950 35901
27074 13537
58027 29013
22075 11037
18158 36316
27845 55690
3661 7322
30307 60615
26206 52412
50657 25328
21213 42427
10914 5457
31742 63485
31123 62247
52521 26260
55015 27507
21999 10999
12012 24025
1935 3870
33790 16895
28508 57017
26934 53868
20839 41678
35357 17678
20098 40197
8261 16523
51137 25568
47239 23619
14056 28112
29975 59951
1390 2780
31080 62160
6810 13621
6192 12385
11982 23965
56250 28125
23572 47144
35902 17951
55409 27704
19539 9769
25866 51732
31489 15744
3227 1613
16553 33106
458 917
12654 25308
13002 26005
15225 30450
47451 23725
31247 15623
6916 13833
8103 4051
3209 6419
7488 3744
3491 6982
23532 47064
58703 29351
29377 58754
18362 9181
15680 31361
3678 1839
21358 42716
26532 53064
11488 22977
44675 22337
15128 30257
37961 18980
17932 35864
6780 3390
4647 9294
10134 20269
1022 511
32025 16012
1025 2050
2219 4438
16475 8237
12355 24710
62186 31093
61452 30726
2204 1102
12072 6036
43835 21917
14219 28439
5482 2741
69177 34588
19761 9880
56376 28188
65224 32612
8580 4290
17312 34625
11219 5609
33802 67604
20279 10139
27136 54273
10301 20603
30242 60484
33187 16593
3415 6831
69245 34622
34524 17262
14496 28992
21337 10668
20648 41296
53165 26582
19281 9640
45897 22948
33115 16557
17470 8735
17029 34059
30982 61964
44599 22299
44359 22179
60616 30308
1205 2411
9431 18862
44700 22350
63392 31696
1102 2205
4685 2342
28135 56271
19705 39410
3511 7022
18705 37411
27435 13717
9689 19378
34065 17032
27989 13994
21838 43676
12181 6090
66236 33118
12652 25304
30538 61076
33456 66912
18046 36093
60194 30097
24260 12130
31743 63487
15392 7696
19029 38058
29817 59635
36158 18079
15350 30700
33004 66008
16095 8047
62417 31208
15172 30344
34390 68780
25844 51688
3830 1915
17618 35237
3425 1712
4503 9007
615 1230
18686 9343
34612 17306
26846 53693
3853 7707
63211 31605
39892 19946
17280 34560
18500 37001
25080 12540
14399 7199
45979 22989
12140 24281
5325 10650
39150 19575
40749 20374
39548 19774
25550 12775
18818 9409
16396 32792
41167 20583
7318 14636
24983 49967
15047 7523
15486 7743
14121 28243
10501 21003
68270 34135
42405 21202
28569 57139
34308 17154
24450 48901
861 1723
15069 7534
59898 29949
38474 19237
2364 1182
26706 13353
28483 56966
58602 29301
41749 20874
5851 2925
41630 20815
26385 52770
50418 25209
32162 64324
60921 30460
17960 35920
30839 61679
824 1649
22142 11071
2203 4406
47919 23959
29057 58114
34034 68068
28746 14373
9535 4767
59354 29677
21998 43996
44696 22348
17472 34944
2275 1137
29978 59956
19589 39179
23502 47005
13644 6822
25116 50232
7094 3547
67595 33797
1370 2740
61752 30876
5755 11510
12849 25698
3802 7604
49025 24512
28937 57874
45222 22611
44158 22079
18632 37265
38436 19218
18354 36708
25336 50673
685 1371
19439 9719
31789 63579
2929 5858
31874 63748
34188 68377
28185 14092
14140 28280
6231 12462
53765 26882
64934 32467
10662 21325
4263 8526
29938 59877
47381 23690
31182 62365
66859 33429
28714 57429
33107 66214
38234 19117
2710 5420
8470 4235
1164 2328
42647 21323
6306 3153
3504 7009
2395 4791
41207 20603
20219 10109
34307 68614
3651 7303
9519 19039
4547 2273
38903 19451
30565 15282
11306 5653
2462 4924
36075 18037
62702 31351
24751 12375
30130 60260
42677 21338
49603 24801
8080 16160
14113 7056
41762 20881
33627 67255
28083 56166
42553 21276
23188 11594
30161 60322
18663 37326
7006 14012
31328 62657
2356 4713
8882 17765
34172 68345
23130 46261
66069 33034
23769 47539
46747 23373
32347 16173
43608 21804
33560 67120
41107 20553
33458 16729
58351 29175
39357 19678
34123 68247
30811 61623
19879 39759
48241 24120
43120 21560
20019 40038
31454 62908
38050 19025
28303 56606
2499 4998
63044 31522
39574 19787
7344 14688
14591 7295
9699 19399
42718 21359
18693 37386
6555 13111
20022 40045
23440 46881
13261 6630
65338 32669
15678 7839
19712 39424
47285 23642
55332 27666
31930 15965
37953 18976
20803 41607
57883 28941
24026 48052
30190 60380
1998 3996
6716 13433
12948 25896
798 399
45862 22931
28202 56405
18338 9169
11064 5532
22278 44557
24156 48313
3085 6171
42847 21423
31555 63111
20564 41129
21755 43510
15492 30985
22900 45801
11100 22201
18853 37706
22862 45725
45657 22828
68057 34028
19109 38219
3423 1711
12054 24108
2354 4709
20303 40606
842 421
57942 28971
65090 32545
8884 17768
43811 21905
27781 13890
46485 23242
33975 67950
55387 27693
5333 10667
16098 32196
16263 32526
68119 34059
5742 11484
37447 18723
16689 33378
14450 7225
15533 31067
7899 15799
18841 9420
15747 31495
13841 27683
22399 44798
51297 25648
4429 8858
3427 1713
19132 38264
4075 2037
29003 58007
66387 33193
42446 21223
8175 4087
23460 11730
31323 62646
28619 57238
3626 7252
5241 10482
22701 45403
23341 11670
55236 27618
14349 28699
2518 5037
35820 17910
2334 4669
6704 13408
3752 7504
53336 26668
2173 4346
40156 20078
51392 25696
18939 9469
28904 57809
34155 68310
31071 62143
24763 49527
17212 34424
31606 63213
4683 2341
63080 31540
22961 11480
29988 59977
43705 21852
49485 24742
24715 49431
1804 3608
31341 15670
30005 60010
25946 12973
6732 3366
33885 67771
52998 26499
7687 15375
11720 23440
50245 25122
15257 30514
18312 36624
31664 15832
34196 68392
34000 68000
37183 18591
13527 27054
25657 51315
4163 2081
6388 12776
55875 27937
20173 40347
10145 20291
32069 64138
40367 20183
17 34
8479 16958
58507 29253
1154 2309
46682 23341
44015 22007
17338 34676
28134 56268
17780 8890
20353 10176
8742 4371
37879 18939
16774 33549
26300 13150
61673 30836
59305 29652
39308 19654
33149 16574
53050 26525
16106 32213
18789 9394
9511 19022
48979 24489
18932 9466
26303 52607
68006 34003
66472 33236
19186 9593
20527 10263
2901 5803
12880 6440
20478 40956
57174 28587
6707 13415
18267 9133
18061 36122
27559 55118
21314 10657
19096 38192
3833 1916
20614 41229
52074 26037
48545 24272
10064 20128
24251 48503
2114 4229
24261 48522
54816 27408
20311 40622
12440 24880
38380 19190
50881 25440
7626 3813
7497 14994
68235 34117
25384 50768
65318 32659
18913 37827
26992 53984
46569 23284
6601 13202
11274 5637
17165 34330
30845 15422
16146 32292
62425 31212
6028 12056
32277 64555
20662 41325
62024 31012
27589 55178
18912 37825
11917 23835
32945 65890
7701 15402
12927 6463
9674 4837
13490 26980
47902 23951
23094 46189
66746 33373
30311 60622
7435 14870
34079 17039
19628 39257
15086 7543
15680 31360
49358 24679
5520 11040
43236 21618
18893 9446
9808 19616
13067 6533
46600 23300
16453 32906
22322 44644
63747 31873
17909 35818
9048 18096
18123 36247
1823 3646
17640 35281
13925 6962
13968 27937
32512 16256
6911 13823
34785 17392
60491 30245
19894 9947
5314 10629
19002 38005
14087 7043
26627 13313
16154 32308
27586 55173
49 99
6959 3479
37844 18922
25463 50926
19422 38844
33388 16694
713 1426
34543 17271
15039 7519
60704 30352
28586 14293
19214 38428
10920 5460
5156 10312
17236 34472
1479 2958
22426 11213
48723 24361
29491 58983
11834 5917
5140 2570
28943 14471
30101 60202
25046 12523
39409 19704
59510 29755
56945 28472
42527 21263
33869 67738
26930 13465
10347 5173
62775 31387
9062 4531
14339 28678
26891 53782
1072 536
6941 3470
2350 4701
25021 50043
31853 63706
29828 14914
9008 18016
51800 25900
9348 18697
31976 63953
14833 29666
12812 25624
23278 46557
20327 10163
35587 17793
573 1147
5242 10484
24321 48643
652 1305
29645 59290
6525 13051
51184 25592
40282 20141
13750 27501
36814 18407
33370 16685
38729 19364
31021 62043
18610 9305
4328 2164
1712 856
52464 26232
9029 18059
16941 33882
23624 47249
63062 31531
2160 4321
9676 19352
31659 63318
32842 65684
24188 48376
5899 11798
18521 37042
12038 24077
57239 28619
28323 14161
12949 6474
25389 50778
65039 32519
13440 26880
16727 8363
27444 13722
46752 23376
12353 6176
14988 29977
28268 56536
18742 37484
3839 1919
41003 20501
22854 45708
32802 65604
60636 30318
5275 10550
2590 5180
33651 67303
20892 41785
54182 27091
58691 29345
21095 42190
18062 36125
8945 17891
43941 21970
49790 24895
10970 5485
46763 23381
17628 35257
5285 2642
5134 10268
18119 36238
8628 17257
2174 4349
13276 6638
34808 17404
14745 29490
21933 43866
12278 6139
15723 7861
33004 16502
44223 22111
6562 13125
4990 9981
28748 57496
13652 27304
35889 17944
67782 33891
28635 14317
15066 30133
26239 52478
53429 26714
36221 18110
6012 12025
22160 11080
27888 55777
59332 29666
5181 10362
34572 69144
34234 17117
1507 3014
1962 3924
15109 30219
68699 34349
1965 982
10298 20596
37913 18956
35120 17560
20052 40105
26355 52710
8916 17832
12516 6258
4261 8522
52433 26216
17494 34989
7567 15135
9399 4699
8802 17605
18930 9465
266 133
31357 62714
12450 24901
34001 68002
3717 7435
16750 33501
25968 51937
15091 30182
30780 61560
8407 4203
14553 29107
26396 52793
35660 17830
4246 8493
3696 1848
58406 29203
21394 10697
37756 18878
10748 5374
25905 51810
19102 38204
18490 36981
24923 12461
15593 7796
34525 69050
22353 11176
30707 61415
19461 9730
30331 60662
12372 24744
67401 33700
19928 39857
12411 6205
12914 25829
67474 33737
53409 26704
21433 10716
3360 6721
14110 28221
15621 31242
52444 26222
21409 42818
3992 1996
15270 30541
20104 40209
33874 16937
44037 22018
25944 51889
30891 61782
24881 49762
58890 29445
9876 4938
24466 12233
10025 20050
2823 1411
33845 67691
7786 15573
147 294
1654 3309
28262 56525
54361 27180
5974 2987
3166 6333
16702 33405
52419 26209
20561 41122
34203 68407
30519 61039
19666 39333
31017 15508
19003 9501
31514 63029
1438 2877
20110 40221
24223 12111
26990 13495
33326 66652
54000 27000
4692 9384
11793 23586
22393 44786
21682 43364
5552 11104
15145 30290
24875 49750
12634 25268
21122 42245
9400 18800
3465 6930
16854 33708
21973 43946
29176 14588
22088 11044
2296 1148
19090 38180
30861 15430
15471 30943
43955 21977
41670 20835
2562 1281
22073 11036
32526 65052
29172 14586
15007 30014
65520 32760
2787 5575
25565 51131
24585 12292
9908 4954
30940 61881
30019 60038
32652 65305
1195 2390
43859 21929
32496 64992
25839 12919
31881 63762
6099 12199
13287 6643
19487 9743
43762 21881
6962 3481
14304 7152
68058 34029
10728 21457
25611 51222
29592 14796
29849 59698
23519 11759
14576 7288
41688 20844
36344 18172
1803 3606
68904 34452
26323 52646
51237 25618
38718 19359
6775 13551
47801 23900
21747 43494
8806 4403
68765 34382
6310 12620
49653 24826
60373 30186
1779 889
13978 27957
12717 25434
32487 64974
7440 14880
32964 65929
45465 22732
6253 12507
25419 50838
30959 61919
11897 23795
21527 43055
2585 5170
33352 66705
8430 4215
13145 6572
39733 19866
43895 21947
58359 29179
64050 32025
14131 28262
46334 23167
3480 6961
33582 67164
28878 57756
10515 21030
6394 12788
3299 6599
3111 6222
13995 6997
38899 19449
15326 7663
24233 12116
3596 7193
19195 38390
12291 24583
30727 61454
52731 26365
28543 57087
17665 35330
37638 18819
23630 47261
54417 27208
35438 17719
6408 12816
3917 1958
8653 17306
24629 12314
11880 23761
19267 9633
48790 24395
30252 60504
10684 21369
32503 16251
29294 14647
18961 9480
18673 9336
15460 7730
25575 12787
39160 19580
56366 28183
9073 18147
13216 6608
23075 46151
3638 1819
16209 32418
34077 17038
28322 56645
13367 26735
12387 24775
367 735
22002 44004
18958 9479
36440 18220
5378 2689
32508 65016
35083 17541
22956 11478
30350 60701
6038 3019
34602 69205
21937 43875
26408 13204
8036 16072
30531 61062
11412 22824
59010 29505
57162 28581
19694 39389
31417 62834
39195 19597
39764 19882
32394 64789
15087 30174
4864 2432
30485 60970
31354 15677
30563 61126
21667 10833
25701 51403
2704 1352
11421 22843
27963 55926
30775 61550
5280 2640
58164 29082
8248 16496
6003 12007
69132 34566
8431 16863
27388 54777
48351 24175
31370 62740
34527 17263
16821 33642
20896 10448
24311 48623
26577 13288
10874 21748
21863 43727
5171 2585
27930 13965
22893 11446
31476 15738
33490 66981
16851 33702
20356 40712
7824 15648
36581 18290
33370 66740
10616 5308
29007 58014
27919 55839
32895 16447
30278 60556
27982 55964
7657 15315
12582 25165
28301 56603
26370 52741
1293 646
3716 7432
4030 8060
31713 15856
26744 53489
4621 2310
58896 29448
7057 14115
11672 23344
16444 8222
12320 24640
58665 29332
381 190
28176 56352
33204 66408
66536 33268
9350 18701
49069 24534
20272 40545
28463 56926
8253 16507
53665 26832
5088 10177
8847 17695
10533 21067
17804 35609
10942 5471
13786 27573
66246 33123
22288 11144
5796 11593
20914 41828
30984 15492
17020 34041
23464 46928
6202 12404
17548 8774
10504 21008
50181 25090
13240 26480
33628 67257
55024 27512
40029 20014
42545 21272
4713 9426
48806 24403
59171 29585
19833 39666
48165 24082
56220 28110
56501 28250
19927 39855
27685 13842
29726 59453
20436 40873
23515 47030
17418 34837
818 1637
15915 31830
9266 18533
32576 65152
24041 48083
24358 48717
31799 63598
30535 15267
13265 26531
30859 61718
14327 7163
31274 62549
8848 17697
5418 2709
7690 3845
5586 2793
4286 2143
41699 20849
3515 1757
11871 23742
19913 9956
25079 12539
64522 32261
31114 15557
12419 24838
33716 16858
52180 26090
54934 27467
4009 8018
26453 13226
22438 11219
33038 16519
19551 9775
12473 24946
25200 12600
63655 31827
69126 34563
14084 28168
41115 20557
28327 56654
17618 35236
69081 34540
58815 29407
12774 25549
21070 10535
26112 52224
15402 30805
9747 19495
20226 40452
16552 33104
11075 5537
6264 12529
18068 36136
50011 25005
23605 11802
31623 63246
59109 29554
18465 36931
16674 33349
59151 29575
9530 19061
40174 20087
19773 39547
22614 11307
15759 31519
18729 37459
34600 69201
18615 37231
40140 20070
7886 3943
44690 22345
12630 25260
17136 34272
34623 69247
12688 6344
7612 15225
41963 20981
32729 65458
53932 26966
30963 61927
20952 41904
46842 23421
38187 19093
18095 36190
32747 65495
33889 16944
24250 48501
1822 911
7197 3598
21853 43706
47102 23551
9883 4941
10012 20024
3611 7222
16570 8285
32180 64360
9151 18302
32634 65268
30958 61916
61320 30660
2028 4056
14154 7077
23993 47987
50941 25470
24222 12111
14243 28487
16064 32128
12401 24803
8744 4372
8990 17980
22043 11021
51405 25702
32913 65826
15459 7729
21415 42830
25489 12744
55224 27612
33078 66157
9547 4773
37643 18821
63624 31812
51485 25742
34013 68026
3481 1740
47923 23961
21135 10567
17169 8584
3956 7912
5704 2852
56955 28477
66948 33474
53463 26731
18257 36515
15265 30530
62201 31100
61571 30785
601 1203
198 99
38714 19357
10398 20797
12770 25540
48677 24338
26532 13266
2678 1339
17672 35344
4431 8862
12981 25962
49097 24548
6733 3366
12901 6450
13789 27579
3308 6616
52396 26198
35550 17775
23784 11892
9609 19218
5092 2546
21140 10570
61116 30558
45803 22901
10472 20944
14626 7313
58797 29398
32009 64018
31754 15877
35022 17511
5282 10565
9597 4798
38471 19235
541 1082
19364 9682
55319 27659
68386 34193
247 123
1306 653
51624 25812
20885 10442
9190 4595
31109 62219
20806 10403
62574 31287
11328 22657
9075 18151
33761 67523
5812 11625
10330 20661
13716 27432
20826 41652
53404 26702
24 12
19412 38824
57521 28760
23837 11918
29990 59981
5766 11532
19348 38696
63054 31527
25930 51861
34089 17044
1576 3152
21084 42169
17941 35882
16181 32362
10480 20961
42343 21171
33163 66326
39583 19791
29567 59135
59703 29851
1391 2783
53175 26587
16080 32160
41348 20674
54384 27192
8995 17990
51141 25570
3554 1777
30561 15280
24162 48325
14003 28006
12402 6201
23655 47310
66694 33347
19491 38982
15808 31617
33449 16724
10446 20892
42130 21065
41041 20520
34766 17383
34601 69203
64102 32051
30116 60233
1699 3398
10278 20556
42588 21294
4738 9476
28273 14136
49601 24800
2720 5440
17732 8866
14303 28606
4350 8700
29752 59505
33954 67909
17959 35918
29060 58121
22654 45309
50984 25492
11934 23868
9407 18815
17581 8790
144 289
48800 24400
23533 11766
32640 16320
2673 1336
17814 35629
5748 11496
3657 7315
28788 57576
14237 28474
28453 56907
10752 21504
32332 16166
54859 27429
12920 25840
35595 17797
26945 53890
20137 10068
12921 25842
26969 53939
10949 21898
27505 55011
10908 21817
39330 19665
24797 49595
16555 8277
40635 20317
43511 21755
27606 55212
2714 5429
61618 30809
17062 8531
19272 38545
9441 4720
5791 11583
20233 10116
4364 2182
58186 29093
67917 33958
1534 3069
37543 18771
66175 33087
9027 18054
30069 60138
15914 31828
12338 24677
2817 5634
64725 32362
63995 31997
8639 17278
21481 10740
66980 33490
19008 9504
4125 8250
4745 2372
28907 57815
10853 21707
53225 26612
19890 39781
27121 54242
12442 24884
4101 8203
59177 29588
20257 40514
4977 9955
37071 18535
23770 47541
29000 14500
18429 36858
9791 4895
41493 20746
34510 17255
32617 65234
33562 67124
15447 7723
32254 64508
36350 18175
12899 25798
19231 38462
27179 13589
9324 18649
10890 5445
14908 29817
8238 4119
60076 30038
3169 6339
66681 33340
24971 49942
38651 19325
29787 14893
12635 6317
7821 3910
54341 27170
20706 10353
28845 14422
12281 24562
34280 17140
67263 33631
62001 31000
42021 21010
5893 11786
50355 25177
25908 51817
16864 33728
18543 37086
61595 30797
26658 53316
26375 13187
3232 1616
42187 21093
8012 16025
8829 17659
18156 36312
40442 20221
49685 24842
31247 62494
32658 65316
27150 13575
31293 15646
1078 2157
23555 47110
44065 22032
44487 22243
31988 15994
61653 30826
53545 26772
14996 7498
41136 20568
26063 13031
25730 51460
20646 10323
18869 37738
37790 18895
28279 14139
22700 45400
46948 23474
41999 20999
29373 14686
16571 33142
254 508
63581 31790
41452 20726
6338 12677
65910 32955
42076 21038
21035 10517
19059 38118
14180 7090
1141 2282
18253 36506
20573 10286
11652 5826
62458 31229
12087 24175
13861 6930
63383 31691
49476 24738
17235 34470
32092 16046
52990 26495
18927 9463
62404 31202
21873 43746
11519 23039
31583 15791
26592 53185
28184 56368
7407 14815
18734 37468
15220 30440
7365 3682
24558 49116
3015 6030
32219 64438
11578 23156
2261 1130
67376 33688
34626 69253
5502 11005
51792 25896
4134 8268
35791 17895
25076 50152
3281 6563
16202 8101
14835 29670
8193 4096
16841 8420
551 1103
56033 28016
33740 67481
8005 16011
45737 22868
48675 24337
31923 15961
7776 15552
30875 61750
59145 29572
14958 29916
10596 5298
15929 31858
68437 34218
17742 35484
19231 38463
17883 35766
21832 10916
38232 19116
11389 5694
30136 15068
32444 64888
18917 9458
7761 15523
25675 51350
7183 14367
55134 27567
4978 9957
10132 20265
50531 25265
33655 67310
6141 12282
12729 25459
5165 10331
44556 22278
51290 25645
12221 24443
61882 30941
12315 24630
26164 52329
2624 5249
29445 14722
32642 65285
29598 59196
62119 31059
53136 26568
50715 25357
13370 6685
9110 4555
17628 35256
27113 54226
14603 29206
21303 10651
12115 6057
14482 28964
30255 15127
63532 31766
62812 31406
56294 28147
12008 24016
32146 16073
9554 19109
17094 34189
41265 20632
68420 34210
33821 67642
30527 61054
14372 7186
23680 47361
35722 17861
11958 23917
24341 48683
19044 38089
68539 34269
7297 3648
11414 22829
23654 11827
15923 31846
11927 23855
62726 31363
56700 28350
12010 6005
34093 17046
21996 10998
23486 46972
6111 12223
45317 22658
62973 31486
28653 57306
4345 8691
23525 47051
29132 14566
20196 40392
8126 16252
15067 7533
33780 16890
9424 4712
42487 21243
61204 30602
52372 26186
64965 32482
9946 4973
8824 4412
3734 7469
10624 21248
22389 11194
4181 8362
18260 9130
27692 55385
8551 17103
54675 27337
65326 32663
18209 36419
16405 8202
40541 20270
11515 23030
48999 24499
18134 36268
19981 9990
1024 512
16269 32539
10101 5050
33340 66680
17308 34616
7960 3980
65093 32546
11274 22548
822 1645
27561 55122
39123 19561
12650 25300
18040 9020
41352 20676
30335 60670
6611 3305
52119 26059
40023 20011
883 1767
32350 64700
40814 20407
5033 2516
20959 10479
26760 13380
7930 15861
27796 13898
20327 40654
45806 22903
28769 14384
58001 29000
15497 7748
29534 59069
45047 22523
29607 59214
23050 46100
40903 20451
4262 8524
660 1320
19745 39490
32005 64011
35970 17985
20438 40876
43102 21551
18891 9445
28869 14434
16455 32911
16884 33769
7113 3556
64037 32018
24843 49687
29414 58829
50613 25306
50028 25014
10499 20998
3350 6701
33914 67828
12863 25726
11107 22214
25668 51337
17297 34595
16311 8155
20036 40073
11050 22100
14167 7083
13117 26234
25885 51771
7643 15287
9198 4599
53470 26735
64723 32361
61251 30625
8824 17649
41936 20968
33354 16677
12308 24617
20886 41772
24881 49763
36120 18060
2970 5940
28765 57530
10153 5076
901 1802
3272 1636
38671 19335
118 236
31994 63989
25217 50434
26604 53209
3785 1892
24262 12131
41321 20660
26515 13257
6369 3184
23201 46402
6694 3347
27462 54924
13228 26456
69082 34541
8404 16808
24968 12484
4944 9889
6221 12443
31682 15841
7629 3814
35650 17825
4390 8780
4220 8440
20457 40914
17955 35910
26024 13012
10481 20963
39432 19716
3645 7290
17690 35381
10439 20879
36720 18360
5422 2711
39924 19962
1864 932
20106 40212
22021 44043
29611 59222
6475 3237
26259 13129
24495 48990
24362 48724
4635 9270
14730 7365
22493 44987
24104 48208
17179 34359
5684 11368
66965 33482
1193 2387
28470 56940
25974 51948
273 136
30697 15348
31912 15956
8226 4113
34671 17335
29162 58325
30410 60821
16675 33351
24641 49283
36325 18162
35375 17687
13341 26683
23712 11856
1072 2144
63962 31981
5089 2544
23115 11557
27600 13800
1647 823
15922 31845
20515 41030
8170 16340
224 448
26636 53272
5177 10355
65975 32987
18627 37254
29733 59466
4702 9404
16992 33984
14057 7028
7814 15628
30319 15159
64388 32194
51196 25598
37691 18845
34796 17398
26525 53051
8833 17667
25664 12832
4016 8032
1714 3428
7704 15408
982 1964
48164 24082
1833 916
8269 16538
25505 51011
21402 42804
42435 21217
17218 34437
30944 15472
16416 8208
22288 44577
7776 15553
19844 39688
2417 4835
4504 9009
3427 6854
62521 31260
15305 30611
1347 673
26529 13264
26419 13209
27219 54439
3634 7269
2155 1077
3173 1586
16925 33850
15714 31428
845 1690
28492 14246
11674 23349
21046 42092
66768 33384
4193 8386
45834 22917
34190 17095
20590 10295
11179 5589
9708 19417
25279 50558
30043 60087
60411 30205
38392 19196
19128 38257
2959 5918
29261 14630
10635 21270
33098 66197
67012 33506
60242 30121
24274 48548
23354 46708
18379 9189
8175 16351
19274 9637
9870 4935
21945 43891
31123 62246
28116 56233
59166 29583
31622 63245
12581 25163
29553 14776
25444 12722
60539 30269
4939 2469
11410 5705
50873 25436
22790 11395
30721 15360
48204 24102
20470 10235
22422 44844
41472 20736
21242 10621
10619 21239
5490 10981
20693 10346
28815 57631
38473 19236
28645 14322
8105 16210
1649 3299
31903 63807
18513 37027
20123 10061
16480 8240
31566 63132
16379 32758
662 331
28414 56829
48137 24068
24829 49658
752 1505
21909 10954
2778 1389
18527 37055
29006 14503
2225 1112
37916 18958
247 494
23676 11838
10921 5460
21714 43428
8975 17951
42519 21259
61737 30868
51017 25508
6214 3107
23897 47794
13260 6630
29803 59607
16713 33427
67768 33884
62376 31188
28059 56118
27629 13814
19626 39253
3607 7215
32274 64548
30425 60850
2059 1029
37214 18607
5786 11573
11895 23791
28876 14438
28293 56587
30387 60774
8661 17323
29441 14720
2613 5226
11080 22161
24193 12096
3058 1529
6623 3311
32571 65143
41386 20693
27008 54016
19478 38957
58858 29429
27238 54477
61971 30985
51089 25544
11036 22072
49234 24617
7136 3568
58356 29178
11462 22924
3073 6147
23858 47717
16617 8308
24943 12471
13450 6725
17166 34333
57392 28696
23756 47512
52912 26456
22010 44021
28521 57042
890 1780
26198 13099
67822 33911
11094 22188
28879 57758
28811 57622
364 728
64201 32100
16573 33146
26677 53355
42499 21249
52078 26039
15416 30832
23280 46560
8588 4294
29366 14683
26995 53991
12354 24709
16117 32235
30257 60514
13049 6524
24944 49888
15672 31344
64387 32193
12250 24501
51361 25680
11239 5619
11021 22042
58430 29215
8102 4051
41257 20628
30831 15415
11075 22150
458 916
13582 6791
24914 49828
12390 6195
6896 3448
14628 29256
22792 45584
45636 22818
18873 37747
654 1309
64207 32103
68430 34215
21857 43715
61463 30731
6487 12974
9871 19743
66297 33148
9253 4626
5913 11827
26591 13295
24584 49169
11402 5701
39001 19500
53231 26615
21595 10797
8263 16526
9976 19952
66466 33233
43149 21574
14786 29573
33412 66824
6602 13204
32365 64731
990 1980
65642 32821
7610 15220
2977 1488
32243 16121
29763 14881
18552 9276
28182 56365
63600 31800
5859 11718
36162 18081
68088 34044
20508 10254
65941 32970
18422 36845
1556 3112
54999 27499
44850 22425
28040 56081
13093 26186
5248 2624
34281 68562
47175 23587
32193 16096
28487 56975
3102 1551
2854 5709
67973 33986
33503 16751
33193 16596
23375 46750
24191 48383
69227 34613
3113 1556
5296 10592
35616 17808
16145 32290
8266 4133
33001 66003
10233 20466
43734 21867
21461 42923
13416 26833
3978 7957
3879 1939
57916 28958
17738 8869
10491 5245
59639 29819
14068 28137
34660 69321
18293 36586
8093 16186
47934 23967
13837 27675
51277 25638
34265 68531
1600 3201
34096 17048
21208 10604
30987 61975
50909 25454
23462 11731
9667 19335
29493 14746
12102 24205
26296 52593
25569 12784
12350 6175
16722 33445
57067 28533
51368 25684
333 667
2338 4676
45025 22512
22825 45650
23595 47191
13806 27612
16297 8148
4916 2458
9778 4889
20362 10181
3940 7880
6964 13929
32863 65727
50587 25293
37272 18636
33846 67693
42676 21338
57341 28670
54056 27028
16986 33972
23028 11514
69031 34515
23143 11571
39379 19689
27538 55077
63467 31733
13570 27141
5948 2974
20148 40297
27496 54993
5981 2990
23920 47840
14953 29906
21353 42707
4216 8432
16770 33540
18031 9015
53120 26560
20769 41538
7249 14499
5672 11345
54049 27024
26071 13035
22142 44285
30969 61939
12094 6047
32018 16009
31702 63405
11458 22916
28589 57179
28383 14191
20297 40595
2922 5845
31526 63052
14761 29523
25245 50490
2254 4508
29554 14777
15291 7645
18392 9196
13140 6570
9294 18589
30006 15003
33881 67762
6108 12217
67307 33653
3084 1542
8376 4188
39091 19545
29649 59299
15446 30893
23695 47390
5571 2785
65926 32963
40680 20340
21118 42237
28011 56022
16953 33906
4003 2001
30339 15169
26155 52310
32983 65966
62914 31457
8047 16094
16340 32680
21307 42614
22056 11028
51872 25936
49825 24912
10637 21274
18271 36542
26726 53452
11126 22253
40830 20415
32765 65530
65827 32913
31356 15678
65320 32660
183 366
25949 12974
17206 8603
24094 12047
11430 5715
6969 3484
26931 53862
50465 25232
2824 1412
65513 32756
68589 34294
46314 23157
65659 32829
53564 26782
41542 20771
25388 50776
1940 3880
45527 22763
61702 30851
57259 28629
41819 20909
24902 12451
11896 23793
18761 9380
2898 5797
47168 23584
40012 20006
12601 25203
14613 7306
12496 24993
29734 59469
45759 22879
34691 17345
11256 22512
12766 25532
33001 66002
19898 39797
25566 12783
1179 589
41548 20774
21448 42897
58292 29146
56473 28236
23840 47681
2157 4314
33411 16705
9701 19402
26262 13131
9566 4783
68272 34136
3253 1626
7539 15079
33261 66523
64870 32435
23056 11528
23379 46759
50508 25254
20467 40935
25136 50273
38536 19268
35602 17801
34566 17283
21102 10551
31303 62607
46150 23075
8551 4275
21674 10837
6215 12431
10313 20627
62763 31381
23672 47345
22210 11105
37829 18914
22378 11189
2736 1368
18903 9451
23496 46993
25752 51505
7127 14255
43127 21563
31187 62375
5802 11605
29699 59398
4037 8074
6442 12884
15971 7985
22021 44042
25243 50486
3070 6141
33113 66227
24727 12363
11875 23750
4880 9761
16498 32996
4520 9040
50485 25242
11979 23958
18871 37742
6315 12631
14460 28921
9154 4577
5914 11829
31590 15795
27030 54061
21496 42993
41886 20943
54 108
4945 9890
15971 31942
7383 14767
2458 1229
9925 19850
35939 17969
37195 18597
33936 67872
36022 18011
8021 4010
19431 38862
28519 14259
12368 24736
22689 45379
26331 52662
1679 3358
29495 58990
4654 9308
23478 46956
52049 26024
44031 22015
6146 12292
27475 54951
25841 12920
45719 22859
13938 27876
858 1717
43121 21560
16053 8026
4804 2402
36232 18116
10267 20534
13261 26522
15766 31533
40437 20218
15321 30643
884 1768
2404 4808
2904 5809
58785 29392
25044 12522
22374 11187
33859 16929
22853 45707
43300 21650
49186 24593
57202 28601
8495 4247
15875 31751
13481 26962
3717 1858
21800 10900
21784 10892
32692 65385
47573 23786
34361 68723
35109 17554
23358 46716
57937 28968
3247 6494
19864 9932
29025 14512
31660 63320
36261 18130
17600 35201
21849 43699
63268 31634
14577 7288
16952 8476
29106 58213
18609 9304
6432 12864
25948 12974
29300 58601
41361 20680
47230 23615
49650 24825
23459 11729
7479 14958
52353 26176
21861 43722
43612 21806
3794 7588
10863 5431
33263 16631
25485 12742
23601 11800
8323 16646
14289 28579
56751 28375
12971 6485
3734 1867
25639 51278
7188 14377
68342 34171
8694 17388
50470 25235
42474 21237
68593 34296
1490 2981
22618 11309
6538 13076
1189 2378
2028 4057
15570 7785
30706 61413
31822 63645
43293 21646
19683 39367
25214 50428
26409 13204
26577 53154
41337 20668
56071 28035
22301 44602
8217 16435
51301 25650
33701 67402
8094 4047
42583 21291
3785 7570
22658 45316
7919 15838
22523 45046
25491 50983
23792 11896
6756 3378
66666 33333
63154 31577
29096 14548
47862 23931
5397 10795
58179 29089
68302 34151
67267 33633
23265 46530
17108 34216
53718 26859
29273 58547
1217 608
27811 13905
22895 45790
34415 68830
32267 16133
33416 66833
51272 25636
34555 69110
49725 24862
11635 23271
9952 4976
7566 15132
5291 10583
27729 13864
4934 2467
19506 9753
23681 47362
52383 26191
13897 27795
33347 16673
27101 54202
28587 14293
4226 8453
21566 43133
67498 33749
21771 10885
33689 16844
33005 66011
2247 1123
23483 46967
17326 34653
7180 14360
34030 68060
36619 18309
178 356
29656 14828
15299 7649
17265 34530
25282 50565
31492 62985
29958 59916
5394 10788
28271 14135
51944 25972
29916 59832
43080 21540
4204 2102
25966 12983
66573 33286
35776 17888
64076 32038
26230 52461
60799 30399
3523 7046
708 354
6691 3345
12492 24985
5869 2934
31272 62544
60500 30250
31840 15920
33141 66282
61442 30721
28685 14342
213 106
23696 47392
4298 2149
20393 40786
8353 16706
15092 30185
4761 2380
61735 30867
55482 27741
30629 15314
18503 9251
63092 31546
22351 11175
14492 7246
31414 62828
47790 23895
19251 38503
19929 39858
5195 10391
33729 67459
57721 28860
334 669
55769 27884
2069 4139
30213 60427
31379 62758
34634 69269
31608 63217
57190 28595
16338 8169
14488 28977
14157 28314
46227 23113
30317 15158
31549 63099
20940 41880
28328 56656
44383 22191
68751 34375
14226 28453
30914 61829
57078 28539
19014 38029
29724 14862
8108 4054
16359 32718
51336 25668
41550 20775
6560 13121
16007 32015
5452 10904
26926 53852
21721 43443
7856 15713
44732 22366
40991 20495
26094 13047
61958 30979
14986 29973
19192 38384
52187 26093
26569 53139
2918 5837
61613 30806
57698 28849
22406 44812
4960 2480
23636 47272
52724 26362
34209 17104
1834 3668
14768 29536
17922 8961
18643 9321
16812 33625
1469 2938
19847 9923
7718 3859
11166 5583
14828 29657
31895 63791
43416 21708
27168 54337
9311 18622
12845 6422
19633 39267
50109 25054
23782 11891
13892 6946
6563 13126
35630 17815
29824 59649
20687 10343
701 1402
21798 43597
437 875
23073 46147
31140 15570
33399 66798
12743 6371
47638 23819
21257 42515
68080 34040
5101 2550
28475 56951
19053 38106
14178 28356
16779 33558
22349 11174
32143 64286
47469 23734
40992 20496
3741 7483
22187 11093
9847 4923
19517 39035
46796 23398
12593 25187
57225 28612
19958 39917
5193 2596
49654 24827
45058 22529
27472 13736
46655 23327
15698 31397
59325 29662
38867 19433
60568 30284
19317 9658
2333 1166
53676 26838
2177 4355
10630 21261
39256 19628
25653 51307
15386 30772
29065 14532
39344 19672
2571 5143
26506 13253
25104 12552
12151 24303
19891 39782
1373 2747
56244 28122
6723 13446
21977 10988
12064 6032
35445 17722
2572 5144
25808 51617
47866 23933
24978 49957
68698 34349
13566 27133
23894 11947
27317 54635
11814 23628
7556 15112
47492 23746
13182 6591
24729 12364
26434 13217
4816 2408
19509 9754
8338 16676
31548 15774
12606 6303
34570 69140
12861 25722
7072 14144
57423 28711
41893 20946
18184 36369
21676 10838
29066 58133
5412 2706
12639 25279
16314 32629
34409 68818
23299 11649
16469 32939
62879 31439
3990 1995
485 970
20369 40738
10086 20172
8133 16266
17777 8888
56873 28436
31672 63345
25513 51026
3266 6532
1096 2192
14938 29876
27384 54769
46904 23452
2569 5139
6587 13174
12874 25748
10115 20230
24276 48552
4822 9644
53100 26550
9636 4818
3413 6826
20262 10131
34900 17450
20746 41492
6204 3102
4672 9344
25407 50814
17519 8759
61796 30898
8061 16122
9219 18439
33205 16602
23328 11664
6334 12669
21404 42808
19895 39791
54105 27052
4901 9802
26041 52082
32573 16286
35415 17707
43538 21769
19851 9925
6857 13715
25606 51213
28654 57308
11757 23515
9955 19910
15763 7881
30581 61162
34074 68149
7072 3536
8728 4364
44126 22063
25548 12774
5593 11186
28330 56660
28454 14227
45876 22938
1815 3631
27787 55575
49301 24650
49872 24936
15517 31035
29885 59770
21143 42287
55722 27861
5094 2547
17532 35065
69291 34645
9148 4574
23670 47340
6708 3354
855 427
33708 67417
17319 34639
18989 37979
10005 5002
11224 22449
54843 27421
54189 27094
5891 11782
5919 2959
16140 32281
56031 28015
67043 33521
28428 56857
14728 7364
25565 12782
50134 25067
61590 30795
50900 25450
5031 10063
21585 43170
31837 63675
19282 38564
11390 22781
61309 30654
26123 52246
16639 33279
2661 5322
5546 11093
8516 17033
29692 14846
6051 12103
52614 26307
30974 15487
37066 18533
60102 30051
31773 63547
9683 4841
51891 25945
66252 33126
42974 21487
1414 2829
41843 20921
47296 23648
20281 40562
12875 25751
23110 11555
12958 6479
27092 54184
17793 35586
48489 24244
64322 32161
30144 60288
30860 61721
3121 6243
49559 24779
40210 20105
18756 9378
2430 4861
68473 34236
16101 32202
16677 8338
7169 3584
67128 33564
20207 40415
27462 13731
16668 33337
9021 4510
8625 4312
23308 46617
5613 2806
34314 17157
11101 22202
31794 63588
43544 21772
4716 2358
1333 2666
19416 38833
33546 67092
39148 19574
17945 35891
37251 18625
30100 60201
53562 26781
24128 48257
36110 18055
11117 22235
24941 49882
11408 5704
58599 29299
23350 46701
10348 5174
55277 27638
17954 35908
27598 55196
23435 46871
25979 12989
675 1351
17859 8929
66388 33194
39237 19618
53068 26534
26322 52644
9586 19172
19855 39711
51729 25864
2866 5732
27320 54640
12849 6424
12769 25539
6865 13731
34623 69246
30812 61625
62300 31150
6705 3352
67815 33907
35055 17527
1356 2712
16665 8332
14186 28373
34189 68379
26159 13079
4207 8414
12537 25074
31021 62042
27441 54882
29255 58510
27396 54793
8119 16239
28192 14096
26934 13467
7194 14388
12957 6478
21248 42497
8818 4409
625 312
30034 15017
34256 68513
51112 25556
2850 5700
5358 2679
62317 31158
33024 16512
3621 1810
24184 48368
51529 25764
41587 20793
18163 36327
9195 4597
48319 24159
13397 26795
63118 31559
23164 46329
8667 17335
32266 64532
63424 31712
24633 49266
1393 696
31177 62354
18458 36917
8952 4476
24145 48290
8896 17792
10098 5049
1099 2199
47211 23605
10641 21283
46143 23071
11448 22896
24848 49696
13044 26089
15741 7870
19424 38849
26673 13336
28794 14397
8434 4217
51357 25678
19713 9856
23343 46687
61606 30803
17909 8954
30791 61582
22314 44628
12540 25081
10405 20810
36216 18108
14925 29851
1159 2318
28159 56319
23013 46026
45874 22937
17041 34083
2976 5953
14611 29222
7763 15526
15106 7553
2155 4310
6268 12537
37914 18957
67082 33541
62671 31335
9869 19739
10190 20381
9860 19721
10787 5393
47530 23765
53485 26742
21892 43785
55603 27801
12697 25395
40351 20175
31 63
26563 53126
32767 16383
66149 33074
42010 21005
30169 60339
7874 15748
12867 6433
60432 30216
68980 34490
52321 26160
41556 20778
8324 16649
24981 12490
27447 54894
41364 20682
33820 16910
14380 7190
67159 33579
48614 24307
23276 11638
30457 15228
14285 7142
52298 26149
40414 20207
27260 13630
9919 19839
47164 23582
4145 8291
6313 12626
23611 47222
39597 19798
65596 32798
11092 22185
9223 18447
30686 15343
11282 22565
17413 34827
27190 13595
31406 15703
30353 60707
43521 21760
38700 19350
8823 17646
7841 15682
33611 16805
31789 63578
5860 11721
60382 30191
21674 43349
12824 25648
2526 5053
29600 14800
31755 15877
34967 17483
13299 26599
40816 20408
24056 48113
19217 38434
32816 65633
2904 1452
44743 22371
66053 33026
24989 49979
31529 63059
3243 6486
7667 15334
25158 50317
64403 32201
62755 31377
1504 3008
6203 12407
7903 3951
324 649
1222 2444
29374 14687
43650 21825
53468 26734
14976 7488
9086 4543
14973 29946
14320 28641
3744 1872
67229 33614
32064 64129
1983 3966
10381 20763
13881 27763
25921 51842
31894 63789
33047 66095
10757 21515
17170 34341
3245 6490
66407 33203
64458 32229
29427 14713
55087 27543
8887 17775
44076 22038
37861 18930
48525 24262
19287 9643
52102 26051
9161 18322
48627 24313
31557 63114
11584 23169
40080 20040
26573 53147
53169 26584
644 322
14406 28813
23737 47474
15905 31811
22860 45721
22753 11376
4076 8152
32452 16226
36309 18154
29910 59820
19888 9944
68029 34014
4803 2401
15972 31944
30038 60077
38770 19385
7091 14183
32016 64033
54626 27313
64119 32059
9846 19692
27095 54191
61486 30743
19687 39375
52697 26348
4219 8439
31475 62951
5698 11397
11234 22469
21019 42039
3723 7447
20297 40594
7240 3620
23436 46873
22961 45922
56605 28302
11410 22821
38133 19066
5580 11161
34385 17192
52513 26256
45828 22914
24522 12261
1807 3615
32956 16478
128 257
39761 19880
6438 3219
1570 3141
6834 13668
7420 14841
50116 25058
24662 12331
23770 47540
23059 11529
58576 29288
26753 53507
14119 28238
24865 12432
25096 12548
7592 3796
30208 60417
25482 50965
46891 23445
33940 16970
22391 44783
24756 49512
36390 18195
27073 13536
831 1663
10080 5040
34182 17091
43027 21513
41860 20930
56254 28127
32510 65021
23256 46513
9901 4950
3820 1910
5785 11570
325 162
44913 22456
49045 24522
13083 6541
32877 16438
59586 29793
29829 14914
31885 63771
26479 13239
47701 23850
61540 30770
20787 41574
67490 33745
11873 23747
26779 53558
31119 15559
62883 31441
52010 26005
790 1580
21677 43354
3934 7869
8545 4272
24320 12160
14918 29837
12321 24642
9765 4882
46072 23036
15365 30731
24742 12371
10270 20540
66462 33231
25892 12946
9924 19848
24451 48902
26081 52162
33194 16597
14736 29472
28446 14223
9630 4815
22800 45601
17007 8503
48231 24115
22335 11167
68393 34196
30723 15361
64629 32314
1032 2064
1942 971
7863 15726
21103 42207
22941 45883
12134 24268
6660 13320
68587 34293
18263 36527
25852 12926
52401 26200
24814 49628
24143 48286
64913 32456
31796 63592
59705 29852
14275 28551
36117 18058
6768 13537
4352 8704
5468 10936
42829 21414
17273 8636
20299 10149
33521 16760
31694 63388
11626 5813
19816 39632
13434 6717
29217 58434
29000 58000
20088 40176
58373 29186
21763 43527
53938 26969
22135 44270
18168 36337
34375 68750
32092 64185
5712 2856
26203 52407
21376 42752
35849 17924
12803 25607
13514 6757
26498 52996
18191 36383
18432 9216
21621 10810
33076 66152
24965 49931
43828 21914
16515 33031
15729 31458
14799 29599
32586 65173
7729 3864
67188 33594
40692 20346
66525 33262
12748 25497
13666 27332
28838 57676
54375 27187
65228 32614
2086 4172
34116 68233
29116 58233
17026 8513
23142 46284
12016 6008
17006 34012
19038 38077
1927 3854
25491 12745
12126 24252
49580 24790
14783 29567
30916 61833
59738 29869
65390 32695
40053 20026
20671 41343
3003 6006
64580 32290
39715 19857
3660 7321
1717 3434
17985 8992
13880 6940
19702 39404
33568 67136
39901 19950
66791 33395
32115 64231
22895 11447
20302 40605
45290 22645
31554 63109
37253 18626
39070 19535
55383 27691
26076 52152
18952 37905
51797 25898
14154 28308
32970 16485
1713 3426
32271 16135
39655 19827
61677 30838
28086 14043
26448 52896
14162 28325
6674 13348
27084 54169
30059 60118
6473 12947
25292 12646
28484 56968
37529 18764
10695 5347
47913 23956
37672 18836
45467 22733
12085 6042
2162 4324
48344 24172
22053 11026
58832 29416
31132 15566
34226 17113
19947 39894
94 47
6046 3023
22260 44520
52225 26112
16119 32239
22336 11168
9160 18320
53130 26565
56988 28494
18189 9094
22740 45481
16915 33831
4400 2200
29557 59114
19962 39925
31487 15743
9175 18350
2359 1179
43204 21602
33248 66497
1363 2726
4957 9915
48331 24165
34082 68164
28033 14016
37176 18588
25598 51197
7755 3877
6188 12376
40273 20136
57585 28792
10925 21851
2402 4805
24312 48625
12944 25889
22730 45460
13484 26969
4823 2411
34015 17007
3337 6674
5669 11338
8232 16465
2130 4260
29381 58763
23747 47495
17053 8526
51513 25756
13476 6738
9913 19827
60713 30356
16784 33569
3519 7038
19363 38727
30995 61990
49852 24926
12725 25451
46218 23109
27954 13977
24071 48143
19934 39869
11111 22223
11082 22165
2425 4851
24270 48540
19020 38040
12834 25669
21623 10811
20905 41810
41855 20927
32583 16291
14524 7262
937 1874
32634 65269
33078 66156
8392 16784
18668 9334
10483 20967
2792 5584
20575 10287
19780 9890
7623 3811
30416 60833
6100 3050
1953 3906
766 1532
21367 42735
30607 15303
19983 9991
16604 8302
15026 7513
64009 32004
5419 10838
11859 23718
33515 67031
4185 8370
31056 62113
28958 14479
23197 46394
20484 10242
15718 31436
1268 2537
2314 4628
20007 40015
3429 6859
55573 27786
46640 23320
47360 23680
29354 58709
22113 44227
1599 3198
56128 28064
29495 58991
38215 19107
39818 19909
31402 62805
40924 20462
6591 13183
22637 45274
4514 2257
9594 19188
41255 20627
19689 39378
3010 1505
57124 28562
14831 29662
28216 14108
12604 6302
32237 16118
49639 24819
3849 7698
5297 2648
51512 25756
17094 8547
6956 3478
32222 16111
1894 947
3421 6843
69038 34519
3611 1805
69204 34602
1653 3306
25925 51851
29155 58310
9568 19136
45085 22542
21836 10918
11020 22041
1689 3378
12417 24835
24939 49879
13341 6670
27541 13770
18160 36321
41023 20511
14659 29318
9440 4720
42020 21010
25682 12841
49827 24913
13580 27160
5953 11906
66049 33024
19342 38685
39898 19949
513 1026
10872 5436
26661 13330
1590 3180
8501 4250
54650 27325
53245 26622
28974 14487
16570 33141
8495 16990
19608 9804
46920 23460
4883 9766
44839 22419
4643 9287
28969 14484
10638 21277
11226 5613
23480 46960
19027 38054
29295 58591
35228 17614
33826 67653
2533 5067
65714 32857
36164 18082
12153 6076
33782 67565
8243 16487
29371 58742
25326 50653
29664 59328
10719 21439
5989 11979
46705 23352
996 1993
20420 10210
1459 2918
47786 23893
15884 31768
12641 25283
56633 28316
11135 22271
1477 2954
67026 33513
25041 50082
26767 13383
47257 23628
42589 21294
3403 6807
5815 11631
34144 68289
1697 3395
2702 5404
28646 57293
7001 14003
4518 9036
19351 38702
11737 5868
23865 11932
31658 15829
16318 32637
10330 5165
63160 31580
7933 15866
22943 45887
24504 12252
26033 52066
1952 3904
29719 14859
64291 32145
53580 26790
16621 33242
20331 40663
35354 17677
51068 25534
62890 31445
35336 17668
31125 15562
407 815
4179 8358
66215 33107
54566 27283
56681 28340
40666 20333
15775 7887
13648 6824
31356 62712
15032 30064
680 340
1737 3475
9237 4618
12081 24162
16730 8365
3816 7632
30641 61283
59175 29587
32650 65300
16045 8022
10483 20966
25834 51669
26842 13421
20359 40718
15535 7767
49205 24602
26804 53608
16487 32975
10544 21088
58789 29394
4675 9351
22845 45690
58866 29433
38225 19112
4794 9588
13606 6803
33612 67225
18212 36425
8022 16044
21726 43453
21413 42826
56373 28186
22549 45099
10750 21501
14358 7179
32171 64343
68269 34134
64958 32479
55939 27969
13795 27590
68152 34076
34252 17126
30063 60127
8857 4428
2073 1036
5984 11968
10090 5045
27893 55787
66402 33201
61459 30729
4872 9744
4818 2409
12365 24730
27309 13654
37724 18862
12438 24876
29620 59241
32580 65160
42228 21114
7150 14301
12228 24456
53878 26939
29909 59818
31652 15826
21399 42798
10162 20324
27330 13665
34713 17356
10679 21359
35644 17822
31915 63830
2773 5546
69274 34637
4032 8065
9399 18798
9928 19857
2759 5518
45415 22707
1832 3665
2857 1428
26611 53223
46614 23307
13705 6852
11670 5835
30496 15248
24933 49867
33942 67884
16671 8335
6719 13439
8407 16814
23353 46707
1736 868
14041 28083
24529 12264
22302 44605
4270 8540
28714 57428
17744 35488
11002 5501
3252 1626
1263 2527
40136 20068
65709 32854
16124 8062
18180 9090
12567 25134
64558 32279
11016 22032
34142 17071
66015 33007
28202 14101
9485 4742
25645 51291
1227 613
24571 49143
33244 16622
34167 17083
4091 8183
12328 24657
32944 65888
13394 6697
43930 21965
63100 31550
5296 10593
12901 25802
28828 57656
59684 29842
29208 58416
28823 57647
16444 32888
13876 6938
1455 2911
34255 68511
9215 18431
10646 5323
32741 16370
5934 2967
34060 17030
2309 4618
44032 22016
10309 20619
23822 47645
14309 28618
24980 12490
22719 11359
40724 20362
59637 29818
12802 25604
16375 32751
26958 13479
35426 17713
19006 9503
9922 19844
49591 24795
23788 47577
21406 42813
66574 33287
46951 23475
68585 34292
12639 6319
34433 68866
42664 21332
20764 41529
13043 26087
8270 4135
22868 45736
3873 7746
48102 24051
11265 22530
22807 45615
15741 31482
30059 60119
23277 11638
14534 29069
66072 33036
24984 49969
15668 7834
21180 42360
18922 37845
31637 15818
46225 23112
14263 28526
44603 22301
66512 33256
26766 53533
25412 50825
23088 46176
47394 23697
19589 39178
18439 36879
15107 7553
28063 56127
51858 25929
29777 14888
23356 46713
10754 5377
15581 31162
57609 28804
19072 9536
40890 20445
60903 30451
6214 12428
16485 8242
49863 24931
30277 60554
22782 11391
22553 45107
19540 39081
12102 24204
16488 32976
21073 42147
9583 4791
17474 34948
33856 67713
62023 31011
5154 10308
57285 28642
41743 20871
24590 49181
10673 21346
22880 45760
27349 13674
29769 59539
43775 21887
10674 5337
16891 33783
2996 5992
32731 65463
13086 26172
8976 17952
26138 52276
15510 31021
8728 17457
11667 23334
51130 25565
27125 54250
68594 34297
600 1201
14413 7206
32179 16089
29443 58887
24690 49381
12123 24246
53321 26660
62519 31259
11109 22218
16885 8442
26342 52685
63874 31937
56965 28482
16837 33675
45591 22795
40335 20167
34506 69013
53439 26719
2157 4315
10538 21076
15651 31303
24381 48763
37048 18524
30431 60863
9569 4784
49954 24977
40789 20394
68497 34248
52506 26253
11870 23740
40096 20048
20591 10295
23049 46098
39996 19998
23714 47428
53157 26578
15920 7960
53434 26717
15821 31642
1484 2968
28919 57839
9332 4666
31207 62415
14007 28014
36886 18443
15045 7522
5533 11066
32730 16365
54576 27288
43366 21683
10702 21405
63053 31526
58967 29483
26146 52293
7637 3818
4118 2059
39082 19541
41117 20558
67765 33882
5729 11458
16931 33863
15801 7900
28934 57868
8969 17938
12148 6074
59482 29741
17341 8670
31009 62018
54102 27051
24942 49885
57807 28903
3438 6876
45917 22958
37631 18815
36307 18153
17874 35749
20414 40828
34714 17357
48794 24397
33083 66166
35551 17775
23280 46561
18128 36256
25166 50332
35599 17799
4262 8525
18656 37313
7209 3604
61378 30689
29914 59828
33077 66155
54287 27143
28615 57231
4806 9613
22008 44017
46110 23055
17020 8510
21685 43371
17458 34916
7899 3949
30461 60923
14069 7034
29261 58523
2715 5430
6273 12546
993 496
5492 10984
7389 14778
30334 60668
6373 12746
9084 18168
37408 18704
10095 20191
9937 4968
30987 61974
65743 32871
29045 58090
21821 43642
6343 3171
28681 14340
5841 2920
26254 52509
22070 44140
67365 33682
25222 50445
5374 10749
12666 25332
59905 29952
30313 60627
11023 22047
7694 15389
2438 4877
61789 30894
26596 13298
9684 19368
31690 15845
43931 21965
43492 21746
42548 21274
23764 11882
37626 18813
34425 17212
65843 32921
20522 41044
1103 2207
10677 21354
32167 64335
9423 18846
28644 57288
33344 66688
19738 9869
4788 2394
18900 9450
51164 25582
7397 14794
19863 39727
56188 28094
31641 63282
45370 22685
12444 24889
10883 21766
3767 1883
66765 33382
9113 18226
31724 15862
50816 25408
56512 28256
19495 38990
8792 17585
31138 62276
40856 20428
6620 13240
28865 14432
939 1878
26400 13200
15544 31088
24197 12098
13812 27624
7826 15653
50359 25179
32496 16248
26707 53414
34118 68237
21952 43904
30912 61825
17587 35175
2061 4123
37040 18520
45474 22737
57597 28798
18044 9022
68632 34316
18731 37463
12236 24472
21409 42819
21860 10930
10496 20992
3150 6301
30911 15455
23314 46629
27072 54145
7277 3638
68710 34355
767 383
16791 8395
18406 9203
30740 61480
15377 30755
27697 55395
8980 17961
3013 1506
11573 23147
28339 56678
17670 8835
63856 31928
3155 6311
66670 33335
66787 33393
23566 47132
15384 30768
24845 49690
595 297
43431 21715
27199 13599
5048 2524
9751 19503
24438 48876
62672 31336
15797 31594
25042 50084
51214 25607
31621 15810
49223 24611
3136 6272
9154 18309
11897 5948
21098 10549
19825 39650
21793 43586
13693 27386
40812 20406
49139 24569
20358 10179
4747 2373
5989 2994
21174 42348
21713 43426
16212 8106
9843 19686
27197 54395
5307 2653
2309 4619
34919 17459
15439 30878
33867 16933
4252 8505
40071 20035
64732 32366
14710 29420
27116 54233
18648 37296
27990 13995
20242 40485
6376 12753
29007 14503
9481 4740
15950 7975
30893 61787
34038 68077
68169 34084
46848 23424
16278 32557
25925 51850
43780 21890
16921 33842
63324 31662
4095 8190
56960 28480
17596 35193
24911 49823
13869 27739
25054 12527
20762 10381
21419 10709
18710 37421
34187 68374
39835 19917
5690 11380
25663 51326
29308 58616
2626 1313
39438 19719
54421 27210
16905 33810
46065 23032
21144 42289
23711 47422
3110 6220
3868 7737
20769 41539
16842 8421
27325 13662
33671 67342
12606 25212
13947 27895
1725 862
34605 69211
48971 24485
6146 3073
4202 8405
9077 4538
6858 3429
57895 28947
8360 4180
31545 63090
1605 3210
10352 20705
4371 8743
46219 23109
28746 57493
16459 8229
28550 57101
20201 40402
12482 24964
25281 50562
15050 30101
63765 31882
11585 23170
29054 58109
13043 6521
12844 6422
10096 5048
28001 14000
68910 34455
7893 15786
34426 68852
29083 58166
25879 51758
15364 7682
8349 16698
4314 8629
6473 12946
58062 29031
9818 19636
2762 5525
54019 27009
18492 36984
566 283
51238 25619
6148 12297
26082 52164
796 1592
36684 18342
15924 31849
6918 13836
30329 60659
3463 1731
29253 14626
5716 2858
38296 19148
4159 2079
10469 20938
15240 30481
7532 15065
15925 31850
9216 18433
28999 57999
53706 26853
63317 31658
19862 39724
32192 16096
67405 33702
15034 30068
3132 6264
42675 21337
69024 34512
54258 27129
16123 32247
47122 23561
21562 43124
3803 7607
7400 14800
18372 36744
10540 21081
47939 23969
33128 66256
15099 30198
65891 32945
46942 23471
51306 25653
67183 33591
11839 23678
27597 55195
33582 16791
68183 34091
15227 30454
18556 37113
7118 14236
4874 9748
9624 4812
19601 9800
3287 1643
23478 46957
30219 60439
8508 4254
1491 2982
6109 12219
81 40
23992 11996
15846 31692
29987 14993
19088 38177
4143 2071
24746 49493
21677 43355
10233 20467
65381 32690
40882 20441
61640 30820
41036 20518
20151 40303
16211 32422
64242 32121
4071 8142
24038 48077
44062 22031
51576 25788
29863 14931
14765 29531
44479 22239
8992 4496
9099 18198
13241 26482
42473 21236
304 608
28772 57545
29506 59013
24707 49415
39392 19696
27508 55017
38214 19107
39789 19894
3263 6527
414 829
2741 1370
28447 56894
14708 29417
30262 60524
14572 7286
17611 35223
16484 32968
64794 32397
1268 2536
17495 8747
16890 8445
35439 17719
12244 6122
18043 9021
22678 45356
58725 29362
10893 21787
33865 16932
24265 48531
28020 14010
27948 13974
28248 14124
27611 55222
55291 27645
10118 20236
34033 17016
9343 18687
18 36
58765 29382
20856 41713
12549 25098
13112 26224
2434 1217
30166 15083
6313 3156
23241 11620
57409 28704
11121 22243
20223 40446
58036 29018
7976 15952
68666 34333
34899 17449
12812 25625
19611 39223
23467 46935
1823 3647
19789 9894
32127 64255
16442 8221
44271 22135
20505 10252
55484 27742
25366 12683
13406 26812
15439 30879
33458 66917
28088 56177
25580 12790
11742 23485
64804 32402
1309 2618
4937 2468
5025 2512
37950 18975
43882 21941
30344 60689
21820 43641
54800 27400
18073 36147
29623 59246
32250 64500
7064 14128
19538 9769
28717 57434
40142 20071
885 1770
30180 15090
4985 9970
38931 19465
36727 18363
3462 6925
3607 7214
32413 64827
35563 17781
10369 20739
24402 12201
15289 7644
2362 4724
26523 13261
50427 25213
43698 21849
18445 9222
11434 22868
6968 13936
15775 31551
8476 4238
68400 34200
22919 11459
17641 35283
11481 5740
31262 62525
33222 66445
6182 3091
6735 13470
53174 26587
27286 54572
22189 44379
18253 9126
11424 22849
23040 46081
13496 26992
19947 9973
37190 18595
6694 13389
40813 20406
29153 58306
19153 38306
58298 29149
29548 59097
10913 5456
6179 12359
57512 28756
5590 2795
230 461
6101 12203
65537 32768
18904 37808
17992 35984
3136 6273
60370 30185
14337 28675
481 962
7769 3884
30042 15021
18539 37078
23033 46066
16952 33905
18235 9117
24416 48832
53084 26542
23573 47146
25971 51943
61683 30841
11249 22498
9143 18287
18270 9135
1559 3118
64517 32258
4907 9815
8523 4261
3005 1502
5098 10197
61830 30915
13446 26893
68572 34286
3712 7424
30892 61785
25878 51757
22828 45656
19547 39095
36213 18106
3562 1781
40778 20389
7606 15212
450 900
21372 42744
5480 10960
53031 26515
4151 2075
59670 29835
712 356
13863 6931
57154 28577
14550 7275
20674 41349
24888 49777
50236 25118
23802 11901
30230 60460
22672 45345
46102 23051
5568 11136
130 261
17421 34842
48041 24020
60890 30445
4560 9121
26479 52959
15193 7596
19575 9787
58768 29384
34565 69131
25479 50959
7161 3580
29763 59526
22935 45871
13066 26133
1769 884
17224 8612
28873 57747
10121 5060
19424 38848
33457 66915
30502 61005
13923 27846
343 686
28446 56893
53224 26612
50089 25044
47562 23781
34277 68555
20026 10013
50006 25003
58345 29172
34738 17369
21710 43421
32564 65129
17180 8590
54739 27369
5273 10546
16354 32708
4612 2306
20255 10127
32619 16309
13425 26851
14427 28855
2398 4797
8710 17420
7801 15602
31060 15530
26399 13199
14673 7336
11949 23898
16211 32423
36392 18196
27909 55818
52759 26379
5793 11586
3115 6231
47087 23543
22794 11397
24280 48560
16714 8357
64418 32209
3018 6036
34017 17008
13642 27285
22964 45929
47163 23581
1694 847
23600 11800
9422 18844
22293 44587
25096 50193
12171 6085
2321 4643
12247 6123
13029 26059
14782 7391
28728 14364
40641 20320
63954 31977
135 67
47591 23795
33066 66133
54374 27187
29957 14978
27910 55821
54101 27050
49090 24545
18620 37241
21623 43246
9725 19451
8619 4309
15778 31556
1019 2038
9478 18957
15406 7703
61157 30578
59930 29965
38321 19160
63339 31669
5336 10672
7561 15123
50433 25216
29432 58864
4795 9590
39304 19652
25040 50080
29409 14704
47250 23625
17268 34536
3473 6947
27857 13928
3364 1682
50301 25150
33241 16620
22014 44029
46634 23317
60753 30376
8729 4364
60880 30440
37217 18608
60273 30136
34625 69250
43966 21983
3676 7352
34299 68598
15100 30200
43879 21939
30455 15227
33392 16696
23510 11755
21502 43005
11886 5943
11680 23361
59821 29910
4502 2251
10114 20229
17297 34594
37890 18945
39859 19929
869 1739
60419 30209
32081 64162
46145 23072
13500 6750
9592 19185
30612 61225
24369 12184
7325 14650
14332 28665
33573 16786
31446 15723
17093 8546
41820 20910
50533 25266
45017 22508
24719 12359
58965 29482
49786 24893
63593 31796
25997 12998
14375 7187
33479 66959
34266 68533
21483 10741
18305 9152
4663 9327
4958 9916
11294 22588
17161 34322
45769 22884
63878 31939
19609 9804
26112 13056
26777 53555
31278 62557
20557 10278
50677 25338
5640 2820
9510 4755
11118 22236
37440 18720
44283 22141
65235 32617
20690 41381
43116 21558
24011 12005
3512 7024
22439 44878
19036 38073
3688 7376
12526 25053
2621 1310
59825 29912
54892 27446
4040 8080
18869 37739
6641 3320
18460 36920
9297 4648
26084 52168
32525 65050
4611 9223
45334 22667
29691 59383
10912 21824
26900 53800
2764 1382
4886 9773
31178 15589
14701 7350
443 887
5036 10073
8932 17864
16057 32115
72 145
28667 57334
2842 5685
9046 18093
4642 9285
430 215
56422 28211
67942 33971
15203 30407
24609 49218
56837 28418
6381 3190
8788 4394
11864 23728
22828 11414
5897 11795
19957 39915
33431 66862
26316 52632
32261 16130
18772 37544
31893 15946
8475 16951
23000 11500
18051 36102
63852 31926
1374 687
22082 44165
5958 11917
42936 21468
34325 68650
18304 36609
8980 4490
3239 6478
6432 12865
21517 43034
852 1704
53433 26716
25392 50784
23985 47971
56490 28245
67848 33924
34767 17383
58487 29243
20119 10059
41940 20970
59611 29805
68925 34462
65835 32917
58471 29235
27553 13776
6610 13220
44585 22292
28636 14318
60424 30212
497 995
33000 66001
6954 13909
1294 2589
38037 19018
11013 22026
9362 18725
8141 16282
28431 56863
27580 13790
19493 9746
34160 68320
26496 52992
14834 7417
5967 11934
1203 2406
57083 28541
63077 31538
5823 2911
27693 13846
21665 43330
15070 7535
33085 66170
33150 66301
20089 10044
24003 12001
28357 56714
19720 39441
12243 6121
16921 33843
5202 10404
58913 29456
60075 30037
12146 24293
3067 6135
46962 23481
5759 2879
4627 2313
15647 31294
25957 51914
33352 16676
31763 63527
724 362
1786 3572
26078 52156
30017 60034
33333 66667
65077 32538
61185 30592
4205 8411
31198 62397
10536 21072
18226 36453
7639 3819
60693 30346
33480 16740
5290 2645
67649 33824
16813 8406
31718 63436
19645 9822
4129 8259
31250 15625
9435 18871
3855 7710
12687 25374
50191 25095
24114 48229
8579 4289
29991 14995
44880 22440
59056 29528
9743 4871
29422 58845
23306 46612
24227 48454
53160 26580
491 983
33534 67068
41507 20753
6891 3445
3771 7542
47814 23907
16240 32480
16144 32288
44135 22067
5085 10171
26678 13339
24503 49007
1549 3098
28510 57021
9807 19615
41446 20723
36260 18130
16625 33250
27851 13925
23307 11653
63374 31687
11367 5683
4800 9600
61303 30651
3890 1945
49126 24563
25580 51160
23063 46127
19321 38643
2676 1338
49913 24956
51743 25871
15669 7834
9628 19256
11109 22219
14818 7409
7995 15990
14994 29989
24654 12327
11758 23517
30541 61083
30871 15435
45916 22958
67080 33540
21097 42194
33928 67857
33512 67024
42827 21413
28102 56204
13355 6677
3442 1721
20986 41973
12643 6321
53411 26705
53177 26588
51545 25772
22561 45122
150 301
44636 22318
6775 13550
66919 33459
2477 1238
30675 61350
8832 4416
28665 57331
15663 31327
3982 7965
29050 58100
12300 24600
66589 33294
58918 29459
8554 17108
27427 54854
21788 43576
25839 51678
4009 2004
27331 54663
1700 850
9489 18979
13293 6646
13186 26373
13549 27099
6413 12827
5723 11446
16405 32810
41216 20608
4359 8718
33611 67222
20587 41175
18667 37334
9217 18434
16184 32368
20409 40818
22508 11254
18670 9335
7218 3609
6803 3401
32719 65439
32093 64186
10943 5471
28865 57730
29124 58249
30512 61025
1694 3388
6349 12698
24514 49029
4285 8571
18295 36591
30877 15438
28039 56078
64716 32358
18825 37651
63506 31753
19561 9780
9661 19322
16857 33715
23684 47369
15522 31044
21966 43932
7177 14354
35593 17796
29995 59991
8759 4379
31879 63759
33919 67839
29617 59235
38284 19142
5486 2743
6839 13679
30336 15168
39615 19807
32637 65274
25697 51394
34040 68081
31263 15631
25941 51883
9282 18564
12033 24066
35898 17949
18778 9389
26468 13234
45772 22886
64047 32023
20618 10309
27296 13648
6386 12773
47155 23577
8954 4477
33435 16717
62880 31440
28203 56406
9575 19151
30432 15216
3945 1972
2948 5896
63478 31739
17062 34125
66995 33497
59622 29811
32459 16229
8532 17064
34501 69003
18850 37701
13383 6691
3112 6225
33892 16946
4074 8149
19114 38228
23939 11969
12437 24874
26187 13093
20215 40431
32481 64963
21169 42338
28901 57802
25641 51283
25175 50351
32705 16352
24946 49892
18501 37002
473 946
27776 55553
14099 28198
28264 56529
18858 9429
54091 27045
27534 13767
7981 3990
3610 7221
12712 6356
31847 63695
66586 33293
4763 9526
31619 15809
15986 31973
54382 27191
16695 33391
67034 33517
30897 61794
9413 4706
10224 20449
30737 15368
32129 64258
1453 2907
11915 5957
17990 35980
34546 69093
2181 4362
23751 47503
35204 17602
52472 26236
39585 19792
23135 46271
11914 23829
33636 67272
2159 4319
2363 4727
33642 67284
388 194
21905 10952
150 75
53525 26762
22167 44334
29280 58560
46316 23158
4677 9355
50111 25055
24360 48721
36753 18376
30634 61268
42922 21461
14609 29219
12781 25562
10582 21165
52460 26230
8129 16259
61357 30678
22675 45351
17776 35552
12158 6079
8450 16901
30423 15211
27610 55221
16489 8244
16509 8254
26517 13258
25670 51340
29259 14629
26579 13289
1283 2567
27707 55414
35697 17848
67555 33777
8694 17389
27418 54837
34487 68975
54569 27284
20982 41964
31647 15823
10212 20425
7964 15929
22773 45546
4452 8905
7940 15880
25333 50666
8099 16198
19488 38976
29689 59378
47065 23532
31975 63950
28416 56833
969 1938
15934 7967
7217 14435
28971 57943
52775 26387
20536 41073
60022 30011
32431 64862
31112 62224
24848 49697
23438 46877
34357 68714
22181 11090
5531 11062
31189 15594
13126 26253
65433 32716
16493 32986
27657 13828
19803 39606
12251 24503
62885 31442
51690 25845
42176 21088
16670 8335
40026 20013
45730 22865
27771 13885
6527 13054
27053 54106
2900 5801
11059 22119
14570 29141
26825 13412
25857 12928
22421 44842
25342 12671
14756 29513
27808 55616
21126 10563
65330 32665
24422 48844
24728 49457
1368 684
53258 26629
21024 10512
38839 19419
16549 33098
67535 33767
31275 62550
27522 13761
29570 59140
65416 32708
13391 6695
5366 2683
2610 5221
14861 7430
26876 53752
35799 17899
33134 16567
8166 4083
37537 18768
67148 33574
768 384
45482 22741
13583 27166
9805 19610
23026 11513
46310 23155
9741 19483
24605 49211
62851 31425
67115 33557
48374 24187
57949 28974
16206 32412
22869 45738
52392 26196
4747 9495
30443 60886
24598 12299
3869 7738
39507 19753
27266 13633
9138 18277
31752 63505
14142 28285
38939 19469
18715 9357
16735 33470
60875 30437
34504 69008
11562 23125
9731 19462
66506 33253
15503 31006
28747 57495
4604 9209
7746 15492
15937 7968
2112 4224
44319 22159
25454 50908
41011 20505
23316 11658
939 1879
1375 687
41621 20810
31717 15858
26438 52877
27843 55686
6712 13425
32855 65711
9456 18912
58889 29444
32595 65190
14658 29316
27600 55201
5477 2738
58675 29337
14581 29163
8171 16342
13350 6675
24457 48915
8506 17013
66073 33036
15427 30855
17208 34416
26177 13088
66377 33188
4112 2056
31532 63065
26770 53540
27781 55562
664 1328
50247 25123
2482 4965
20022 40044
31499 62999
28144 56289
13349 26699
10186 5093
11130 22261
36267 18133
44305 22152
52655 26327
18499 36999
35229 17614
2986 1493
7005 14011
25587 51174
759 379
29721 59442
16471 32943
14270 28541
5647 11294
44663 22331
6424 12848
38403 19201
22055 44111
26223 52447
34415 17207
65012 32506
62603 31301
33664 16832
32457 64914
38880 19440
18634 37269
20815 41631
57149 28574
27145 13572
22114 11057
14753 7376
10623 21247
28640 57281
34105 17052
9183 18367
227 455
2409 4819
1720 3441
27873 13936
62086 31043
43188 21594
71 142
23277 46554
24797 12398
48131 24065
49740 24870
11712 23425
18783 9391
32666 65333
15554 31109
18449 9224
10598 21196
67858 33929
6687 3343
59337 29668
2126 4253
19071 38142
24400 12200
7553 3776
23561 11780
10556 21112
42806 21403
32405 64810
25558 51116
25259 50518
50150 25075
28654 14327
1920 3840
8180 4090
13556 27112
23700 47401
10359 20719
37759 18879
6306 12613
31324 15662
28030 14015
20417 40835
30161 60323
32010 16005
3471 1735
19595 9797
10120 5060
7496 14993
43412 21706
16681 8340
16884 8442
1561 780
20401 40802
27417 54834
30218 60436
27107 13553
4921 2460
45131 22565
58263 29131
44864 22432
32626 65253
22523 11261
63845 31922
9840 19681
33018 66036
2931 5863
4885 2442
3171 1585
7276 14553
19641 39283
23348 46696
26417 52834
38868 19434
31164 15582
23260 46521
61418 30709
37233 18616
9314 18628
51731 25865
9426 18853
9502 4751
56314 28157
25358 50717
10762 5381
66132 33066
9441 18883
12614 6307
22821 45642
69160 34580
17381 34762
908 454
45001 22500
46297 23148
1041 520
16488 32977
12692 25384
368 184
16230 32461
4282 8565
31434 15717
17940 8970
9733 19466
12858 25716
58883 29441
4435 2217
23686 47373
13328 26656
4655 9310
56337 28168
30409 15204
16663 33327
66311 33155
59817 29908
49586 24793
23370 46740
20031 40063
15696 31393
10256 20513
17190 34380
18075 9037
5218 10437
40923 20461
13623 27246
13220 26440
16390 32780
69322 34661
62779 31389
9681 19363
49540 24770
8852 17705
62663 31331
31709 63419
35506 17753
4330 8661
24130 12065
32142 64285
33418 16709
33911 16955
48461 24230
46051 23025
34751 17375
27669 55339
26715 13357
9085 4542
1898 949
59778 29889
2932 1466
10705 21410
22909 45819
34510 69021
23710 47420
33801 67603
20216 40433
15153 7576
16744 33489
24952 49904
44460 22230
32761 65523
26718 53437
25596 12798
7141 14282
27184 13592
28478 56957
8131 16262
30963 15481
13495 26991
11510 23021
257 514
42140 21070
16210 32420
11834 23669
34590 69180
4579 2289
514 1029
17969 8984
21194 42388
26917 53835
13446 26892
82 41
13410 26820
2410 4821
38555 19277
47570 23785
11301 5650
9415 4707
8181 16362
33736 67472
55504 27752
50341 25170
15024 7512
47977 23988
17421 8710
29538 59077
13631 6815
6346 12693
23735 47471
8919 17839
31120 15560
62860 31430
9202 4601
17378 34757
61793 30896
50789 25394
5158 10316
17814 8907
53567 26783
7110 3555
62997 31498
16296 32593
30472 15236
7577 15155
12415 6207
19900 39800
59963 29981
7296 3648
12859 6429
26652 53305
35639 17819
25348 50697
29663 59326
17689 35378
26858 53717
34769 17384
1895 3791
2301 1150
33445 66891
25698 51396
14884 7442
1644 3289
42608 21304
213 426
61443 30721
10632 21264
66237 33118
4427 2213
18534 9267
6069 12138
30141 60283
33100 16550
57904 28952
3418 6836
31655 63311
42465 21232
14343 28687
30724 61449
34260 17130
28057 14028
21703 43407
39881 19940
18381 36762
6162 3081
31636 15818
17595 35191
68056 34028
36429 18214
61451 30725
21379 10689
10576 5288
58284 29142
4499 8998
36205 18102
42763 21381
27281 54563
26228 52456
68048 34024
11667 23335
30112 60225
60949 30474
29307 14653
7146 3573
29297 14648
61899 30949
10340 20681
29322 14661
31816 15908
66851 33425
28386 56772
31345 62690
9933 19867
38949 19474
29899 14949
22563 11281
7016 14032
22070 11035
15970 7985
31231 15615
14328 7164
15739 7869
25715 51431
9879 4939
6915 13831
50203 25101
37451 18725
726 363
2252 1126
23825 47650
53576 26788
4575 9150
15964 7982
16755 8377
11246 22492
17366 34732
28221 56442
8392 16785
9184 18369
11750 23501
24818 49636
1027 2055
37 75
33674 67348
16065 32131
16726 8363
9828 19657
10663 21327
24049 48099
4183 2091
3629 1814
53317 26658
61286 30643
11108 5554
74 148
46275 23137
1237 2474
28998 57996
5422 10845
27920 55840
3675 7351
53448 26724
14905 29810
16703 33407
23655 47311
14339 28679
23051 11525
348 696
32807 65614
30932 15466
58632 29316
2946 5892
34382 17191
62869 31434
8828 17657
44755 22377
3411 1705
22223 44446
19336 38673
1639 3278
2204 4408
13769 27539
12284 6142
6645 13290
31203 15601
13172 6586
26597 13298
31386 15693
37413 18706
6355 12711
33139 16569
10155 20311
20368 40736
29809 14904
26068 52137
37883 18941
2232 4464
24748 12374
16217 32435
39742 19871
350 701
34045 68091
10668 5334
11243 22486
1214 2429
47103 23551
21704 10852
58932 29466
31929 15964
24454 48908
31470 62941
23019 46038
2281 4562
36087 18043
45098 22549
18884 37769
47730 23865
22035 44071
13427 26854
67243 33621
7055 3527
21196 42393
17760 8880
58986 29493
9174 4587
64090 32045
36553 18276
3683 1841
11493 22986
8948 17896
30653 61306
11650 23301
45033 22516
35768 17884
9028 18057
55508 27754
23645 47290
21051 42102
679 339
22519 45039
10258 20517
16172 8086
18032 9016
22796 45593
4763 2381
10552 21105
66929 33464
3965 1982
49170 24585
19313 9656
60870 30435
3302 6604
7688 15376
24638 12319
28044 56088
5097 10195
45613 22806
13748 27496
6743 13486
16000 32000
54805 27402
29846 59692
11680 23360
58549 29274
5689 2844
34080 68160
55887 27943
42 21
2075 4150
15892 31785
8191 16382
29338 14669
48335 24167
57645 28822
10594 21188
44879 22439
8911 17823
16807 33614
62924 31462
4142 8284
43137 21568
35203 17601
29052 58104
28152 56304
18481 36963
13489 26978
6907 13815
27289 54578
7255 14511
45755 22877
66539 33269
47053 23526
41026 20513
29838 59676
54630 27315
48939 24469
12062 24124
22482 11241
3312 6624
27824 55649
23329 46659
35399 17699
33221 66443
27490 54980
4980 9961
11523 23046
65710 32855
4808 9617
35978 17989
29931 59863
3926 1963
370 740
27119 13559
29139 14569
1705 852
8924 17849
13830 27660
6801 13602
11514 5757
11307 5653
22846 11423
25581 12790
15930 7965
32217 64435
35803 17901
17830 35661
38087 19043
16585 33170
68307 34153
8058 16117
31403 62807
54896 27448
12209 24418
31519 63038
62862 31431
38776 19388
12188 24377
62446 31223
18914 37828
1013 2026
29100 58201
19642 39285
9835 4917
40492 20246
3419 6838
20312 10156
7993 15987
10174 5087
6492 12984
32103 16051
9550 4775
18293 36587
58364 29182
67519 33759
32816 65632
13861 27723
33802 67605
22429 44859
35088 17544
6914 3457
12814 6407
41275 20637
48270 24135
56487 28243
33124 16562
29399 14699
2582 1291
19746 39493
4082 8164
14881 29762
12873 25747
16638 33277
30387 15193
7147 14294
26366 52732
54898 27449
7481 3740
24199 48398
23859 47719
17372 34745
37370 18685
1475 737
31296 15648
16161 32323
45072 22536
24805 49611
17929 35858
15277 30555
8765 17530
59803 29901
34096 68192
16049 32098
37458 18729
27967 55934
26927 53854
67671 33835
22461 44922
20490 40981
24433 48866
29038 14519
58401 29200
3863 1931
28808 57617
17289 8644
56300 28150
28620 57240
29722 14861
20095 10047
55824 27912
6316 12633
12193 24386
2413 4826
5687 2843
60782 30391
12746 25493
10827 21655
22102 11051
64622 32311
16846 33693
63453 31726
4756 9513
1611 3223
26863 13431
24034 48069
45993 22996
24412 48824
18232 9116
31062 15531
63032 31516
8252 16505
21382 10691
19149 38298
32031 16015
39182 19591
42929 21464
59390 29695
53888 26944
5090 10181
34077 68154
6811 13623
22910 45820
38152 19076
25954 51909
11083 22166
50246 25123
4461 8922
68809 34404
15288 7644
39957 19978
25825 12912
318 636
7242 3621
43189 21594
34083 68166
21582 43164
17271 34542
12947 25895
29457 14728
48412 24206
16667 8333
2200 1100
52698 26349
28272 56544
593 1187
14220 28440
26217 52435
2161 4322
4452 2226
1809 3619
38834 19417
2566 1283
26716 53432
30157 15078
19675 39350
32684 65368
32340 64681
26711 53423
42413 21206
17403 8701
20125 10062
22766 45532
15520 31040
15746 31493
9150 18301
15247 30494
2955 5911
44660 22330
21749 43498
64136 32068
14811 29622
4864 9728
32888 65777
61841 30920
47909 23954
11045 22091
29958 14979
8146 16293
5931 11863
31002 62004
6608 3304
22717 45435
41004 20502
15423 7711
7735 3867
67900 33950
11483 22967
17291 34583
315 157
4545 2272
53220 26610
6844 3422
60055 30027
22776 45553
57222 28611
19397 38794
393 787
26433 52867
35841 17920
9270 18541
14932 29865
8082 4041
39183 19591
5089 10178
50442 25221
21041 42082
9833 19666
65070 32535
12149 24299
7429 14858
9297 18594
12323 24647
25181 12590
33572 67145
11497 22994
10096 20193
13579 27158
16041 32082
4976 2488
31146 62293
8794 17588
18651 37303
27153 13576
3963 1981
56687 28343
3854 7709
11977 23954
15331 30662
58695 29347
22008 44016
1610 805
19160 9580
50609 25304
32974 65949
37088 18544
9594 19189
9167 18335
18956 37912
33336 16668
7291 3645
21532 43065
32742 16371
20782 41565
32549 65098
47972 23986
14761 7380
1197 2394
52972 26486
16946 33893
3687 7374
67597 33798
16679 33359
20103 40206
33100 66200
34370 68740
1716 858
16075 32150
35988 17994
9824 19648
32430 64861
28917 57835
53755 26877
43536 21768
14723 29447
20402 10201
55003 27501
4527 9054
33032 66065
37528 18764
8456 16912
28555 57111
12003 6001
3644 7288
17204 34409
19905 39811
25800 51600
6442 12885
41146 20573
1989 3978
25483 12741
2120 1060
10392 20785
25872 51745
17849 35698
8856 4428
9263 4631
20405 10202
41854 20927
33659 67318
16153 32307
29618 59237
6679 3339
31638 63277
45133 22566
42391 21195
53723 26861
18405 9202
44942 22471
43679 21839
14860 29721
36602 18301
11405 22811
11394 5697
18681 37363
15583 31166
22269 44539
14597 29195
35774 17887
10328 20657
32267 64535
31308 62616
31877 63755
39719 19859
37109 18554
10399 5199
16028 32056
21972 43945
18489 9244
48881 24440
21757 10878
8918 4459
24857 12428
27214 54429
16845 33690
35979 17989
46813 23406
22888 11444
19667 39335
46690 23345
11882 5941
59334 29667
15639 31278
9432 18864
49496 24748
44800 22400
13271 26542
40453 20226
1419 709
22655 11327
9303 4651
52601 26300
59571 29785
39292 19646
34108 68216
42355 21177
14593 29186
5350 10701
12436 24872
12958 25917
15773 31546
53457 26728
22092 11046
31922 15961
5393 2696
30485 15242
18129 9064
6096 3048
16597 8298
25132 50265
9118 18236
29521 59043
10935 21871
21134 10567
59393 29696
31087 15543
3061 6122
64380 32190
26373 52746
38367 19183
21712 43425
29701 59402
10554 5277
42033 21016
51239 25619
13627 27255
30404 60808
6092 12185
11456 22912
23623 47247
8608 4304
33076 66153
40556 20278
24966 49933
34606 69212
59600 29800
19119 9559
49225 24612
35261 17630
12571 25143
18789 37578
50934 25467
66211 33105
172 86
28071 56142
21059 10529
4914 2457
31989 63979
25517 51034
57445 28722
2705 5410
18783 37567
12260 24520
22801 45603
14429 28859
20029 10014
33698 67396
30513 61026
22023 11011
38784 19392
34597 69194
32189 64378
59164 29582
5199 2599
20774 41549
22045 11022
33633 16816
13687 27375
65473 32736
31545 63091
22280 11140
3243 6487
23209 11604
43374 21687
5469 2734
55392 27696
19473 9736
32775 16387
12442 24885
26127 52254
4447 2223
52767 26383
3760 7521
10977 5488
42782 21391
9853 19706
21029 42059
15882 31764
3372 6744
26030 52060
24687 49375
9504 19009
26948 13474
32836 65673
11050 22101
41102 20551
5855 11710
4473 8946
33028 66056
24297 12148
29321 58643
23507 47015
44130 22065
34280 68561
31093 15546
23867 11933
63141 31570
20153 40307
49478 24739
50162 25081
46582 23291
15216 30433
5533 11067
22361 44722
14582 29164
8575 4287
28010 56020
38616 19308
24441 48883
4447 8894
15257 30515
20786 41573
11921 23843
23962 47924
3296 1648
13183 26366
4023 8046
7759 15518
18194 9097
28686 57373
54679 27339
38620 19310
31393 62786
43940 21970
33436 66873
8289 16579
376 753
8509 17019
16118 32236
43463 21731
25063 50127
7695 15391
26430 52860
35640 17820
8243 16486
13609 6804
17475 34950
25582 51165
11203 22406
53390 26695
64187 32093
21420 10710
66815 33407
42482 21241
22356 44713
34589 69178
55370 27685
3679 1839
22761 45523
28790 57581
58329 29164
17615 8807
27517 55034
51495 25747
13361 26722
14357 28714
1936 3873
35147 17573
69118 34559
7591 15182
26636 53273
31081 62163
41656 20828
58562 29281
548 274
4438 8877
13616 6808
33748 67496
6981 13963
11608 23216
14658 7329
13594 27189
45304 22652
61786 30893
30109 15054
23249 11624
7377 3688
9257 18514
10145 20290
25919 51839
1239 2479
29090 14545
32783 16391
7083 14166
37704 18852
27303 54607
23955 11977
58902 29451
57711 28855
12457 24915
19141 38283
59564 29782
40533 20266
11353 22706
47964 23982
60001 30000
25152 50304
57135 28567
8517 17034
22005 44010
1 2
25263 50526
48230 24115
21499 42998
15321 7660
25821 12910
24089 48179
22669 11334
47435 23717
23250 46501
3740 7480
66412 33206
8374 4187
44632 22316
20960 41920
67728 33864
63303 31651
19232 38465
7800 15601
21676 43353
37427 18713
19124 38248
4875 2437
27632 13816
24534 12267
19443 38886
29297 58595
20171 10085
3433 6866
19384 38768
35050 17525
22235 44471
10266 20532
31759 15879
53229 26614
59287 29643
12435 24870
10258 20516
2392 4785
39483 19741
26612 13306
6259 3129
5654 11308
21666 10833
29177 58354
29407 14703
10178 20356
22786 45573
32433 64867
20846 41693
38203 19101
13850 27701
24326 12163
4685 9370
3408 6817
2579 5158
58363 29181
38333 19166
50091 25045
29239 58479
11645 5822
39370 19685
3087 6175
30462 15231
24670 12335
27243 54487
7206 14412
29982 14991
53484 26742
25768 12884
29471 58943
33176 66352
48591 24295
21577 43154
23160 11580
58377 29188
21375 10687
67447 33723
10136 20273
47258 23629
29867 59734
55752 27876
8212 16424
24758 49516
22310 44620
34103 68206
32081 64163
47094 23547
18064 36129
4389 8778
12878 25756
21774 43549
9784 19568
10629 21259
3301 1650
11663 5831
33949 67898
19845 39691
15345 30690
1451 2903
18041 36082
45825 22912
4730 9460
31253 15626
22755 11377
7036 14073
4716 9433
24855 49711
57924 28962
31541 15770
27146 54292
48018 24009
5334 2667
245 490
17770 8885
19427 38854
52342 26171
6521 13042
9949 4974
3822 1911
42464 21232
41865 20932
21943 43886
29607 59215
2934 1467
7744 15489
5148 10297
27354 54708
23509 47018
29625 59251
5284 2642
16869 33738
10456 20913
11534 23068
36320 18160
4481 8962
2808 5616
8092 16185
5231 10462
28995 57991
11090 5545
14468 28937
9146 4573
29425 14712
274 549
63528 31764
9943 4971
40707 20353
24841 49682
10680 21360
40403 20201
46524 23262
61937 30968
11890 23780
35294 17647
21074 42148
56667 28333
11288 22576
4515 9031
54139 27069
34183 68366
19494 38989
14891 7445
20714 10357
53218 26609
6397 12795
30985 61970
37250 18625
25931 51863
1510 3021
29960 59920
31347 62695
26040 52081
6474 3237
31382 62765
2347 1173
28536 14268
41261 20630
7319 14639
49152 24576
69141 34570
39559 19779
28602 57204
28451 56903
19954 9977
5090 2545
49859 24929
21184 42369
9164 18329
2617 1308
24323 12161
14331 7165
43396 21698
21013 42026
58810 29405
12115 24231
21395 42790
67054 33527
25130 50261
5811 11623
5699 11399
16404 32809
21546 10773
24186 48373
67489 33744
20268 40536
3921 1960
2370 4740
34416 68833
32337 16168
45775 22887
18162 9081
12464 6232
17527 35054
30928 61857
50045 25022
40454 20227
68145 34072
5680 11361
37611 18805
38290 19145
32853 65706
25998 12999
724 1448
20773 41547
4199 8399
18644 37288
22823 45647
29939 14969
681 340
3494 6988
17569 35138
12743 25486
452 904
22722 45444
64601 32300
8509 4254
30126 15063
24113 48226
64260 32130
8690 17380
24006 48012
15465 7732
14149 28299
31527 15763
29415 58830
24956 49912
27623 55247
2586 5172
33245 66490
30254 15127
27953 55907
4160 8321
34659 17329
17920 35840
16165 8082
44758 22379
28990 57980
39872 19936
8214 16428
24147 48295
23534 47068
12275 24550
10710 5355
57501 28750
42332 21166
34858 17429
16912 33824
21186 42373
17558 8779
985 492
3409 6819
8119 4059
31218 62437
19050 38100
38851 19425
24651 49302
779 1558
29799 59598
11066 22133
5722 11445
10943 21887
20192 40385
9018 18037
44538 22269
3399 6798
22877 45754
32713 16356
13862 6931
34938 17469
31834 63668
32951 65902
59183 29591
11403 5701
5818 11636
64203 32101
46805 23402
23242 11621
33037 66074
14349 28698
20915 41831
19410 38820
31312 62624
18291 9145
11436 5718
43797 21898
24475 12237
26550 13275
14 29
8474 4237
5819 11638
35691 17845
24604 49209
20709 41419
57333 28666
47513 23756
25633 51267
1127 2255
61153 30576
22951 45903
18496 9248
28829 57658
37515 18757
15321 30642
8832 17664
44934 22467
51804 25902
9168 4584
12287 24575
27291 54582
65179 32589
48597 24298
25571 51142
9451 18902
28047 14023
16082 32165
14869 7434
21191 10595
11955 23911
59308 29654
13212 26425
21474 42949
27172 13586
18614 37229
20453 40907
4283 8567
32539 65079
55782 27891
2400 4801
27218 13609
10080 20160
9398 18796
61137 30568
4402 8804
19529 39058
22425 44851
36007 18003
14232 28464
44290 22145
15373 7686
10940 5470
24307 12153
31003 15501
26306 52613
11087 22174
51579 25789
23071 11535
12764 6382
64663 32331
27103 54206
22309 44618
34562 17281
10441 20883
1698 849
59106 29553
57212 28606
8656 17313
64126 32063
2475 1237
9679 4839
25109 50219
18661 9330
9920 19841
28933 14466
50154 25077
14955 29911
27995 13997
14729 29459
9866 19732
40018 20009
20622 41245
26641 53282
7953 15907
14229 28459
29869 59739
65550 32775
33967 67935
16270 32540
25431 12715
1325 2651
25321 50643
11285 22570
24213 48426
20812 41624
26844 53688
59200 29600
12784 6392
23637 11818
9834 19669
28331 14165
24011 48022
16656 33313
40843 20421
21139 10569
51919 25959
25503 12751
65276 32638
64733 32366
58077 29038
17343 34687
33103 66207
63880 31940
23222 46444
43023 21511
30918 15459
34537 17268
34231 68463
19353 38706
3304 6609
1880 3761
23881 47763
30635 61271
538 269
42210 21105
5154 2577
52755 26377
5609 11218
18271 9135
26672 13336
8275 16551
15568 7784
2710 5421
3346 6692
28486 56973
7721 15442
1450 2901
18665 37331
6666 3333
29758 59517
8789 17578
8110 16221
29636 59273
7858 15717
43792 21896
19735 9867
47198 23599
24747 49494
33847 16923
30304 15152
63338 31669
7590 3795
15637 31274
12850 6425
8934 17868
14435 28871
2129 4258
49734 24867
16608 8304
63502 31751
16204 32409
1126 2253
12706 25413
18676 37352
46074 23037
7646 15293
15490 30981
62304 31152
4532 9065
11141 22283
46775 23387
18145 9072
14060 7030
13387 6693
8935 17870
964 1929
51322 25661
7170 3585
50722 25361
42754 21377
58985 29492
5868 2934
15752 31504
18969 37938
11814 23629
12901 25803
5511 11022
8593 4296
29698 59397
33630 67260
23905 11952
48115 24057
13095 6547
38357 19178
24648 12324
34464 17232
28845 57691
44753 22376
28321 56643
13754 6877
3836 1918
44601 22300
13114 26228
41503 20751
7687 3843
26825 53650
3341 1670
33353 66707
21806 10903
20132 40265
29801 59602
57069 28534
33766 67533
19250 38500
51812 25906
5825 11650
65028 32514
24733 49466
28936 14468
17694 35388
12138 24276
2555 5111
12703 6351
16029 32059
38145 19072
41244 20622
32249 16124
22425 11212
30470 60941
7099 14198
30372 60744
13597 6798
5991 11982
6337 3168
10271 20542
7876 15753
33296 66592
24306 48612
15370 30740
60783 30391
21675 10837
3456 6912
9705 19410
4202 8404
9338 18677
59648 29824
56392 28196
13236 26473
66030 33015
31104 15552
2042 1021
21261 42522
32769 16384
32972 65944
32795 16397
26845 53691
12154 24308
27673 55346
17439 34878
66186 33093
9416 18833
52819 26409
6895 13790
31901 63803
11278 22557
25456 50912
13235 26470
9295 18590
48234 24117
12948 25897
20914 41829
22556 45112
20851 41702
29462 14731
33668 67336
58330 29165
65020 32510
45609 22804
18613 9306
40662 20331
27780 55561
45519 22759
22675 11337
33973 16986
8031 16063
7454 3727
58110 29055
59879 29939
12097 24194
8449 16898
67536 33768
30163 60327
37607 18803
10778 21556
51376 25688
55967 27983
6186 12372
64263 32131
9102 18205
24873 12436
21901 43803
50564 25282
32633 65267
47861 23930
23443 11721
16213 32426
43721 21860
23995 47991
30694 61388
7270 14540
33122 66245
62727 31363
25019 50039
1042 2084
15140 7570
11651 5825
29802 14901
31008 15504
15000 7500
10615 21230
6134 12269
65983 32991
34048 17024
35710 17855
396 198
38345 19172
34199 68398
7706 15413
57832 28916
21802 10901
61759 30879
10082 5041
48921 24460
56535 28267
25670 12835
21814 43628
15494 7747
36165 18082
6329 12658
33204 16602
12780 25561
1609 3218
9213 18426
18720 37441
49011 24505
35162 17581
40777 20388
50114 25057
29795 14897
28056 14028
5389 10779
32593 65187
20592 10296
33246 66492
36286 18143
50706 25353
15690 31381
14778 29556
6946 3473
32456 16228
555 277
11622 23244
261 522
19372 38745
4423 8846
56511 28255
824 1648
4871 9742
17013 34027
66009 33004
3995 1997
6477 12955
18184 9092
28524 57049
33544 67088
33187 66374
32856 16428
19530 9765
14848 29696
28362 56725
53063 26531
19312 38625
10850 5425
24917 49834
22494 44989
9533 19067
63867 31933
61332 30666
47130 23565
67933 33966
17369 34739
47303 23651
30344 60688
3154 1577
63713 31856
62562 31281
1112 556
22762 11381
53667 26833
21101 10550
1865 3731
18703 9351
15958 31916
12109 24218
33764 67529
12950 25901
33580 67160
19848 39696
7309 3654
6396 12793
31198 15599
63357 31678
9518 19036
20767 41534
343 687
31567 63134
59285 29642
59055 29527
2683 1341
9023 4511
35051 17525
47201 23600
22144 44289
24322 12161
22311 11155
7504 15009
10424 5212
53809 26904
17250 34500
15443 7721
58321 29160
3934 1967
17334 34668
43375 21687
13352 26705
19996 9998
16087 32175
909 1818
25664 51328
18150 36300
9877 19754
52747 26373
3948 1974
51942 25971
21690 43380
31384 15692
42485 21242
90 180
24172 48345
29776 14888
30217 60434
61050 30525
20497 40994
23152 46305
33636 67273
12427 24855
17799 35598
16451 32902
3259 6519
52039 26019
32208 64416
3191 6383
32035 64071
10986 21972
6455 3227
67696 33848
59123 29561
6048 12096
61195 30597
7716 15432
17912 35824
21446 42892
316 633
8910 17820
27638 55276
54700 27350
61890 30945
49213 24606
8105 4052
32864 16432
21168 42337
8889 4444
21705 43411
62830 31415
5166 2583
510 1020
638 1276
57478 28739
33321 66642
36160 18080
1314 657
11731 5865
14932 29864
1638 819
16729 8364
17822 35645
37763 18881
1380 690
6766 13533
22909 11454
18579 37158
1849 924
19405 9702
25428 50856
52466 26233
52251 26125
15102 30204
12400 24801
26133 52267
14651 29302
14285 28571
16508 33016
29078 58156
19174 9587
7966 15932
7700 3850
46785 23392
8327 16655
3542 7085
24192 48384
35480 17740
43241 21620
7862 3931
41912 20956
41453 20726
41786 20893
4978 9956
46712 23356
51273 25636
18814 9407
54103 27051
5357 10715
18148 36296
57127 28563
24844 12422
7198 3599
1835 3671
53332 26666
20129 40258
31034 62069
13761 6880
2736 5472
30773 61547
23491 11745
34813 17406
45413 22706
15826 7913
9268 4634
23953 47906
275 551
18086 36172
20762 41524
38134 19067
33806 67612
14935 29870
394 789
1534 3068
65535 32767
6421 12843
28768 14384
49448 24724
24153 48307
10828 5414
48066 24033
65084 32542
25933 12966
18419 9209
4715 9430
24803 49606
70 140
26388 13194
22458 44917
24073 48147
15309 30618
34709 17354
67315 33657
13206 26413
51256 25628
28404 56808
5899 11799
18874 37749
9898 19796
24732 49464
67345 33672
27475 13737
65282 32641
19259 38518
7860 15721
62382 31191
56004 28002
5356 10713
28322 56644
9740 19481
29270 58540
12851 6425
2702 1351
49669 24834
10349 20698
17573 8786
10461 20923
18009 9004
42739 21369
33654 67308
29332 14666
55917 27958
7096 14193
4451 2225
27099 54198
34406 17203
39031 19515
27916 55833
52113 26056
30813 15406
6365 12730
14598 7299
444 889
16666 33333
2588 5177
63684 31842
61912 30956
18630 37260
20756 10378
36972 18486
10610 21220
30092 60184
4720 2360
8448 4224
14467 7233
26932 53864
66532 33266
12987 25975
31359 62718
20653 10326
26970 53941
8958 4479
14155 28310
24684 49368
13617 27234
28245 56491
27394 54789
40687 20343
22978 45957
18413 36827
37774 18887
9159 4579
20717 41435
17491 8745
31961 63923
57586 28793
47760 23880
4242 8484
23574 47149
18456 36912
15757 31514
41756 20878
19332 9666
3076 1538
26460 13230
28181 56363
32968 65937
14342 7171
28830 57661
25644 51289
64079 32039
20462 10231
34026 68052
22999 45998
45224 22612
179 358
24201 48403
12291 24582
23040 46080
2291 1145
4466 8933
16602 8301
65553 32776
2302 4604
45199 22599
53750 26875
26281 52562
11624 23248
4414 8828
23900 47800
3725 1862
16521 33042
69218 34609
5278 10557
58236 29118
61921 30960
18736 9368
9450 18901
61754 30877
9732 4866
10799 21599
9758 4879
31429 62859
28004 56008
2765 5531
9218 18436
27094 54188
34622 17311
62193 31096
43070 21535
26528 53057
7018 14037
22410 44820
34126 68253
32790 65580
6040 3020
20506 41013
20666 41333
1628 814
33426 16713
24533 12266
6353 12706
38342 19171
60155 30077
25067 12533
42395 21197
11582 23165
7642 15285
23385 11692
2384 1192
36996 18498
27121 13560
31052 62104
44370 22185
28318 14159
11952 5976
47297 23648
54432 27216
34305 68610
59907 29953
49937 24968
16847 33694
22191 44382
20216 10108
28803 14401
365 731
2660 1330
13197 6598
6702 13405
46397 23198
45036 22518
20818 10409
8736 17473
34400 17200
53675 26837
826 413
25166 12583
34526 69053
8381 16762
6414 12828
32575 16287
12044 24088
35705 17852
21799 10899
25209 12604
5926 11852
26556 13278
5950 11901
16760 33520
53710 26855
15069 30139
13864 6932
8747 17494
14603 7301
2164 4329
27364 54728
37623 18811
34620 69240
16841 33683
12662 6331
4081 2040
22969 11484
55432 27716
54020 27010
21334 42668
36396 18198
51860 25930
31773 15886
53381 26690
28576 57153
64142 32071
8912 17824
54548 27274
63956 31978
25385 50770
609 1218
13402 26804
8991 4495
1156 2312
13751 27502
290 580
58535 29267
17699 35398
48342 24171
1180 2361
40946 20473
17566 35133
32119 64239
6135 12270
14744 29489
39129 19564
8169 16339
16288 8144
15302 30604
49547 24773
65980 32990
9229 4614
6443 12887
59315 29657
11884 23768
17451 34903
25019 50038
16559 33119
14650 29300
37803 18901
61198 30599
15565 31130
31946 63893
2535 5070
5095 10191
8671 17342
18397 36794
12698 25396
18719 37438
34577 69155
57592 28796
44992 22496
19722 9861
48182 24091
28572 14286
43138 21569
62340 31170
26520 13260
24746 49492
5928 11857
9728 19456
25376 50753
32809 65619
2062 4124
36477 18238
35610 17805
17623 8811
18830 37660
16833 33667
25798 51596
8508 17016
6190 3095
17745 8872
9543 19087
18996 37993
63667 31833
6523 3261
40764 20382
11156 22312
33398 66797
22526 45053
10820 21640
4787 9574
8376 16752
27194 54389
14803 29607
68476 34238
25356 50713
32528 16264
14649 7324
15010 7505
32778 16389
67592 33796
2391 4783
55669 27834
9888 19776
24129 48258
47096 23548
8355 4177
13597 27195
60871 30435
10351 20702
31869 15934
8438 16877
35906 17953
17320 34640
20287 10143
52744 26372
58327 29163
19653 9826
58869 29434
48100 24050
12117 6058
8372 16745
34069 17034
63458 31729
16176 32352
32309 16154
25969 12984
44217 22108
62754 31377
14386 7193
51103 25551
61607 30803
27677 13838
6292 12585
50634 25317
18050 36100
25494 12747
61671 30835
5505 11010
28678 57357
3546 1773
8483 16967
11711 23423
7315 14630
27133 54267
6922 3461
47872 23936
2607 5214
20308 10154
28269 14134
51430 25715
28149 56299
7825 3912
37188 18594
42913 21456
23567 47135
16310 32620
531 265
33785 16892
6542 13084
61589 30794
17729 8864
48133 24066
2572 5145
22200 11100
21716 10858
36982 18491
13729 6864
9255 18510
16363 8181
37439 18719
41755 20877
45055 22527
27550 55100
9724 4862
64056 32028
11671 23342
35716 17858
39728 19864
9579 19159
16179 32358
45285 22642
15575 31151
6173 12346
32127 16063
3093 6187
21295 42591
17548 35097
8735 17471
33363 16681
29612 14806
20014 10007
69305 34652
26916 53833
15393 30786
66763 33381
15852 31705
3510 7021
2869 1434
12013 24026
44952 22476
24854 12427
21494 10747
57902 28951
24950 49900
33981 16990
183 367
29336 14668
20454 40908
68659 34329
43418 21709
59846 29923
14134 7067
9903 4951
8928 17856
3810 1905
6090 3045
32309 64619
25102 50205
4119 8239
28938 57877
17750 8875
24646 49292
5294 2647
7300 14601
44105 22052
47329 23664
25343 12671
63521 31760
11627 23255
34133 17066
34109 68218
27152 13576
23909 47818
16469 32938
34499 68998
382 191
10741 5370
27570 55140
69292 34646
30457 60915
7136 14272
32917 16458
7979 3989
10355 20710
68568 34284
578 289
7410 14820
7648 3824
12437 6218
1978 989
6417 3208
20187 10093
20779 41558
1900 3801
61488 30744
8996 4498
26564 13282
31770 63541
6543 3271
61427 30713
46502 23251
33280 16640
1372 686
52596 26298
22202 44404
31709 15854
48260 24130
17948 35896
32947 16473
8980 17960
26376 52753
16236 8118
63492 31746
55922 27961
13243 6621
53761 26880
16750 33500
10502 21004
2522 5045
23083 46166
58844 29422
1052 2104
67119 33559
21754 43508
8788 17577
5011 10023
3071 6143
10412 20825
21662 10831
17359 34718
5228 2614
56843 28421
33229 66458
26102 13051
4494 8988
808 1617
2452 4904
28637 57275
21204 10602
30588 61176
8280 16561
28996 57993
8070 16141
18433 36866
18336 36673
33804 67608
30536 61073
3845 7691
7735 15470
14013 7006
6126 12252
56828 28414
5866 11732
68242 34121
546 1093
66078 33039
46385 23192
24969 49938
13151 26302
19398 38796
252 126
61645 30822
33560 16780
4731 2365
26284 52569
43153 21576
27839 55679
6391 12783
10341 5170
11398 22797
45839 22919
11103 5551
3225 1612
31860 63720
18635 37271
20813 10406
20420 40841
14077 28155
26784 53568
36608 18304
20701 41402
17192 34384
59249 29624
4385 2192
7264 14529
13010 6505
5769 2884
41170 20585
50460 25230
44405 22202
9084 18169
15336 30672
15641 31283
60226 30113
20058 40116
18502 37004
16989 33978
3787 7575
30469 60938
16591 33182
63981 31990
46070 23035
12933 25866
24887 49775
3127 6254
26103 13051
9662 19324
52585 26292
18822 9411
19005 38010
24319 12159
33408 16704
18002 9001
66010 33005
54321 27160
2361 4722
63315 31657
12416 24833
11875 23751
30467 60934
23758 11879
7168 14336
68758 34379
19261 9630
59278 29639
26264 13132
12057 6028
16233 32466
32378 64756
2348 4696
68764 34382
24605 49210
1147 2295
27460 54920
6040 12081
23886 47772
12206 6103
62090 31045
12369 6184
8351 16702
11447 22894
47676 23838
23390 46780
53855 26927
25406 50812
48117 24058
3023 6047
13455 6727
31995 63990
12504 25009
10473 20946
26211 52422
46405 23202
68214 34107
45905 22952
31246 62492
13880 27761
15510 7755
2669 1334
14724 29448
20259 10129
32632 16316
11949 5974
8915 17830
27365 54731
22986 45972
6328 12656
38186 19093
38197 19098
6547 13094
67200 33600
19688 39376
25287 50574
25504 51008
5547 11095
8408 16817
40690 20345
14797 29594
19893 9946
9395 18790
21183 42367
25033 50067
19466 38932
22702 11351
21827 10913
14772 29544
6872 13744
17770 35541
17402 34804
24258 48517
41830 20915
59696 29848
30705 61411
7162 14324
10031 5015
55525 27762
67621 33810
1514 3028
20844 41689
48103 24051
2801 1400
8759 17518
28229 14114
15167 30335
11269 5634
16433 8216
12488 6244
28831 14415
60148 30074
14422 28844
34542 69085
23208 11604
37793 18896
25749 51498
52496 26248
16616 8308
28435 14217
44915 22457
8568 4284
26667 53335
39922 19961
29844 59689
2393 4786
9275 18551
40842 20421
26718 53436
26395 13197
7103 3551
5357 2678
18466 36932
38137 19068
15580 7790
11167 5583
6146 12293
7002 14004
17219 34438
7904 3952
29603 59207
28064 56129
11794 5897
26145 52291
23673 47347
25990 51981
21062 10531
33866 67732
65593 32796
38652 19326
24509 49019
28607 57215
33532 67064
33598 16799
43830 21915
3411 6822
61082 30541
54200 27100
803 401
46393 23196
11999 23998
15657 31314
32640 65281
50896 25448
21124 10562
9100 18201
30576 15288
22348 11174
8849 4424
41342 20671
34016 17008
23349 46699
62610 31305
21620 43240
7238 14477
13601 6800
38256 19128
22353 44707
802 401
563 281
34324 68648
23820 11910
18815 37630
38272 19136
56182 28091
7832 15665
29933 59866
22442 44885
19080 38161
41994 20997
27292 54584
516 1032
40714 20357
38211 19105
22028 11014
30148 60296
17708 8854
40820 20410
5184 10369
10119 5059
22648 45296
2104 4209
31738 15869
31343 62687
27385 54771
31921 63843
26904 13452
25321 50642
30519 15259
5133 10266
60614 30307
466 932
15513 31027
20162 10081
4192 8385
1875 3750
30775 15387
13060 26120
15722 7861
2822 5645
7448 14896
7585 15171
56655 28327
6369 12739
64798 32399
46529 23264
9577 4788
24052 48105
9199 18398
21621 43243
64608 32304
13354 26709
12802 6401
49609 24804
67458 33729
40627 20313
20183 40366
29368 58737
40057 20028
4243 2121
6596 3298
28450 14225
7544 3772
60747 30373
11201 22402
51362 25681
37886 18943
16725 8362
58314 29157
12198 24397
66986 33493
17291 8645
5809 11618
46717 23358
29850 14925
11921 5960
2993 1496
52968 26484
15894 31788
498 249
53954 26977
7423 3711
14044 7022
5148 2574
29678 14839
25482 50964
33132 66264
65939 32969
55243 27621
4144 8289
7426 14852
29558 14779
15080 7540
7527 3763
22372 44745
49698 24849
1519 759
30398 60796
17843 35687
404 809
34466 68933
5043 10086
57213 28606
51281 25640
42880 21440
36045 18022
12570 6285
29937 59874
15009 30018
11423 5711
891 1782
1337 2675
11428 5714
28063 14031
3725 7451
22533 11266
51946 25973
14915 7457
3557 7114
38606 19303
11635 5817
21466 42933
65650 32825
4628 9256
25776 51552
25252 12626
53684 26842
37443 18721
6172 12345
59262 29631
21064 42129
27423 54847
65071 32535
8709 4354
18345 36691
24058 48116
25566 51132
17187 8593
63815 31907
36207 18103
35871 17935
5768 11536
45995 22997
7468 14936
25927 51854
58882 29441
13496 6748
5724 11448
30952 61904
21393 42787
23434 46868
25861 51722
28093 56186
14079 28158
22068 44137
25468 50936
17102 8551
64141 32070
10431 20863
19490 38981
2104 4208
15577 31155
5178 10356
53 106
29435 58870
20246 40493
52493 26246
13005 26010
19289 38579
44923 22461
29269 14634
20560 41120
6584 3292
13023 26046
4933 2466
10954 5477
6504 13009
51632 25816
34113 17056
3914 7829
60154 30077
20218 40436
20632 41264
38602 19301
16835 8417
42968 21484
23501 47003
4492 2246
4149 2074
21299 42598
31949 15974
24783 49567
45818 22909
32622 65244
26352 52705
34305 68611
5510 11021
55175 27587
20628 10314
20249 40498
9545 4772
1385 2771
68326 34163
40000 20000
28307 56614
46650 23325
8433 16866
22509 45019
3321 6643
19300 9650
58565 29282
1420 2841
31138 62277
25840 51680
26865 13432
55047 27523
63957 31978
12621 25242
18227 9113
56704 28352
28254 56509
41468 20734
13697 6848
49182 24591
22962 11481
22256 44512
43539 21769
43928 21964
33320 66641
62648 31324
29290 58580
3431 6863
8586 17173
7865 3932
8577 4288
9057 18115
43303 21651
11889 5944
48008 24004
12069 24139
14066 7033
10295 5147
1413 2827
23925 47850
4540 9080
546 273
42900 21450
14262 28524
55827 27913
17445 34890
20487 40975
59732 29866
27017 13508
14945 7472
35405 17702
3699 7399
21850 43700
43401 21700
311 623
18935 37871
14141 28283
8041 16082
18839 37678
22342 44685
16463 32926
16260 32521
3348 6696
48288 24144
21456 42912
31206 62413
12163 24327
348 697
19034 38068
11795 23590
2654 1327
7809 15618
33244 66489
19319 9659
284 568
16999 33999
49652 24826
14179 7089
27601 55203
26095 13047
63862 31931
29991 59982
14330 28660
7056 3528
33204 66409
7675 15351
16102 32204
68928 34464
15615 7807
36818 18409
13637 6818
486 972
26736 53473
36359 18179
2133 4267
41521 20760
23909 11954
42036 21018
7875 3937
24511 49023
10313 5156
17067 34135
2914 5828
25351 50702
66494 33247
26046 52093
53190 26595
14345 28691
24212 12106
41285 20642
2714 1357
16226 8113
47143 23571
21494 42989
617 308
17064 34128
30943 61887
34434 68869
19131 38262
68268 34134
10356 20712
16408 32816
4973 2486
22352 44704
31320 62640
12289 24578
22784 45569
45700 22850
28970 57941
13480 6740
14288 7144
34492 68984
8125 16250
16502 8251
16566 8283
8011 16022
27894 55788
1884 942
20855 10427
13910 6955
14181 28363
31945 15972
27807 55615
16302 32604
8473 16946
2047 4094
28817 57634
25813 51627
35032 17516
31956 63913
30421 60843
24467 48934
26799 53599
57122 28561
31854 63709
12925 25851
15283 7641
2526 1263
30095 60191
58530 29265
16643 33287
32570 65141
1901 950
31801 63602
33548 67096
30615 15307
26777 13388
45504 22752
64652 32326
27122 13561
32331 16165
57857 28928
36051 18025
31921 15960
7474 3737
33174 16587
45281 22640
11419 5709
34649 69299
8182 16365
15162 7581
34267 68535
48671 24335
12016 24033
17723 8861
27657 55315
68344 34172
17866 35732
2595 5190
2683 5367
10386 20772
7491 14982
29576 59153
6824 13649
51247 25623
25775 51550
14672 7336
22502 45005
12002 6001
9243 4621
48542 24271
51356 25678
51700 25850
4847 9694
56908 28454
61972 30986
31827 15913
14656 7328
62073 31036
19098 9549
5163 10326
29080 58161
28342 56684
30304 60609
2923 1461
4052 8104
30993 61987
22779 45559
32212 64425
25068 50137
10967 21934
21656 43313
33270 66540
6323 3161
35528 17764
20655 41311
12454 6227
49336 24668
7915 15831
32154 16077
14770 29541
20661 41322
2665 1332
21083 42166
34234 68469
6318 12636
17031 34062
16962 8481
2652 5304
33186 66372
39620 19810
20743 10371
57227 28613
26020 52040
64295 32147
1342 2685
5513 11027
19721 39442
17133 8566
60240 30120
1773 886
33531 67063
4099 2049
21152 42304
34633 17316
19757 39515
22411 44823
45833 22916
27557 55115
17978 8989
26321 52642
41059 20529
3434 6868
1541 770
8336 16672
47041 23520
12286 6143
4400 8801
16436 32873
39864 19932
3283 6566
18324 36649
48441 24220
68387 34193
4026 2013
20545 41090
48001 24000
19041 38082
16317 32634
16110 32220
25013 12506
13246 26493
15346 30692
12857 25715
16763 33526
11210 22420
32866 65733
15974 31948
11178 22356
22526 45052
15827 7913
20524 10262
21769 10884
33923 67847
10247 20494
35767 17883
5916 11833
17529 35059
61370 30685
61230 30615
6250 12501
4762 2381
8941 17882
41814 20907
39485 19742
27158 54316
23247 46494
14700 29400
15378 7689
11217 22435
18892 9446
66748 33374
31006 62012
27173 13586
32261 64523
22772 45545
61950 30975
12097 24195
69134 34567
39092 19546
36374 18187
33465 66930
32587 16293
41179 20589
3311 1655
20569 41139
28109 14054
13755 27510
40364 20182
20402 40804
24775 49550
32871 16435
61196 30598
2215 4430
1754 3509
69143 34571
21727 10863
7208 14416
67589 33794
1955 977
4008 8017
1128 2256
9171 4585
27568 55137
17205 34411
21053 42107
30908 15454
19073 38146
8752 17504
28580 57160
5313 2656
65295 32647
64120 32060
27039 54078
25298 50596
12260 6130
2553 1276
23608 11804
17045 34090
65757 32878
45628 22814
69080 34540
58843 29421
7050 14100
2705 1352
52950 26475
19607 39215
17336 34673
14366 28733
24454 12227
28354 56709
59165 29582
28762 57525
1581 790
44990 22495
27288 13644
9089 18178
29187 58374
8063 4031
24200 48400
30447 15223
29828 59656
32955 65911
16612 33224
8580 17160
8375 16751
59530 29765
12285 24571
16057 32114
41614 20807
27170 13585
1176 2352
25435 50871
34644 69289
68025 34012
10751 21503
24037 48075
52230 26115
21459 42919
3059 1529
47612 23806
61906 30953
22862 45724
39235 19617
678 339
35034 17517
27227 54454
48589 24294
12467 24935
61426 30713
22017 44035
15004 7502
65188 32594
65903 32951
31010 62020
2668 1334
26548 53097
32305 64611
30286 60572
32531 65062
25729 12864
24902 49805
26345 52691
24279 48558
29852 14926
53651 26825
1069 2138
239 119
62513 31256
12628 25256
34114 17057
24673 49347
67811 33905
33192 16596
4144 8288
28811 57623
9803 4901
41178 20589
13400 26800
49039 24519
42479 21239
4773 9546
33691 16845
19400 38800
35430 17715
22848 45696
25951 51903
6255 3127
22188 44377
53747 26873
18929 9464
4752 2376
14105 28210
15303 7651
26394 13197
3282 6564
5836 11673
25035 50071
20405 40811
63119 31559
13453 6726
18955 37910
28088 14044
10733 21466
28736 57472
59913 29956
1594 3188
203 101
34319 68638
41662 20831
12557 6278
29436 14718
27213 13606
1256 2513
2525 1262
6308 12616
50452 25226
68752 34376
36989 18494
1883 3766
47298 23649
55225 27612
31586 15793
50469 25234
18021 36043
54755 27377
8130 16261
11029 22058
62359 31179
33822 67644
8848 4424
46773 23386
14143 28286
47473 23736
13854 6927
9895 19790
25626 12813
21826 43653
30749 61498
55438 27719
27970 55941
2767 1383
29035 58070
28169 56339
12691 6345
21158 10579
52643 26321
30345 60691
59790 29895
34955 17477
29406 58813
68808 34404
57776 28888
14844 29689
22121 44242
59477 29738
3616 7233
26464 52928
13279 26559
57830 28915
27429 13714
49746 24873
27843 13921
31408 62817
34615 69230
30902 61804
55353 27676
26203 52406
50948 25474
42934 21467
12044 24089
65329 32664
1517 758
25921 12960
59367 29683
5987 11975
9861 4930
52336 26168
52541 26270
32348 16174
8953 4476
23037 11518
30962 61925
20761 10380
25060 50121
31951 63902
20523 41046
34145 17072
58520 29260
10637 21275
44941 22470
21377 42755
4077 2038
7027 14055
32755 65510
9459 18918
30108 60217
17309 8654
1893 3786
30338 60676
35992 17996
27969 55938
33968 16984
31239 62478
58172 29086
12459 24918
11608 23217
17350 34701
1692 3385
54416 27208
834 1669
21298 42596
52804 26402
26268 52536
8425 4212
1145 2290
12560 25120
62620 31310
3931 7863
1857 928
28607 14303
49623 24811
23828 47657
17454 34909
32787 65575
62049 31024
6682 3341
6641 13282
10400 20801
34268 68536
14858 29717
4838 2419
13976 27952
4373 8746
64573 32286
61809 30904
28465 56931
21479 42959
62876 31438
28850 14425
19384 38769
47649 23824
87 174
65227 32613
65675 32837
45187 22593
23917 47834
37824 18912
27307 13653
3470 1735
60851 30425
12225 24451
15009 30019
60671 30335
8730 17460
2260 4521
45337 22668
5894 11789
7281 14562
31478 15739
650 325
3570 7141
28384 56768
25659 51319
57626 28813
21641 43283
27616 55233
13215 26431
25713 51426
36825 18412
30229 15114
1924 3849
27855 55710
67737 33868
26122 13061
28728 57457
28143 56287
31969 63939
33131 66262
26545 13272
29876 59752
6066 12133
22085 44171
29196 58392
15871 7935
11298 22596
9191 18382
21406 10703
30522 61044
31957 63914
20149 40298
22401 44803
7026 14053
26587 13293
13463 6731
25280 12640
54301 27150
25332 50664
43053 21526
23079 46158
62080 31040
57441 28720
3367 6735
51063 25531
9050 18101
11537 23075
25455 12727
32050 64100
62878 31439
9870 19741
50817 25408
55817 27908
22756 45513
23322 46644
2448 1224
64849 32424
65151 32575
2876 1438
7393 14787
59550 29775
12977 6488
29847 14923
30235 60470
21751 43503
10587 5293
44621 22310
11349 5674
11975 23950
35913 17956
495 247
48958 24479
14899 29799
30507 61014
19691 39383
57789 28894
58949 29474
34786 17393
46547 23273
19400 9700
59857 29928
62831 31415
14736 29473
29129 58259
28462 14231
30086 60173
22572 45144
16419 8209
2367 1183
18453 36907
4607 9215
20051 40103
45011 22505
5234 10468
21378 42756
44348 22174
3187 6374
9139 18278
32352 64704
50130 25065
16872 33745
17422 34844
766 383
53443 26721
32294 64588
12642 25285
28502 14251
30582 61165
1149 2298
61745 30872
6447 3223
24925 49851
10947 21894
47236 23618
4408 8817
20903 41806
29127 58255
29924 59848
65990 32995
27953 55906
34071 17035
48537 24268
8019 16039
30682 61364
7359 14718
16757 33514
34362 17181
14690 29380
32527 65054
25543 51087
7112 14225
63247 31623
2405 4811
43424 21712
19115 38231
11460 5730
46192 23096
41663 20831
46627 23313
48203 24101
68367 34183
6447 12894
4300 8600
57147 28573
4627 9255
9210 18421
56583 28291
8665 4332
41763 20881
10781 21563
30152 60305
31516 15758
27634 55268
32548 65097
4368 2184
29413 14706
5975 11950
7301 3650
28409 14204
27700 55401
34704 17352
26972 13486
37526 18763
27006 54012
11509 5754
22298 44597
18219 9109
4764 9528
4658 9316
22542 11271
12083 24167
24298 48596
18213 36427
24287 48574
55388 27694
60037 30018
19726 9863
45978 22989
47330 23665
943 471
857 1714
5646 11292
8425 16851
46674 23337
28558 14279
28744 14372
17435 34871
33034 16517
13399 6699
25075 12537
22577 45155
31888 63777
2018 4037
27033 13516
58170 29085
31476 62953
8356 16713
7467 3733
28204 14102
5865 11730
63698 31849
55981 27990
26737 13368
24006 12003
27312 13656
34634 17317
30848 61696
4672 2336
19808 39616
56099 28049
46371 23185
28500 14250
17569 8784
12154 24309
12679 25359
9878 19757
8704 17408
16697 33394
24332 12166
57056 28528
854 427
30928 15464
32581 65162
20487 40974
55659 27829
9673 19347
44477 22238
63250 31625
13033 6516
11538 5769
25787 12893
30908 61817
33750 16875
39837 19918
13906 27812
21640 43281
11869 23739
19744 39488
63728 31864
28833 14416
11669 5834
55326 27663
32206 64412
9596 19193
18498 9249
24059 48119
3218 6437
14270 28540
9160 4580
825 1651
66617 33308
30087 60174
21661 10830
56419 28209
15895 31791
19216 9608
53451 26725
22383 44767
9595 4797
19807 9903
17223 34446
471 942
22407 11203
8498 16996
34372 68745
12301 24602
24964 49929
59286 29643
56216 28108
25291 12645
47293 23646
3210 6420
28323 56646
7167 14334
25244 50488
10163 5081
13049 26098
2737 5475
35493 17746
10737 5368
27628 55257
35772 17886
9157 18315
13333 26666
34293 17146
8874 4437
22628 45257
33915 67831
28517 14258
40183 20091
9163 4581
37984 18992
35196 17598
56445 28222
2611 5222
20160 40320
7184 3592
27967 13983
65909 32954
32546 16273
6817 13634
7969 3984
35914 17957
20731 41463
19308 9654
40239 20119
34299 68599
48386 24193
6144 12289
36669 18334
22644 11322
3472 6944
31405 15702
66416 33208
147 73
19626 9813
27964 13982
19499 9749
17676 35352
28982 14491
33954 67908
13811 27623
17783 35567
18622 37245
11102 22204
6542 3271
28527 57055
18261 36522
68769 34384
8197 16394
10032 5016
47090 23545
26085 52170
28744 57488
14957 29914
28050 56101
60628 30314
20010 40021
479 958
10693 21387
32749 65498
614 307
43356 21678
9128 4564
9655 19310
17263 8631
4971 2485
12007 24014
19277 38554
3543 7086
43219 21609
25008 12504
17903 35807
2063 4126
28705 57411
31393 62787
3573 1786
29590 14795
9228 18456
22312 44624
8756 17513
61858 30929
65225 32612
15652 31305
15053 7526
17054 34109
1377 2755
68626 34313
31167 62335
22001 11000
24308 48616
12951 25903
34536 69072
30134 60268
40571 20285
65818 32909
46178 23089
30584 15292
18036 36072
47437 23718
48478 24239
1755 3511
30061 15030
35588 17794
23728 47456
308 616
34358 17179
15575 7787
15830 31660
10789 5394
3472 6945
9998 19997
761 1523
33276 16638
50806 25403
12786 6393
29696 59392
46374 23187
22251 44502
32838 16419
16469 8234
33576 67153
25490 50981
12263 24527
14209 7104
7730 15461
20729 41459
36386 18193
48233 24116
12980 6490
18750 37500
45086 22543
16474 32948
3067 6134
28927 57855
16617 33234
50148 25074
11855 23711
54311 27155
1717 3435
23558 47116
20645 41290
33329 16664
1161 2322
22883 45767
2906 5813
22225 11112
7008 14017
8057 16114
12233 24467
44875 22437
15397 7698
61682 30841
16336 32673
35023 17511
31439 15719
1088 2177
41989 20994
5082 10164
52108 26054
26989 53979
14619 29239
50822 25411
14047 28095
66640 33320
28394 14197
54142 27071
24072 12036
45543 22771
7469 14939
64026 32013
67568 33784
39174 19587
24590 49180
29363 58726
16148 8074
8132 4066
34915 17457
16675 8337
69313 34656
31996 15998
14903 7451
1481 2962
66046 33023
7838 3919
22692 45385
1163 2326
9982 4991
45500 22750
20336 40672
7353 14707
22507 11253
10855 21710
7568 15137
183 91
53066 26533
66947 33473
10871 5435
2218 4437
18133 36266
38475 19237
68171 34085
20047 10023
12434 24869
10226 20452
26220 52441
3710 7420
14549 7274
22075 44150
12445 24891
21995 43991
9425 4712
19869 39738
28496 56993
50992 25496
19519 39039
26920 13460
25718 12859
5320 2660
12257 24515
26176 52352
51793 25896
32907 65815
15082 30165
43376 21688
2616 1308
14442 28885
20078 10039
5524 11049
14359 28718
6777 3388
26134 52268
9158 18317
26985 53970
51004 25502
5751 11503
31840 63681
68679 34339
34267 17133
26115 52231
37732 18866
2123 4247
15347 30695
10894 21789
26510 53020
5841 11682
30744 61489
25081 50163
446 892
47351 23675
31843 15921
302 604
9334 18669
67534 33767
21661 43322
1966 3933
9699 4849
59080 29540
33223 66447
7244 14488
20672 10336
12499 24999
21185 10592
10910 21821
10760 21521
15389 30778
14054 7027
62829 31414
22491 44983
51660 25830
46727 23363
55297 27648
38126 19063
32344 16172
9619 19238
16162 32324
8314 4157
30013 15006
66231 33115
12261 24523
30498 60996
62067 31033
12397 24795
24608 12304
177 354
34213 17106
27445 54891
42685 21342
16370 8185
32927 65855
54717 27358
40519 20259
10636 21272
26746 53492
17122 34244
6105 12211
38716 19358
9648 19297
1866 933
20951 10475
67141 33570
17547 35094
7812 3906
27603 13801
15233 30466
19542 39085
22946 45892
60120 30060
62510 31255
29083 14541
7430 14860
67978 33989
27342 54684
13574 6787
28216 56432
9279 18558
51628 25814
23981 11990
58196 29098
52970 26485
11255 5627
20819 41639
23630 47260
16527 33055
15385 30771
6656 3328
25456 12728
10897 21795
63251 31625
14615 29230
14725 29450
50025 25012
5603 11207
32872 16436
10210 20421
3253 6507
44197 22098
15111 7555
58836 29418
3184 6368
51490 25745
34185 68371
47371 23685
27597 13798
21136 42273
26419 52838
28028 56057
37485 18742
5525 11050
55963 27981
57407 28703
31158 62316
58649 29324
16870 8435
14635 29271
30057 15028
9888 19777
7996 3998
63066 31533
29189 14594
64527 32263
59695 29847
18491 36983
19829 9914
41380 20690
27236 54472
23296 11648
25490 50980
15169 30338
30022 15011
7145 14290
48362 24181
788 394
15024 30048
44527 22263
24319 48639
10 21
45948 22974
13277 6638
62983 31491
3687 1843
9126 18252
4491 8983
41947 20973
22399 44799
46601 23300
58113 29056
58098 29049
18970 37941
14750 29500
56481 28240
21376 10688
21727 43455
28768 57537
2006 4012
16850 8425
1243 2486
32668 65337
9634 4817
12803 6401
14243 28486
30207 60414
10297 20595
20398 10199
43395 21697
17311 8655
39554 19777
29451 14725
23150 46300
25464 50929
15749 7874
8221 4110
5903 11806
34136 17068
12021 24042
18770 37540
4109 8218
11606 23212
64568 32284
5647 2823
38359 19179
30115 60230
3810 7620
21630 43260
20918 41837
175 350
32959 65918
10523 21047
15587 7793
55622 27811
10402 20805
68133 34066
23720 47440
58285 29142
34481 68962
43683 21841
5758 11516
21666 43333
35206 17603
6057 3028
60473 30236
20889 10444
35897 17948
28895 57791
45670 22835
3959 7918
25983 51966
64979 32489
66659 33329
5084 2542
59208 29604
39288 19644
6650 13301
68694 34347
28373 56746
53464 26732
27395 13697
28989 14494
14145 28290
11651 23302
27407 54815
705 352
13214 6607
14262 28525
21913 43826
15434 7717
291 583
23728 47457
42896 21448
56624 28312
53048 26524
29198 58396
32207 16103
1163 581
55810 27905
18579 37159
10640 5320
58235 29117
5257 10514
11777 5888
55620 27810
7320 14640
7646 3823
3123 6247
66809 33404
2593 1296
30612 15306
11826 23652
4045 8090
3384 6768
65682 32841
28773 57546
39991 19995
16129 32259
30827 61654
46593 23296
54172 27086
33471 66942
34179 17089
44517 22258
13979 27958
21226 42452
35128 17564
15947 31895
11420 22840
6008 12017
24836 49673
11939 5969
23873 47747
31004 62008
26459 13229
42594 21297
13943 27887
63463 31731
17111 34223
17080 34161
18314 9157
15787 7893
22526 11263
7625 15251
28882 14441
5166 10333
2971 5942
48120 24060
26032 52064
7081 14163
18701 37402
6557 3278
31661 63323
31323 15661
42796 21398
16492 32984
24444 48889
29519 59038
48634 24317
60330 30165
9983 4991
13664 6832
13929 27859
19467 9733
10919 21839
14833 7416
27460 54921
21605 43210
39470 19735
18326 36652
31180 62360
21326 42653
60947 30473
32595 16297
68702 34351
8538 4269
18135 36270
18599 37199
537 1074
45508 22754
42928 21464
9381 18763
40050 20025
5876 11752
20144 40289
56869 28434
9454 18908
27862 55725
44282 22141
19087 38175
8214 16429
4607 2303
8260 16521
32039 16019
31747 63495
2607 1303
11132 5566
20455 10227
49800 24900
33238 66476
65801 32900
27527 55054
16125 32251
58041 29020
33010 66020
9738 19477
26875 53751
12508 25016
15909 7954
23370 46741
31902 63804
26384 52769
23968 47937
46212 23106
21467 10733
3376 6753
33649 16824
9686 19372
51813 25906
32060 64121
3091 1545
55001 27500
5078 2539
23690 11845
5707 11414
22215 44431
63657 31828
21796 43593
7143 14287
60459 30229
23671 47342
39084 19542
36953 18476
19685 39371
34637 69275
55258 27629
69159 34579
8089 4044
62626 31313
47615 23807
41746 20873
14086 28173
4053 8106
38476 19238
22560 45121
12689 25379
44378 22189
28825 57650
36796 18398
17845 8922
24514 49028
5206 10412
27934 55869
9963 19926
3394 1697
41226 20613
44395 22197
58586 29293
8026 16052
10655 21310
68907 34453
1068 2137
28639 14319
21365 42731
30422 60845
24226 48453
43270 21635
30235 15117
59455 29727
17873 8936
37165 18582
14127 28255
24600 49200
3642 7285
2389 4778
21477 42955
32742 65484
58762 29381
9889 19779
33482 16741
27092 13546
63642 31821
31650 63300
10848 21696
31399 62798
2721 5443
22663 45327
59841 29920
16830 8415
19683 9841
11352 22705
3939 7878
2793 1396
47465 23732
55721 27860
61190 30595
27389 13694
48553 24276
33096 66192
16214 8107
12560 6280
52535 26267
1133 2267
26188 52377
38963 19481
15765 31530
33448 66896
18319 9159
35684 17842
44951 22475
27865 55731
9225 18451
999 499
21814 43629
29858 59716
9875 19750
1627 3254
47 23
45139 22569
34283 17141
1639 819
24523 49047
17109 8554
18233 36466
15758 7879
14692 29384
15386 7693
32431 16215
32593 65186
50658 25329
6 12
28215 14107
33332 66664
29230 58461
12795 25591
48354 24177
12031 24063
24545 49091
7669 15338
17900 8950
28095 56191
20082 10041
1292 2584
12010 24021
17496 34992
36942 18471
4680 2340
56949 28474
13409 26819
1261 2522
44008 22004
15932 31864
25239 12619
13630 6815
33378 66756
67948 33974
34050 17025
267 534
205 102
16790 33580
30577 61154
30754 15377
54002 27001
478 956
27515 13757
25184 50369
11987 23975
43735 21867
9852 19704
6023 12046
46108 23054
26792 53584
5281 10563
65760 32880
21524 43049
12603 25207
17931 35863
16797 8398
17198 34397
60341 30170
10276 5138
20820 10410
23944 11972
19920 39841
19485 38971
30051 15025
156 312
48130 24065
5625 11251
5044 10088
60804 30402
4949 9898
4686 9373
9503 19007
32480 64961
12416 24832
23601 47203
22052 44104
28287 56575
53535 26767
28559 57118
16175 32351
46139 23069
69285 34642
12676 25353
33069 66138
32522 65044
35872 17936
2738 5476
3703 7406
14064 28129
5560 11120
8322 4161
31217 15608
42411 21205
68701 34350
63976 31988
10894 21788
2762 5524
2433 4867
38861 19430
5441 10883
8843 17686
837 1675
2673 5346
21186 10593
65794 32897
15999 31999
5831 2915
66699 33349
3747 7495
48715 24357
11812 23624
10973 5486
30865 15432
26617 53234
60800 30400
23822 11911
62704 31352
20520 41040
38634 19317
14082 28165
6664 3332
53369 26684
24151 48302
61103 30551
26162 52324
39723 19861
62386 31193
16026 8013
9645 19290
6605 13211
7740 15481
26984 53969
13287 26575
25536 51072
10178 20357
26440 52881
6411 3205
19396 38792
30284 15142
58485 29242
65379 32689
19227 38455
18095 36191
18358 36716
27702 55405
63641 31820
53117 26558
22028 44056
32512 65024
9099 4549
69076 34538
33747 67494
33454 66909
45749 22874
11354 5677
21204 42409
899 1798
7135 3567
19414 38829
58778 29389
12095 24191
28504 57008
35471 17735
18481 9240
11260 5630
40122 20061
29968 14984
7632 15264
31731 63462
5484 10968
7963 15926
55589 27794
13218 26436
24372 48745
26307 52615
65068 32534
30146 60293
19051 9525
24719 49439
17856 35712
17248 8624
61066 30533
11282 22564
26326 52653
7999 15999
24322 48644
6526 13052
3474 6949
6499 3249
13417 6708
43739 21869
19386 38773
32896 65792
46440 23220
57273 28636
43669 21834
41805 20902
24754 49508
13115 26231
20735 41470
9606 19213
17743 35487
20025 10012
34152 68305
30948 61896
8769 17538
21807 43615
27712 55424
22329 44659
14979 29959
17266 8633
49338 24669
49589 24794
21505 10752
35174 17587
37050 18525
969 1939
14278 28557
1797 898
67572 33786
32004 64008
19816 39633
1738 3476
31999 63999
61055 30527
22066 11033
58253 29126
36701 18350
15248 30497
55665 27832
33849 16924
41871 20935
9299 18599
34902 17451
28096 56193
28595 57191
21342 42684
13932 27865
17118 8559
2787 1393
20195 10097
13055 26110
37076 18538
27546 55093
3300 6601
50538 25269
61755 30877
30925 61851
25566 51133
31368 62736
29063 14531
17337 34674
30817 61635
10879 21758
21366 42733
41439 20719
62038 31019
39196 19598
23985 11992
7306 3653
17772 8886
39381 19690
46675 23337
55275 27637
34597 69195
66594 33297
10598 5299
31481 62963
9220 18441
18603 37207
16009 32019
24043 48087
14516 29033
30420 60840
9074 18148
57710 28855
32553 16276
33875 16937
21796 43592
68807 34403
69075 34537
16286 32572
3535 7070
10397 5198
8374 16749
29312 14656
50066 25033
18437 36874
25629 12814
7095 3547
13998 27996
34566 69133
12144 6072
10692 21385
1625 3250
13677 6838
29339 14669
30033 60066
45612 22806
27889 13944
20458 10229
18647 9323
64653 32326
17167 8583
15936 31873
27427 54855
44920 22460
11753 5876
28801 14400
59904 29952
17380 34760
2614 5229
2861 5723
2593 5186
29417 58834
14869 29739
17391 34783
20169 10084
62654 31327
38381 19190
1927 3855
16303 32607
58278 29139
39153 19576
41646 20823
22434 11217
27692 55384
12973 25947
22013 44027
26967 53934
13517 27034
56187 28093
60020 30010
13109 26219
25092 12546
13196 6598
17827 35655
30973 15486
6967 13935
13192 6596
4972 9944
4684 9369
10129 20258
31039 62078
18297 9148
32259 64518
809 1618
22395 44791
30810 61620
25401 12700
14121 7060
12237 6118
46198 23099
31168 62337
62064 31032
7210 3605
6900 3450
57040 28520
9363 4681
34548 69097
17547 8773
13952 27905
9579 4789
45843 22921
20494 40989
61929 30964
55572 27786
14142 7071
17621 35242
46532 23266
26973 53946
50139 25069
51098 25549
26404 13202
24553 49107
12400 24800
24958 49917
5397 2698
40723 20361
10162 5081
9309 4654
24379 48759
23158 46317
36756 18378
25996 12998
66585 33292
45928 22964
31970 63941
61604 30802
35049 17524
30401 15200
45241 22620
12477 24955
68719 34359
39407 19703
7871 15743
23273 46546
23503 47007
5406 2703
22726 11363
40279 20139
33398 16699
50559 25279
10571 21143
34235 17117
31366 15683
62514 31257
32608 16304
26948 53897
6265 3132
17100 8550
34635 69271
29286 58573
24596 12298
27463 54927
4191 8383
11375 22751
33785 67571
10393 20787
1734 3469
34240 17120
44352 22176
20360 10180
25132 50264
25237 12618
1064 2128
62578 31289
17846 35693
5153 2576
42516 21258
40518 20259
39714 19857
24516 12258
25942 51885
20469 40939
28076 56152
27812 55624
26651 53303
22527 45054
6378 12757
24163 12081
16963 8481
65738 32869
40484 20242
4857 9714
33552 16776
66344 33172
40207 20103
25310 12655
19890 9945
59572 29786
20227 10113
6690 3345
18715 37430
32270 64540
8177 4088
13571 27143
31183 15591
2691 1345
27215 54431
27484 13742
51453 25726
44523 22261
6780 13560
16202 32405
27346 13673
16197 32394
21049 10524
63307 31653
58667 29333
39248 19624
26661 53322
675 337
22597 45195
56526 28263
8672 17344
7621 15242
2833 1416
63275 31637
33480 66960
18640 9320
21608 43217
57348 28674
9235 4617
18038 36076
47172 23586
16746 33492
24868 49736
8255 16510
33634 67268
43577 21788
56932 28466
62344 31172
3574 7149
50529 25264
26837 53674
24908 49816
54098 27049
29498 58996
36142 18071
24388 48776
61297 30648
27376 13688
7964 15928
59197 29598
15115 7557
3432 1716
32814 65629
10656 21313
58081 29040
10598 21197
17835 35671
22751 45502
29827 59654
964 482
2884 1442
32769 65538
32798 65597
26271 52543
3714 7429
67508 33754
6019 12038
38341 19170
13881 6940
57499 28749
35365 17682
14202 28405
20002 10001
11256 22513
20953 41907
41034 20517
13405 26811
3078 6157
13069 26139
23290 46581
30369 15184
23108 46217
27289 54579
3424 6848
36778 18389
31200 62400
32930 65861
25564 12782
43853 21926
20665 10332
43820 21910
3091 6183
24120 48240
33834 16917
14203 28406
19270 38541
26521 13260
66802 33401
23066 11533
65443 32721
22173 44346
31557 63115
9022 4511
40291 20145
19982 9991
18796 37592
16221 32442
33129 66258
5607 11214
9554 19108
4272 8544
5848 11697
7584 3792
50102 25051
27506 55012
17216 8608
9535 19070
10609 21219
19458 38916
8203 16407
9083 18167
35452 17726
16243 8121
65542 32771
64765 32382
65101 32550
17009 34019
30908 61816
7824 3912
16748 8374
43962 21981
15649 7824
18129 36259
18857 37715
11765 23531
7731 15462
20882 41765
5426 2713
31347 62694
469 234
47978 23989
17837 8918
28926 57852
26804 53609
29256 58513
55154 27577
46414 23207
6926 3463
62945 31472
27370 54740
30088 15044
41379 20689
5054 2527
27404 54808
34525 17262
12923 25847
61951 30975
922 1844
20919 41838
64895 32447
29399 58798
23422 46845
29944 59888
29975 59950
68911 34455
12889 6444
61387 30693
55856 27928
21918 43837
60512 30256
22639 45278
26075 52151
25642 51285
5156 2578
16581 33162
26768 13384
46268 23134
63082 31541
36985 18492
63278 31639
3795 7591
9228 4614
35424 17712
2040 1020
26135 52271
25911 51822
26022 52044
23092 46185
15344 30689
19170 38340
493 987
35494 17747
23716 11858
30330 60660
59039 29519
30072 60144
18559 37118
31330 62661
33632 67265
50695 25347
47412 23706
27637 13818
68069 34034
28986 57972
35267 17633
59045 29522
49998 24999
6900 13800
58146 29073
5234 10469
18167 36335
24171 48343
9474 18948
26474 52948
60157 30078
67037 33518
17837 35674
29008 14504
60720 30360
63970 31985
31267 62534
16093 32186
64557 32278
22075 44151
1911 3823
68173 34086
12858 6429
12823 25647
7509 15018
104 52
31365 62730
33647 16823
61872 30936
21099 42199
4576 9152
230 460
20586 10293
6640 13281
21783 10891
7504 15008
2063 1031
11457 22914
37972 18986
39018 19509
19115 9557
28115 56231
25735 51471
43436 21718
1050 2101
11424 22848
15705 31411
51147 25573
69248 34624
5567 2783
22150 44301
50226 25113
26396 52792
28354 14177
27560 55120
22977 45955
34733 17366
3846 7693
30389 60778
17172 34344
15136 30273
59360 29680
3039 6078
14156 28313
57717 28858
19899 9949
9768 4884
32462 64925
26039 13019
44554 22277
17769 35538
19208 38416
48192 24096
67692 33846
36334 18167
8342 4171
3447 1723
32558 65117
39776 19888
66060 33030
28984 14492
21238 42476
393 196
18405 36811
60712 30356
22303 44606
12521 25043
15666 31332
8795 17590
63575 31787
17708 35417
978 489
33537 67075
6887 13775
23908 47817
8132 16264
23797 11898
34792 17396
46724 23362
28348 14174
49318 24659
48744 24372
34111 17055
13351 26702
14867 29735
29027 58054
20155 40310
59436 29718
5327 10655
10644 21289
22032 44064
17580 35160
49405 24702
61405 30702
52068 26034
26663 13331
36501 18250
49114 24557
6191 12383
31382 15691
15432 30864
11331 5665
27098 54196
1856 3712
10512 5256
25099 12549
8664 17328
20486 40973
51029 25514
4725 9451
17703 35407
20846 10423
62866 31433
3940 1970
62912 31456
27710 55420
1793 3586
22414 11207
63293 31646
24810 49621
12238 24477
37340 18670
16152 32304
67411 33705
9575 19150
23474 11737
34868 17434
48685 24342
14275 7137
27765 55531
26030 52061
54224 27112
33031 66062
13996 27992
15685 31370
16088 32176
28275 56550
32588 16294
11189 5594
67657 33828
24305 48611
21290 10645
24863 49727
6327 12655
22686 45373
9715 19430
50387 25193
2007 1003
13212 6606
23144 46289
66893 33446
19324 38649
49724 24862
11614 5807
54095 27047
14136 7068
1081 2162
61552 30776
12809 25618
22968 11484
32851 65702
14083 28167
15038 7519
31759 63518
48871 24435
57265 28632
35960 17980
2457 4915
35955 17977
29075 58150
32164 64329
19328 38656
4731 9463
42797 21398
22904 45808
3861 1930
17534 8767
60133 30066
976 1953
6110 3055
18323 36647
32615 16307
7538 15076
19743 39487
33946 67892
28068 14034
17424 8712
60014 30007
33067 16533
48547 24273
30472 60944
2344 4688
16358 32716
3342 6685
31094 62189
5752 2876
3033 6066
60050 30025
6906 3453
52210 26105
40457 20228
9001 18003
943 1886
13963 27927
13747 6873
25549 51099
2843 1421
27791 55583
32577 65154
3881 1940
63039 31519
5958 11916
10335 20671
13184 26369
50042 25021
50009 25004
3991 7983
4233 8466
45666 22833
43979 21989
50525 25262
27759 13879
12083 6041
19492 38984
26849 53699
11811 23623
52278 26139
28169 14084
9391 4695
60376 30188
4609 9219
895 447
6658 13316
10952 5476
4936 9872
42414 21207
33725 67450
8200 16400
60538 30269
5279 2639
4617 9234
22022 11011
1788 3577
19264 38529
22113 11056
7746 15493
15162 30324
3465 6931
27598 13799
9183 18366
888 1777
3758 7517
9985 4992
15458 30917
9382 18765
1312 656
25464 50928
4152 8304
17410 8705
33025 16512
23211 46423
31724 63448
58106 29053
30050 60101
30057 60115
17679 8839
26275 52551
24718 49436
28973 14486
15339 7669
8576 17153
32062 16031
2762 1381
27693 55386
30167 60335
15218 30437
45469 22734
32065 64130
33477 66954
22320 44640
53312 26656
30807 61615
38511 19255
38654 19327
58769 29384
17584 35169
34677 17338
10698 21396
19052 38105
47093 23546
1300 650
9953 19907
9930 19860
17979 35959
13510 27020
11962 23925
13041 26083
8974 17948
3889 7779
62700 31350
4064 8128
32274 16137
26423 13211
27124 54248
6153 12306
52258 26129
6082 3041
22823 11411
27644 13822
24401 48803
14668 29337
9816 4908
16253 32506
34125 68250
15954 31908
11364 22729
28661 14330
63198 31599
16727 33454
10002 20004
27760 55521
11816 5908
23077 46155
28723 57447
14512 7256
20926 41852
21771 43543
56723 28361
20297 10148
6996 13993
41159 20579
14621 29243
21763 43526
24240 48480
12690 25380
55898 27949
32732 65464
494 988
69222 34611
39973 19986
17138 34276
5821 2910
21109 42218
26462 52925
4847 9695
23286 46572
7901 15802
31461 62922
25611 51223
31771 15885
32030 64060
36846 18423
12192 24384
18712 37425
26249 52498
21624 43248
32240 16120
8005 16010
13285 26571
9755 19511
34852 17426
15226 30452
12434 6217
8794 4397
54110 27055
11488 5744
31971 15985
15470 30940
7698 15396
37947 18973
17790 35580
6483 3241
8173 16347
3221 1610
2081 4162
19486 9743
52803 26401
21953 43907
34242 68484
17540 35080
18113 36226
18066 36133
36859 18429
8446 4223
63703 31851
27604 55208
11439 5719
12379 6189
47288 23644
21679 43359
40391 20195
3423 6847
6077 12155
55976 27988
4962 9925
42906 21453
69083 34541
2916 5832
9468 4734
23050 11525
3686 7372
20458 40916
29279 14639
36415 18207
25171 12585
50239 25119
19831 39663
20349 10174
28554 57108
10050 20100
19584 9792
34282 17141
51516 25758
22210 44421
21441 10720
24252 48505
35545 17772
22503 45007
34202 68404
1106 2212
64269 32134
18612 9306
25657 51314
13449 6724
23449 11724
15361 7680
26396 13198
14930 29861
7324 3662
5574 2787
29684 14842
33961 67922
33201 66403
250 500
35815 17907
10566 21133
15901 7950
5373 10746
26527 53054
17647 35295
57116 28558
22586 11293
56593 28296
33774 67548
13807 6903
57085 28542
66533 33266
16802 33605
6221 12442
35142 17571
61313 30656
1096 548
24483 12241
17115 34231
9047 18094
46774 23387
24532 49065
21469 42939
16079 32158
3414 6829
54015 27007
22704 45409
730 1460
31470 62940
64805 32402
32543 65087
47084 23542
18373 36746
35568 17784
4086 8173
61102 30551
3585 1792
13119 6559
30282 60565
2219 4439
2629 1314
12891 6445
28441 14220
10445 20891
53460 26730
25173 50346
9906 19813
15621 7810
38393 19196
51760 25880
3354 6709
36722 18361
28844 57688
34505 69011
32704 65409
15905 31810
13658 27316
9852 19705
8926 17853
43304 21652
13740 6870
22748 45496
2851 1425
46769 23384
7311 14623
39294 19647
61024 30512
39586 19793
9055 4527
3024 6048
33060 66120
1392 696
3528 7057
26635 13317
2778 5557
26022 13011
40399 20199
22820 45641
11239 22479
66606 33303
41857 20928
13817 27635
27782 55565
22619 45239
49514 24757
9897 19794
26536 53072
69052 34526
28451 14225
5804 11608
10418 20837
64302 32151
63019 31509
24521 49043
93 186
30784 61568
61515 30757
66731 33365
8606 17213
4534 9069
41988 20994
28175 14087
52338 26169
48145 24072
8675 4337
4527 2263
11967 23934
14679 7339
5504 11008
33063 66127
31821 63643
2452 4905
8315 4157
52188 26094
36218 18109
50477 25238
29181 58362
58349 29174
2702 5405
50156 25078
1286 2572
10122 20244
64939 32469
8711 4355
30920 61840
669 1339
10186 20372
6668 13337
19354 38708
9097 18195
22282 44564
40124 20062
10933 5466
24214 48428
1500 3001
67729 33864
69056 34528
64469 32234
42282 21141
31780 15890
34954 17477
13255 26510
24462 12231
17537 35074
41037 20518
49615 24807
34475 17237
8850 17700
18949 37898
29285 58571
47475 23737
46500 23250
14881 7440
32678 16339
45002 22501
6528 13057
11184 5592
4807 9615
30794 15397
58226 29113
27816 55633
26318 13159
56426 28213
23122 46244
12559 25119
18807 9403
17667 35334
51603 25801
27349 54699
1015 2031
20828 10414
12912 25824
2862 1431
15425 30850
1990 995
8517 4258
25874 51748
32497 64994
45810 22905
1065 532
32452 64904
444 888
67134 33567
41552 20776
31279 62558
27322 13661
11854 23708
45426 22713
58687 29343
18048 36096
30191 15095
963 1927
66025 33012
24919 49839
10824 5412
39315 19657
33606 67212
66019 33009
31106 62212
24343 48686
64947 32473
17416 34833
5267 10534
32251 64503
66125 33062
10506 5253
15470 30941
3199 6399
12534 25068
13659 27318
14406 7203
28489 14244
25446 12723
14732 7366
12399 24798
20863 41726
9873 4936
64891 32445
34591 69182
17786 35573
64844 32422
28318 56637
7260 3630
17870 35741
10614 5307
38954 19477
28152 56305
54596 27298
18969 9484
35329 17664
22217 11108
16497 32995
9439 4719
1775 3550
14322 7161
32356 64712
38038 19019
11668 23336
57708 28854
40311 20155
7597 15194
9601 19203
38226 19113
46318 23159
31893 63787
25689 51378
31199 62399
27649 55299
53112 26556
48330 24165
25958 51917
62235 31117
32169 16084
1172 586
7067 14135
32758 65516
6702 3351
30395 60790
11613 23227
16522 8261
44050 22025
30650 61300
21932 10966
26420 52841
34026 17013
43718 21859
27483 54966
22763 45526
3651 1825
19253 38507
52610 26305
39594 19797
25676 51352
68920 34460
49278 24639
10282 20565
22761 45522
19020 38041
9744 19489
63020 31510
63232 31616
24581 49162
32346 64692
28973 57947
62232 31116
17270 34540
7131 14262
10443 5221
51945 25972
13493 6746
22396 44793
31297 62594
5400 2700
12498 24996
33178 16589
8384 16769
41093 20546
60475 30237
30275 15137
7263 14526
6940 3470
22901 11450
43682 21841
101 50
26644 13322
11263 5631
13822 6911
12804 25608
59254 29627
29986 14993
8450 16900
4388 8777
10895 21790
10339 20679
24065 12032
37562 18781
42008 21004
24031 48062
58895 29447
22930 45861
46987 23493
3251 1625
2169 4338
52545 26272
11826 23653
28150 14075
8997 4498
9226 18453
35851 17925
1755 877
19164 38329
13148 6574
21305 10652
22700 11350
56054 28027
23169 46338
37384 18692
13942 27884
5472 10944
22637 11318
16984 8492
5912 11825
15976 31952
21611 43222
31419 62839
755 1510
16078 32157
5206 10413
67241 33620
12196 24393
13702 27405
11426 5713
22608 45216
19501 39002
53348 26674
40257 20128
23347 46694
34192 68385
66550 33275
29341 58683
51962 25981
19571 39142
1876 3753
18028 36056
28718 57436
1492 746
5744 11489
33521 67042
1120 2241
4956 9913
13201 26403
27627 55255
15036 30072
11894 23789
51397 25698
23673 11836
23521 47042
68813 34406
65259 32629
3541 1770
31716 15858
14596 29193
18514 37029
60582 30291
2883 5767
33556 67113
26541 13270
20058 40117
11564 5782
26008 13004
33526 67053
46856 23428
16719 33439
25989 12994
7082 3541
28498 56996
26966 53933
33510 67021
7364 14729
8012 4006
11808 5904
14248 28497
16409 32819
46417 23208
32933 65866
45420 22710
24386 48772
9981 19963
65353 32676
2674 5349
20699 41398
69314 34657
24499 48998
25606 12803
15325 30651
2387 4774
19266 38533
25441 50883
22063 44127
41599 20799
17215 34430
25578 51157
12133 24266
19198 9599
23752 47505
1100 550
68266 34133
64305 32152
12942 25885
11295 22591
60423 30211
67198 33599
40961 20480
30239 60479
31915 15957
58930 29465
56824 28412
10862 21724
20370 40741
40368 20184
9407 4703
34158 68317
43 87
4245 2122
40508 20254
34068 17034
4737 2368
55837 27918
53306 26653
1433 2866
37117 18558
30625 61250
31876 15938
59409 29704
34229 68459
20830 41660
20848 41696
24018 48036
58714 29357
30780 15390
16329 32658
64713 32356
33905 67810
29407 58814
53745 26872
29059 14529
33918 16959
7117 14235
10602 21205
5636 2818
26037 52075
28932 57864
12014 24028
9079 4539
28197 56395
50100 25050
8499 16999
381 762
25217 50435
12517 6258
1994 997
10263 5131
64373 32186
14769 29538
46057 23028
14172 7086
4870 9741
57320 28660
12446 24893
16782 33564
22241 44482
26429 13214
4859 9719
25355 12677
16969 8484
31057 62114
1816 3632
39938 19969
11431 22862
21386 42773
45610 22805
31769 15884
25018 12509
66150 33075
13308 6654
66287 33143
13075 6537
49987 24993
21072 42145
4947 9894
23663 47327
26398 52796
7670 15341
398 796
8351 4175
21375 42750
49878 24939
26777 53554
4779 2389
11571 23142
21643 43287
2226 1113
25515 51031
40768 20384
4688 9377
54743 27371
19429 38859
31293 62586
64022 32011
17588 35177
15318 30636
30092 15046
19727 9863
13698 27397
13510 27021
21774 10887
29277 14638
64560 32280
40408 20204
61952 30976
19203 38406
33068 66136
58409 29204
34638 69276
9745 19491
10669 5334
68857 34428
33335 66671
34282 68564
45447 22723
20519 41038
11340 5670
21346 42693
4008 8016
8297 16595
26433 13216
29100 14550
16772 33545
41153 20576
13968 27936
12832 25665
54402 27201
1348 2696
23591 47182
8856 17712
11036 5518
34008 17004
13578 27156
27476 54952
11994 23989
22262 44525
60300 30150
14990 7495
32498 64997
137 275
61821 30910
14189 7094
80 160
25173 50347
13851 27702
8898 4449
11445 22890
66847 33423
51723 25861
1416 2832
29113 14556
26254 13127
65679 32839
28687 57374
55937 27968
1454 2909
20740 41481
33335 16667
19594 39188
4448 8897
7045 3522
34120 68240
66500 33250
38260 19130
10220 20440
67406 33703
47827 23913
59438 29719
36 73
33995 67991
7775 3887
42 85
50044 25022
9446 4723
29647 59294
9317 4658
19438 38877
18947 37894
56539 28269
6669 3334
66683 33341
28039 56079
47047 23523
19028 38057
18508 9254
32356 16178
5247 10495
46735 23367
30508 15254
8345 4172
8524 17048
15425 7712
25622 51245
27514 55029
10407 5203
31745 63491
8279 4139
5416 2708
47301 23650
2671 1335
43947 21973
8558 17117
61866 30933
22221 44442
6585 13171
10996 5498
1596 3192
22249 44499
24439 48879
18494 9247
12022 24045
13150 26301
46982 23491
31983 15991
69152 34576
10100 5050
30239 15119
27770 55541
34638 17319
6391 3195
22343 11171
15784 7892
24215 48430
15434 30869
11006 22013
21792 43585
53522 26761
39953 19976
23078 46156
66779 33389
32711 65422
45699 22849
29158 58317
54366 27183
4357 2178
13201 26402
22957 45915
54666 27333
15534 7767
33833 67666
29404 58809
22009 44018
18915 37831
12556 6278
69135 34567
1701 850
47269 23634
398 797
14966 29932
31757 63514
847 1695
6448 3224
44734 22367
10318 20636
20972 10486
33868 16934
22492 44984
31859 63719
5484 2742
17589 35178
8652 17305
17891 35782
18322 36645
33706 16853
11944 23889
24681 49363
33044 66088
55487 27743
18234 36468
49765 24882
19187 38375
32713 65427
5077 10154
33889 67779
2687 1343
21980 43960
30483 60966
7396 14793
22679 45359
25299 50598
1401 2803
32604 65209
15608 31216
7630 15261
56628 28314
6655 13311
20653 41307
59032 29516
61424 30712
5122 10245
29275 58550
18741 37483
41700 20850
46828 23414
14617 7308
6650 3325
10472 5236
50716 25358
32282 64565
29944 14972
20328 10164
20814 41628
23274 46549
8966 17933
18910 37820
56047 28023
14180 28361
17282 34564
13504 27009
22536 45073
993 1986
1944 3888
10184 20368
30283 15141
19044 9522
6874 13749
19589 9794
36498 18249
8030 16061
33293 16646
16147 32294
759 1518
11366 22732
23064 11532
21260 42521
20088 10044
28058 14029
56944 28472
26309 52618
14053 28106
25213 12606
5977 11954
7953 3976
28701 57403
21357 10678
6284 3142
20479 10239
19934 39868
16300 32601
15527 7763
29229 58458
9652 19305
1541 3083
61006 30503
22132 44264
16412 8206
23496 46992
27295 54591
44670 22335
13258 6629
2248 1124
7439 14878
10045 20091
29133 58267
7912 15825
13521 6760
26623 53246
1012 506
5344 10688
20314 10157
45744 22872
34352 68704
47580 23790
3101 6202
19349 38699
25916 12958
11159 22318
24296 12148
10849 21698
128 256
34532 69065
10256 20512
14129 28259
262 525
60967 30483
20266 40532
31044 62088
6061 3030
3690 7380
23617 11808
7694 15388
23641 47283
28545 57090
13266 6633
61069 30534
3128 1564
7061 14122
27433 54867
36068 18034
51447 25723
56259 28129
28781 14390
10057 5028
10135 5067
18455 9227
44183 22091
34249 68499
18074 36149
26593 53187
21333 10666
66508 33254
21714 43429
10739 21479
67032 33516
26018 52036
24333 12166
23825 47651
26664 53328
34407 68814
8409 4204
16896 8448
27856 55712
27862 55724
27079 54158
51622 25811
4906 9813
34423 68847
18550 37100
53038 26519
25575 51151
22878 11439
7088 3544
30563 61127
24455 12227
22975 45951
63127 31563
30277 60555
58825 29412
26923 53846
47267 23633
13989 27978
27379 54759
24737 49475
25229 12614
6384 3192
16636 33273
35383 17691
69234 34617
13880 27760
5413 2706
67039 33519
10249 20498
8976 17953
15933 31867
13493 26986
53974 26987
57713 28856
42828 21414
57709 28854
20330 10165
6112 12224
11845 23691
16947 33894
12928 6464
51385 25692
49844 24922
25206 50412
21140 42281
34001 17000
6359 12718
28823 14411
10622 21245
9827 19655
18817 37634
5788 11576
66360 33180
18897 37794
67469 33734
63465 31732
5228 10457
16010 32021
15979 31959
50234 25117
22823 45646
13006 26013
62191 31095
58462 29231
42181 21090
30640 61281
34726 17363
2835 5670
6582 3291
30734 15367
8978 4489
16248 32497
41318 20659
11689 23379
20045 40091
64995 32497
24516 49032
9839 19678
30459 60918
11511 23023
27491 13745
5018 10037
7306 14612
17647 8823
16662 33325
2067 4135
30153 15076
12843 25686
43694 21847
32420 64840
6089 3044
47224 23612
51049 25524
2427 4854
23560 47121
54210 27105
20086 10043
5944 11888
19037 38075
26543 53086
1782 3564
29423 14711
11122 22245
35968 17984
21284 10642
30884 15442
66855 33427
33953 16976
54255 27127
10319 20639
1185 592
34329 68658
53546 26773
27650 55300
4725 2362
27993 13996
7346 3673
21365 42730
8585 17171
67632 33816
13552 6776
20206 40412
1167 583
1924 3848
21593 43186
55347 27673
68491 34245
15356 30712
20722 10361
53292 26646
35778 17889
9977 19955
25615 51231
48483 24241
843 421
7290 14580
5072 10145
11602 23204
4890 9780
14967 29935
6066 12132
31669 15834
21728 43457
11726 23453
17878 35757
3075 6150
8435 4217
10199 20399
22168 11084
31508 15754
67659 33829
22428 44857
31352 15676
20437 10218
20267 10133
31002 62005
23128 46257
42015 21007
17254 8627
11150 22301
21944 10972
48 24
27082 54165
52855 26427
22091 44182
24398 48797
14457 7228
19433 38866
26620 53240
24607 49214
26242 13121
4633 9267
9957 19914
27191 54383
47831 23915
28257 56515
16325 32651
21507 43014
11094 5547
32697 65395
23958 47916
45223 22611
22902 45805
8287 16574
36210 18105
27358 13679
62822 31411
56849 28424
49068 24534
40121 20060
62266 31133
30112 15056
1859 3719
18700 37400
18503 37007
6681 13363
17727 35454
13455 26910
14415 28830
18720 9360
15912 31824
25708 12854
3096 6193
63103 31551
7707 15414
13426 6713
19050 9525
68896 34448
9242 18484
12271 24542
12623 25246
4475 8951
37951 18975
9978 19956
36554 18277
19415 38831
35125 17562
14882 29765
23781 11890
67 134
49548 24774
46884 23442
3041 1520
58175 29087
49202 24601
7685 15370
32051 64103
19818 39636
57837 28918
6779 3389
61660 30830
34350 17175
34271 68543
6699 3349
24664 49329
43638 21819
24315 12157
26820 53641
25382 50764
45398 22699
46802 23401
35006 17503
52357 26178
15824 31648
56063 28031
11229 5614
18126 36252
1149 2299
33161 16580
37096 18548
20843 41687
12492 24984
56653 28326
27401 54802
21146 42292
32095 16047
25732 12866
936 1872
9232 4616
7237 3618
7845 15691
43035 21517
48550 24275
8755 17511
8204 4102
25007 12503
61713 30856
45852 22926
52843 26421
23764 47528
32297 64595
8795 4397
23631 47262
19163 38327
38622 19311
9791 19582
62783 31391
11530 23060
16253 8126
64270 32135
1656 828
35740 17870
12558 25117
53666 26833
60275 30137
15979 31958
25529 51058
52645 26322
22005 11002
64113 32056
17172 8586
6988 13977
15749 31499
5864 2932
28799 14399
6237 12474
6277 3138
34880 17440
63653 31826
4681 9362
9220 18440
18689 37379
4129 8258
19764 39529
21116 42233
22131 44262
18437 36875
57332 28666
34171 68343
16381 32763
9212 18424
2014 1007
61376 30688
7061 14123
13896 6948
24354 48708
18598 37196
9160 18321
37482 18741
24463 48926
16155 8077
3988 7976
55678 27839
43368 21684
19214 38429
44629 22314
18909 37818
34269 17134
23802 47604
2767 5534
15437 30875
31910 63820
19306 38612
12802 25605
18892 37785
1516 3033
16923 8461
409 204
1632 3264
29029 58058
9274 18548
24902 49804
8033 16067
20965 10482
24950 49901
32705 65410
30823 61647
22485 44971
35288 17644
67482 33741
13180 6590
12325 6162
27981 55962
43689 21844
2997 5995
118 59
18257 36514
25132 12566
20732 10366
10112 20225
55344 27672
20551 41103
28230 14115
15450 7725
7837 15675
17007 34014
22024 44049
14851 7425
4889 9779
30783 61566
62660 31330
4122 8244
40130 20065
54599 27299
1728 864
18008 36016
3186 6373
19479 38958
42274 21137
30844 61688
21328 10664
1133 566
4734 9469
3379 6758
10948 21897
816 408
7248 14496
605 1210
16495 32991
16169 32338
14307 28614
2047 4095
4238 8477
16113 32227
6427 3213
16004 32008
18630 9315
51181 25590
10367 20734
37596 18798
17570 35141
6574 13149
26719 53438
10400 5200
14153 28306
12276 24552
3290 6580
42774 21387
6102 3051
519 1038
5699 2849
38295 19147
23355 46710
50648 25324
58519 29259
36414 18207
22297 44595
63559 31779
42590 21295
6912 13825
56456 28228
6416 3208
44125 22062
27284 54568
21017 10508
66285 33142
52415 26207
22334 44668
49145 24572
28262 56524
21405 42811
4379 8758
8482 4241
31578 63156
17285 34570
3229 1614
30853 15426
25143 50286
17674 35348
57704 28852
49373 24686
15616 31232
26649 53299
14852 29705
38229 19114
13953 27907
61965 30982
11693 23386
20850 10425
14602 29204
26122 52244
40151 20075
9111 18223
28910 57820
22532 11266
69170 34585
50015 25007
34407 68815
8363 4181
302 151
57053 28526
16942 33884
36782 18391
4174 2087
56797 28398
20882 41764
56275 28137
1272 2544
14814 29629
7181 14362
12066 24133
8934 17869
14528 29056
39530 19765
28934 57869
8406 16812
17283 34567
8110 4055
4441 8882
17809 35618
19200 38400
31686 63372
30793 61587
27832 55664
31554 63108
69079 34539
3896 7793
51257 25628
18384 36768
17177 34354
2185 4371
20824 41648
17490 34981
20576 10288
17337 8668
5597 11194
3614 7228
49818 24909
6081 12162
49918 24959
5300 10601
20115 10057
16034 8017
14032 28065
55194 27597
3875 7750
13650 27300
33291 66582
13522 27045
32415 64831
6301 12602
28775 57550
4968 2484
57450 28725
20404 40808
14153 7076
26160 13080
26747 13373
65220 32610
68508 34254
29135 58271
66114 33057
44060 22030
4150 8300
67740 33870
17710 35421
6061 12122
27881 55763
29389 14694
2611 1305
10276 20553
43302 21651
56178 28089
384 769
52316 26158
13538 27077
49960 24980
39167 19583
42420 21210
2978 5956
41304 20652
23761 47522
7499 14999
11706 23412
6152 3076
2068 4136
35 17
7744 15488
1035 2071
17132 34265
13207 6603
5115 10230
6913 13827
6746 13492
34336 68673
4207 2103
54133 27066
27427 13713
13431 6715
27906 55813
34585 69171
21664 10832
37309 18654
53704 26852
8891 17783
5913 11826
11595 5797
51779 25889
30754 61508
31927 63855
17965 8982
24595 49190
9343 4671
17449 34898
20238 40477
20799 41598
11313 22627
26861 13430
24425 12212
54741 27370
41623 20811
15447 30894
18624 37248
12791 25582
68190 34095
20525 41050
12720 25440
7099 3549
8297 4148
8496 4248
34357 17178
18319 36639
51162 25581
13628 27257
58897 29448
52302 26151
9264 18529
32218 16109
24463 48927
15097 30195
28816 57632
14645 29290
13842 27684
5083 10166
12868 25736
27090 54181
11732 23465
2285 4571
27794 55588
21709 10854
65729 32864
2462 1231
2878 1439
13739 27478
6281 3140
65581 32790
5741 11482
24938 49877
50509 25254
30549 61098
4055 8111
20098 40196
17574 8787
15727 31455
23147 46294
4218 2109
4764 2382
22847 45695
65999 32999
8012 16024
26441 52882
18978 37957
28943 57886
19544 9772
29227 58454
19807 39614
43751 21875
31479 15739
9368 18737
27606 55213
8192 16385
14365 7182
64164 32082
54355 27177
22577 11288
12023 24047
68486 34243
2476 1238
36130 18065
57379 28689
4807 9614
15656 7828
33135 66271
46695 23347
56868 28434
36723 18361
41473 20736
32324 64649
2281 1140
23882 47765
28850 57700
24217 48434
3788 7576
26927 13463
29201 58403
58756 29378
6454 12908
34230 68460
20125 40251
30103 60207
34054 68109
30082 15041
33309 66618
39021 19510
68205 34102
23370 11685
24587 12293
53753 26876
54535 27267
8512 17025
46195 23097
59279 29639
5191 10383
20442 10221
34629 17314
42994 21497
23389 46778
1434 2868
28164 14082
632 316
34496 68993
28055 56110
11019 22039
27558 55117
23559 47118
29688 14844
19501 39003
37475 18737
3938 7877
17696 35393
20884 41769
68713 34356
31253 62506
66338 33169
12562 25125
18402 36804
22610 11305
5491 10983
49339 24669
39302 19651
18135 9067
28555 57110
15832 7916
131 263
20986 41972
41991 20995
9934 19868
60657 30328
59792 29896
64616 32308
64191 32095
63334 31667
22423 44847
4418 8836
3545 7090
47588 23794
2294 4589
18677 37354
6614 13228
23906 11953
17121 34243
25937 51875
52403 26201
30638 15319
21922 10961
63395 31697
14271 28543
28022 14011
68030 34015
3676 7353
2820 1410
44134 22067
50471 25235
10034 20069
3989 7978
59884 29942
29450 58901
32029 64058
23905 47810
12403 6201
20855 41710
39505 19752
18000 36000
34484 17242
54428 27214
34582 17291
8714 4357
28749 14374
15238 30476
10445 5222
33519 67038
28927 57854
5567 11135
19881 39763
53254 26627
11675 23350
19551 39103
26887 53774
12754 25509
1100 2201
6768 13536
67931 33965
3813 1906
50209 25104
1467 733
17576 35153
37322 18661
25697 51395
39027 19513
31832 15916
64072 32036
34320 68641
32923 65847
62856 31428
35244 17622
22854 45709
42569 21284
60039 30019
21469 10734
59680 29840
12563 25127
7125 14250
21913 10956
164 82
30781 61563
41649 20824
2391 1195
62062 31031
30592 15296
26782 53565
31451 15725
59313 29656
42800 21400
28372 56744
9541 19082
55460 27730
17484 34969
14693 29386
5042 2521
32303 64606
18106 9053
9243 18486
20436 10218
29037 58075
49393 24696
46909 23454
46506 23253
17619 35239
52208 26104
6782 3391
1791 895
2811 5622
836 1673
11653 5826
10556 21113
32845 16422
5388 10776
19476 38952
4292 8585
26417 52835
26515 53030
13230 6615
28069 14034
38485 19242
21884 10942
11305 22611
28021 14010
29144 58289
9178 18357
12652 6326
27250 13625
15836 7918
23633 47266
24399 48798
2456 4913
33219 16609
27431 54862
11746 23492
50500 25250
29712 59424
43794 21897
7217 14434
35686 17843
50292 25146
41432 20716
65548 32774
2129 4259
54509 27254
52252 26126
17264 34528
8956 17913
44423 22211
17867 8933
17233 34467
31157 62315
23052 11526
2995 5991
63808 31904
62278 31139
5659 11318
61525 30762
5677 2838
7831 15663
52132 26066
46128 23064
10463 20927
23751 47502
17403 34807
29971 59943
12833 25667
24464 12232
23994 47988
11725 23450
50077 25038
38135 19067
68101 34050
20378 40757
59417 29708
22238 44476
62364 31182
25654 12827
16978 8489
48624 24312
10641 5320
2575 5151
61323 30661
33451 66903
7350 14700
9279 4639
20399 40798
26537 53075
29807 14903
28721 57442
8810 17621
55614 27807
17983 35966
10434 5217
5933 11866
13586 6793
29327 58655
4251 2125
45654 22827
20606 10303
36650 18325
19213 38426
55471 27735
27596 55193
22389 44779
20615 10307
17759 35519
60606 30303
21396 42792
12775 25551
21235 42471
590 1181
58033 29016
37627 18813
53264 26632
31857 63715
11257 22515
16390 8195
3700 1850
14196 28393
21612 43225
39965 19982
30248 60497
39778 19889
46191 23095
34059 68118
3038 6076
22622 11311
32887 65775
22750 45501
17357 8678
18859 37718
56090 28045
25000 50000
1047 2095
64811 32405
25154 12577
32070 16035
30359 15179
1291 645
14253 7126
32207 64415
15645 31291
11375 5687
18383 9191
14540 29081
29679 59359
26404 52808
7051 14103
8938 17876
61776 30888
34603 69206
31138 15569
61676 30838
30326 60653
10648 21296
15789 31578
61058 30529
5669 11339
13333 26667
30711 15355
7859 15718
63542 31771
63481 31740
40494 20247
67798 33899
8664 17329
18685 37371
12628 25257
52201 26100
9002 4501
14899 7449
6550 13100
15905 7952
29184 58369
25911 12955
29254 58508
2826 1413
27114 54229
39190 19595
57368 28684
35707 17853
8636 17272
20658 10329
1596 3193
3615 7230
24596 49193
19874 39749
2467 4935
33615 16807
23147 46295
10252 20504
11740 5870
19592 9796
26132 52265
5639 11278
19908 9954
13429 26858
48829 24414
997 1995
48989 24494
19784 39569
8923 17847
3738 7476
16731 33462
29571 14785
34079 68159
23542 11771
8402 16804
27708 13854
48822 24411
46897 23448
5497 2748
17740 35481
64020 32010
22696 45393
39382 19691
66865 33432
23964 47929
16425 8212
32265 64531
27994 55988
42726 21363
68009 34004
15249 30499
6983 13966
3713 7427
14023 7011
54638 27319
17062 34124
65176 32588
6896 13793
58494 29247
39571 19785
24237 48474
32801 65602
34511 69022
3283 6567
65092 32546
5017 10035
52605 26302
6641 13283
8255 4127
39273 19636
6071 12142
23592 47184
30813 61627
28945 57891
18870 37740
47596 23798
15252 7626
30357 15178
18573 37146
18827 9413
51953 25976
15640 7820
14192 7096
36494 18247
44115 22057
60041 30020
62226 31113
55867 27933
1791 3583
53251 26625
21184 42368
38025 19012
36295 18147
1708 3417
17791 35582
31998 15999
50894 25447
6593 13186
984 492
11478 5739
27461 54922
36015 18007
20624 10312
12280 24560
25482 12741
33884 67769
26801 53602
57601 28800
8906 4453
55990 27995
19973 39946
31074 15537
32042 64084
21255 10627
20282 10141
54174 27087
60179 30089
38224 19112
12239 24479
20099 40199
29879 14939
17095 8547
983 1966
23456 46913
8416 4208
6077 3038
64559 32279
59519 29759
34921 17460
6256 3128
18425 36850
27324 54649
17367 8683
23816 47632
48043 24021
27485 54970
20433 40867
23741 11870
6270 12540
36175 18087
27513 55027
38086 19043
14982 29965
45350 22675
33348 66697
28174 56348
1753 876
7128 3564
10829 5414
8416 16832
23677 47354
38822 19411
25020 50040
5248 10496
55302 27651
6887 13774
32306 16153
45742 22871
19000 38000
11570 23141
5475 10950
7291 14582
12040 6020
14666 29333
21763 10881
61351 30675
23126 46253
68685 34342
59127 29563
39128 19564
30946 61892
22667 45335
62338 31169
26241 52483
12596 25192
3276 6553
31218 62436
8863 17727
10056 20112
1913 956
58871 29435
36036 18018
48035 24017
20503 10251
18551 37103
11381 22763
20908 41816
50029 25014
20497 40995
4670 9340
31595 15797
26512 53025
11925 5962
15383 30766
6748 3374
10094 20188
38592 19296
29969 59938
29730 59461
20638 41276
16623 8311
65226 32613
456 912
6546 3273
29101 58202
16956 8478
8523 17047
2957 5914
65013 32506
14008 28017
57402 28701
44746 22373
11780 5890
27508 13754
28459 56919
45102 22551
6590 13181
54365 27182
41527 20763
22845 11422
9530 19060
43114 21557
29367 58735
19265 38530
9520 19041
42966 21483
32484 16242
15578 31156
27125 13562
17323 34646
2334 4668
57959 28979
15897 31794
28184 56369
24650 12325
1558 3117
21665 43331
52207 26103
3749 1874
15919 7959
3987 1993
45686 22843
7823 15647
2083 4167
15774 31549
49158 24579
40598 20299
8809 17618
28415 56831
51053 25526
20670 41341
28673 14336
11165 5582
29046 58093
3540 1770
25305 50610
29463 58927
19008 38017
33709 67418
59331 29665
11052 22104
15357 30715
44143 22071
8778 17556
10164 20329
68669 34334
286 573
56830 28415
12421 24843
29234 58468
16747 33494
8646 17293
24278 48556
65472 32736
12777 25554
32170 16085
57805 28902
47740 23870
32631 65263
25218 50437
29888 14944
3370 6740
33733 67466
49374 24687
37692 18846
17346 34693
6111 12222
29765 59531
18178 36356
16197 8098
51084 25542
31834 63669
9244 18488
1576 3153
23193 46387
32259 64519
21184 10592
12496 6248
20411 40822
64593 32296
37819 18909
1991 995
28832 14416
7483 14966
19276 9638
24796 12398
63627 31813
23239 46479
27033 54066
19826 39653
48431 24215
29378 14689
7549 15099
4367 8734
52942 26471
57557 28778
34255 17127
11330 22660
20728 41457
7318 3659
25968 12984
64976 32488
29766 14883
12664 25329
22894 45788
19399 38799
8423 4211
12380 6190
5022 10045
26282 13141
23429 46858
21361 42723
37549 18774
39940 19970
25470 50940
27581 55163
37032 18516
7829 15659
26091 13045
28081 56163
61532 30766
34115 68231
26603 13301
52603 26301
19503 39006
27374 54749
20616 10308
11852 23705
17776 8888
51092 25546
4461 2230
52943 26471
10850 21700
21117 10558
61946 30973
10210 5105
42450 21225
25691 51382
28231 56463
24720 49441
36443 18221
32411 64822
27029 13514
21868 43737
30774 15387
6816 13633
190 380
38451 19225
22023 44047
60147 30073
9708 4854
9683 19366
40296 20148
43001 21500
23112 11556
19740 9870
55155 27577
52161 26080
20203 40407
9524 19049
63737 31868
2681 5362
62220 31110
24341 48682
13788 27576
33836 67673
34450 68901
51023 25511
60402 30201
22880 11440
33099 66199
30375 15187
12290 24580
28097 14048
50561 25280
1763 881
33548 67097
10776 21553
7538 15077
59959 29979
53122 26561
7898 3949
11415 5707
56855 28427
62017 31008
17223 8611
3018 6037
65645 32822
7473 14947
8382 16765
7830 15660
18425 9212
22688 11344
9144 18289
31107 62214
33384 16692
52492 26246
33960 16980
23136 46272
60446 30223
4454 2227
9382 18764
46347 23173
67382 33691
27520 13760
11545 5772
25791 12895
21600 43200
65192 32596
50973 25486
12699 6349
7668 15336
6497 12994
22594 11297
3489 6978
65198 32599
11371 22743
14644 29289
476 952
13662 27324
28236 14118
29233 58467
50847 25423
36083 18041
13820 6910
27928 13964
31784 15892
17455 34911
34522 69045
58336 29168
5663 11327
23874 11937
33286 16643
63674 31837
55946 27973
33899 16949
38300 19150
13798 6899
5685 11370
6870 3435
69074 34537
32315 64631
31756 15878
17952 35905
20228 10114
6732 13465
55260 27630
3807 7614
40083 20041
65360 32680
51109 25554
30444 60888
32466 64932
45358 22679
35246 17623
37192 18596
25649 51298
2053 4106
68347 34173
11790 5895
25951 12975
30999 61999
46516 23258
20968 10484
30454 60908
29400 58801
49902 24951
52295 26147
5330 2665
52738 26369
28451 56902
11475 22951
8313 4156
56884 28442
5433 10866
12140 6070
10444 5222
29294 58589
16441 8220
26249 52499
31168 15584
33731 67462
42779 21389
42174 21087
12866 25733
27801 55602
26053 52106
21517 10758
32981 16490
10826 5413
3403 1701
35597 17798
33954 16977
53740 26870
62526 31263
24110 48221
25760 12880
19804 39609
15334 30668
37887 18943
60442 30221
15669 31338
11002 22004
14308 7154
2740 5481
17132 34264
20321 40642
57470 28735
58368 29184
11740 23480
25749 12874
17126 8563
10281 20562
11492 22985
50611 25305
55719 27859
15973 7986
901 450
29146 58293
1922 961
69 34
15893 31787
12590 25180
15112 30225
46122 23061
26358 52717
68316 34158
18390 36780
26779 53559
7344 14689
21368 42736
19909 39819
64682 32341
19892 39784
26095 52190
42574 21287
3916 1958
14190 7095
4626 2313
172 345
22899 45798
25970 51940
36543 18271
20786 41572
3357 6715
4274 2137
68292 34146
59657 29828
42764 21382
580 1160
2369 1184
37856 18928
24125 12062
29783 59567
6827 13654
685 1370
15855 31710
62137 31068
29786 14893
25097 50194
59588 29794
34194 68389
17890 35780
29902 14951
55396 27698
12863 25727
12587 25174
14965 7482
29535 59070
8123 4061
12287 24574
22910 45821
9847 19694
15059 7529
32101 64202
9036 18073
19839 39678
16751 33502
26557 53115
50773 25386
8644 4322
50365 25182
34117 17058
67764 33882
34883 17441
1990 3981
28670 14335
36817 18408
22279 44558
8947 17895
5599 2799
57754 28877
7840 3920
26455 52911
31104 62208
65182 32591
6194 3097
7270 3635
20220 40441
24992 49984
2837 1418
28868 57736
19658 39316
10198 20397
51114 25557
19825 39651
23564 11782
1504 3009
30308 60617
54715 27357
1725 3450
1657 3315
7055 14110
61947 30973
19031 38063
63041 31520
9988 19977
26856 53713
45006 22503
28417 56835
22729 45459
15000 30001
29155 14577
17787 35574
12756 6378
70 141
69151 34575
33735 16867
21313 42627
8809 4404
14874 7437
35951 17975
22718 45436
49030 24515
19552 39104
22572 45145
31056 62112
36370 18185
27450 54901
31661 63322
5543 11086
34505 69010
50352 25176
60145 30072
923 1847
32183 64367
20229 40458
7368 3684
20872 10436
14869 29738
10275 20551
26333 13166
27578 55156
3730 7460
39063 19531
12938 6469
3037 6075
37122 18561
24023 48047
34170 68340
3469 6939
4070 2035
27658 13829
9354 18709
36922 18461
683 341
47013 23506
7350 3675
12982 6491
21942 43884
8802 4401
26821 53642
12915 25831
3640 7280
15448 7724
43445 21722
26387 13193
11698 5849
29450 58900
50357 25178
14176 28352
55008 27504
51425 25712
33189 66378
27299 54598
633 1267
12796 25593
35317 17658
53758 26879
21596 10798
24633 49267
63881 31940
14645 29291
57853 28926
8554 4277
30451 60902
23644 11822
1387 2774
31115 15557
29365 14682
21251 10625
7468 14937
4260 8520
9475 18951
26374 13187
67954 33977
15142 30285
9097 4548
41451 20725
38894 19447
29415 14707
55716 27858
63958 31979
1831 915
33857 16928
24930 12465
60742 30371
12077 6038
33284 16642
43922 21961
4726 2363
25314 50628
15190 30380
56014 28007
146 292
13819 27638
43125 21562
42793 21396
14267 28535
22248 44496
23663 11831
36444 18222
1095 547
22702 45404
57858 28929
19095 9547
32860 16430
20311 40623
9907 4953
6971 13943
22717 45434
14608 7304
52025 26012
27066 13533
24615 49231
57587 28793
10208 5104
17017 8508
17671 8835
33127 66254
64208 32104
15355 30710
9666 4833
3711 7422
27435 54871
19146 9573
4231 8462
2621 5243
40134 20067
9000 18001
15620 31241
60386 30193
40586 20293
36524 18262
35060 17530
24747 12373
24301 48603
41650 20825
10036 5018
22541 45082
67658 33829
40264 20132
11306 22612
62320 31160
14307 7153
47692 23846
38308 19154
36699 18349
21145 42291
53617 26808
7097 3548
49596 24798
31632 15816
8697 17394
11438 22876
1270 2541
34962 17481
21488 42976
68275 34137
24452 12226
9950 4975
16615 33230
15955 7977
42077 21038
28204 56409
16413 8206
21737 43475
15505 31011
15261 30523
27594 55189
10980 21961
37966 18983
27505 55010
20307 40615
9934 4967
30528 15264
30032 15016
3627 7255
23205 46410
14317 7158
55128 27564
21009 10504
16429 32859
21450 10725
24885 49770
30657 61315
11706 23413
28034 14017
7271 14543
25291 50582
17501 35002
28072 56145
23953 47907
53454 26727
11521 5760
42101 21050
4265 8530
20552 10276
59221 29610
11330 22661
30833 15416
31720 15860
31041 62082
13722 27445
17811 35622
13018 6509
52865 26432
7786 3893
15870 31741
32008 64017
11102 22205
33658 16829
33589 67178
30606 61212
11361 22722
29706 59412
7160 14321
36069 18034
20902 41804
13713 27426
62728 31364
2887 1443
5029 10059
11292 22584
19656 39313
25052 50105
5733 11467
27507 13753
5713 11427
17310 34621
16822 33644
508 1016
28847 14423
29820 59641
5282 10564
18239 36479
40544 20272
10244 20488
51348 25674
6542 13085
24953 49906
51786 25893
67697 33848
56901 28450
10867 21734
54518 27259
18645 37291
24017 48034
56673 28336
9722 19445
17754 8877
38510 19255
42558 21279
47883 23941
28877 57755
22983 11491
13466 6733
23489 11744
6997 13994
68349 34174
21561 10780
30358 60716
20799 10399
49454 24727
6935 13871
9385 18770
67122 33561
11030 22061
29813 59627
19771 39542
61114 30557
15540 7770
54822 27411
2981 5963
3607 1803
15773 31547
5776 2888
62545 31272
22147 11073
25833 51667
6799 3399
9940 4970
34159 68318
51204 25602
2736 5473
17590 35180
27003 54007
26313 52626
6035 3017
10653 21307
30163 60326
15477 30954
9851 19703
59934 29967
18311 36623
16564 33129
18657 9328
32226 16113
68771 34385
29476 14738
32105 64210
6132 12264
34167 68335
33750 67500
5695 2847
15122 30244
6009 12018
24601 49203
29248 58497
12263 24526
23179 11589
22177 44354
19674 39348
3715 7430
64297 32148
24680 12340
32549 16274
15672 31345
26114 52229
30108 60216
3207 1603
22797 45594
10848 5424
25224 50449
38638 19319
45045 22522
4757 9514
31594 63188
27485 13742
20594 41189
29642 14821
45910 22955
53275 26637
29064 14532
657 1315
47028 23514
15634 31269
26683 53366
21942 43885
24975 49950
20996 41992
557 278
22642 45284
25757 51515
10982 21964
44537 22268
17054 8527
8167 4083
2900 5800
606 1212
594 1189
10343 5171
58747 29373
64087 32043
20038 40076
33412 66825
2315 1157
11751 23503
25361 12680
24197 48395
45381 22690
64887 32443
18217 9108
34220 68440
9337 18674
16137 32275
19212 9606
16882 33764
30808 61616
23472 11736
4336 8673
9179 4589
15513 7756
26606 53212
55131 27565
33180 16590
12508 6254
2053 1026
8235 16470
29887 14943
11645 23290
6927 3463
46179 23089
35004 17502
48239 24119
25574 12787
27319 54639
27153 54307
38573 19286
4347 8694
52408 26204
11743 23486
55530 27765
11577 5788
16232 32465
11784 5892
30367 60735
26421 13210
8128 16257
23933 11966
801 400
30995 15497
5780 2890
23635 47271
6144 3072
10388 20777
21808 10904
25311 12655
18855 37710
11993 5996
24938 12469
17506 35012
24330 48660
22897 11448
1391 695
62310 31155
68903 34451
41560 20780
19974 39949
38994 19497
32519 65038
65099 32549
20985 41971
68113 34056
28321 14160
17713 35427
2038 4076
58835 29417
46497 23248
681 1362
64283 32141
6881 3440
13734 6867
6645 13291
66461 33230
24707 12353
111 223
28393 56787
6919 13839
50519 25259
24758 12379
16880 8440
57123 28561
2093 4187
18616 37232
28783 57567
43347 21673
51626 25813
65078 32539
6035 12071
1483 2966
25693 12846
410 821
37318 18659
10454 20909
18080 9040
926 1852
26004 52008
56157 28078
9613 19226
32885 65770
14675 29351
30142 15071
651 1302
7706 15412
58704 29352
17497 34994
1952 3905
14332 7166
55176 27588
60082 30041
50016 25008
25420 50841
28942 57884
27726 13863
18892 37784
21369 42738
28633 57266
64654 32327
57648 28824
28516 57032
65430 32715
707 1414
67747 33873
10659 21319
4766 9533
23831 47662
48582 24291
54764 27382
16266 32532
27726 55453
7484 3742
37833 18916
7285 14571
32419 64838
10682 21364
23052 46104
21767 43534
14573 7286
10109 20218
14370 28740
343 171
389 778
2785 5570
29671 14835
8162 16324
49662 24831
56546 28273
12653 6326
68022 34011
2468 4936
31866 63732
36277 18138
24940 49881
35986 17993
34240 68481
22110 44221
46280 23140
27222 54444
3199 6398
49796 24898
14051 28103
1089 2178
50557 25278
33171 66343
33610 67221
26559 53119
37378 18689
43601 21800
41219 20609
1674 3349
1654 3308
59131 29565
34503 17251
2066 4133
29770 59541
2729 1364
32097 64194
34639 69278
8541 17082
52787 26393
24898 12449
27025 54050
2415 4830
18333 9166
29981 14990
17150 34300
44702 22351
40603 20301
32364 16182
14470 28941
31974 63948
6470 12940
19959 39918
15169 7584
11086 22173
53052 26526
2276 4553
8160 16320
430 860
3516 1758
17987 8993
68934 34467
36904 18452
66371 33185
18270 36541
53320 26660
6023 3011
6843 13686
24348 48697
19716 9858
16671 33343
15700 31401
1431 2863
54484 27242
3145 6290
19316 38632
39400 19700
42938 21469
32971 65943
12257 24514
16238 32476
45259 22629
34482 68965
21610 43221
57703 28851
26414 13207
30738 61477
21950 10975
31236 62473
46941 23470
14724 29449
64221 32110
18758 37516
36599 18299
7328 14657
60177 30088
32204 64409
3714 7428
64000 32000
55609 27804
54833 27416
10036 20073
63110 31555
2268 4537
2591 1295
4809 9618
19823 9911
14946 7473
59524 29762
61773 30886
16340 32681
13941 27883
19656 39312
31643 63287
25992 51985
39807 19903
31698 15849
27702 55404
5802 11604
49084 24542
15616 31233
68592 34296
39662 19831
8102 16205
14370 7185
46806 23403
19236 38472
5787 11574
28929 14464
4469 8939
63664 31832
66817 33408
26332 52665
34581 69163
18348 36697
9134 18269
14423 28846
54788 27394
28130 14065
4674 9349
17360 34720
37365 18682
24158 48317
32441 64883
30637 15318
31378 15689
17764 8882
29361 58722
25421 12710
43119 21559
24117 12058
28390 56780
14475 7237
1158 2317
34447 68894
7791 3895
22153 44306
16290 32580
13149 26298
51077 25538
4225 8451
9711 19422
22844 45689
16504 33009
61546 30773
29918 59837
5179 10358
53569 26784
23929 47858
46642 23321
67792 33896
16815 8407
31501 15750
20883 41767
16319 32638
2024 4049
33720 67441
56670 28335
23700 47400
16245 8122
25300 50600
64046 32023
18652 9326
15782 31564
16643 8321
30856 15428
20847 10423
6479 12959
60637 30318
1378 2756
50282 25141
31394 62789
57564 28782
2692 5384
3226 6453
1299 2599
37292 18646
17997 35994
29191 14595
31146 62292
13517 6758
27023 54046
8785 17571
17311 34623
15218 7609
34247 68495
67278 33639
125 250
41774 20887
10766 21532
1394 2788
69099 34549
9173 18346
23103 11551
20983 41966
32030 16015
4752 9505
7470 14940
13199 26398
26951 53902
41488 20744
21948 43896
24839 12419
27327 54655
41766 20883
30964 15482
5118 10236
63565 31782
21406 42812
31921 63842
18723 37446
14393 28786
31038 62076
15454 30909
39997 19998
1756 3512
53074 26537
6136 12272
40111 20055
11883 5941
50020 25010
64927 32463
12206 24412
24568 49137
5040 10081
33435 66871
36945 18472
63940 31970
59593 29796
7486 14972
42607 21303
1764 3529
14288 28576
22865 45731
22378 44757
16964 8482
18390 36781
30168 15084
24949 49898
24766 49533
17970 35940
18993 37987
17694 8847
33952 16976
28840 14420
68944 34472
263 527
7496 3748
21529 10764
31558 63117
64144 32072
50400 25200
38631 19315
5385 2692
20243 10121
31429 62858
9885 4942
13008 26017
2508 1254
38243 19121
17532 35064
19434 38869
21996 43992
11905 23810
1727 3454
9983 19966
10517 5258
10721 5360
33117 16558
10152 5076
38933 19466
13414 26828
21857 43714
15533 31066
13703 6851
34025 68051
16768 33537
35753 17876
17879 35758
57091 28545
29702 59405
9448 4724
5055 10111
56447 28223
505 1010
13034 26068
20977 10488
27935 55870
43238 21619
9514 19029
19755 9877
37997 18998
63009 31504
9163 18327
51959 25979
4743 2371
30042 60084
26204 13102
43808 21904
49404 24702
14890 29780
15059 30119
6747 13494
10003 20006
21929 10964
16391 32782
26754 53509
41691 20845
219 438
51752 25876
28976 57953
7343 14687
31130 62261
3427 6855
66939 33469
19538 39076
47010 23505
3782 7565
61558 30779
1210 2421
41081 20540
5589 11178
27479 54959
35838 17919
64015 32007
13269 26539
19145 9572
20754 41508
48323 24161
1961 980
31781 63562
10727 21455
51276 25638
2535 5071
27820 13910
23137 46274
9935 19871
66268 33134
14555 29111
17027 34054
8621 17242
9501 19002
1247 2495
45100 22550
5821 11643
10129 5064
4779 9558
10453 5226
37534 18767
48089 24044
55187 27593
34026 68053
12658 25317
69101 34550
50408 25204
11010 22020
5137 2568
31222 62444
3442 6884
20740 10370
12019 6009
12108 24216
18703 37407
871 1743
23869 11934
2271 4543
51380 25690
5603 11206
8356 16712
8209 16418
64005 32002
27746 55492
67443 33721
49468 24734
39491 19745
57596 28798
45960 22980
3460 1730
18195 36391
25585 12792
15937 31874
20904 10452
40959 20479
16013 32027
15197 30394
48123 24061
6509 13019
25106 50213
8505 17010
39449 19724
9005 4502
1023 2047
6580 13160
16693 8346
31300 15650
9764 4882
40506 20253
31507 15753
8974 4487
17492 34984
63365 31682
21030 42061
23072 11536
24762 49524
2294 1147
17853 35706
27997 55995
12773 25546
4381 8763
7949 15899
42937 21468
9363 18726
2277 4555
26047 13023
4305 8610
18515 37031
23715 11857
3706 1853
13313 26626
64031 32015
53556 26778
21129 10564
30245 15122
8596 4298
25341 50682
34611 17305
32205 64410
32240 64480
5823 11647
3010 6020
8533 17066
2355 1177
13738 27477
9611 4805
46731 23365
37545 18772
68618 34309
67944 33972
27635 55270
52771 26385
34367 68735
14451 7225
12772 6386
50951 25475
66335 33167
4843 9686
16871 33743
9772 4886
57931 28965
6847 13695
12944 6472
19307 38614
47139 23569
22579 11289
20532 41064
812 1624
2938 5876
38361 19180
14226 28452
8602 4301
34765 17382
43140 21570
38864 19432
11723 23447
37967 18983
34020 68041
24668 12334
67679 33839
31300 62601
4547 9094
14057 28115
24538 49076
11217 5608
21885 43771
31965 63930
29621 14810
11496 22993
32128 64257
23348 46697
66842 33421
2100 4201
31995 63991
50534 25267
36347 18173
62192 31096
32463 64926
68055 34027
40638 20319
13377 26755
32379 64759
63224 31612
23283 46566
6135 12271
11978 23957
10869 21739
28198 56397
61403 30701
29530 59061
57474 28737
5367 10734
34607 17303
21085 42171
51681 25840
59217 29608
38744 19372
15986 7993
14656 29313
24487 12243
25450 12725
30881 15440
63264 31632
5504 2752
54493 27246
8388 16777
42124 21062
64062 32031
16647 8323
13063 6531
28190 14095
18286 36572
14555 7277
12681 25363
26988 13494
14771 29543
22445 11222
63356 31678
49782 24891
1634 817
27699 55399
68019 34009
19254 9627
65396 32698
26945 13472
4012 8025
4465 2232
48583 24291
30759 61519
25452 50904
21089 42178
25163 50327
21421 42842
26671 53343
239 478
5896 11792
7169 14338
49385 24692
37035 18517
19105 38210
47171 23585
1176 588
46671 23335
15909 31819
56741 28370
61562 30781
12402 24804
10622 5311
58710 29355
33112 66224
6481 3240
22969 45939
66439 33219
31687 15843
17521 8760
48422 24211
29225 58451
28100 56200
12114 24228
7206 3603
19728 39456
14500 29001
35029 17514
26288 52576
15797 7898
34317 68634
57443 28721
11466 22933
4858 2429
32304 64609
38441 19220
60607 30303
17676 35353
37799 18899
480 961
20283 10141
23158 11579
43106 21553
27675 55351
365 182
28025 56051
8399 16798
2507 5014
24237 48475
28059 14029
65994 32997
67111 33555
7687 15374
34470 68940
7571 3785
20565 41130
60973 30486
45275 22637
5577 11155
68770 34385
25078 50157
27497 54994
56805 28402
18302 36604
42073 21036
61391 30695
36805 18402
25792 51585
46273 23136
3446 6893
18946 37892
12622 25244
10711 5355
7503 15007
9274 18549
67580 33790
13441 26882
25101 50202
13017 26035
39533 19766
19296 38593
62210 31105
8116 16232
28784 57569
23878 47757
4576 9153
30034 60069
27241 54482
5946 11893
55786 27893
17041 34082
55791 27895
25167 50334
4414 2207
26436 52873
47613 23806
29357 58715
18098 36196
8328 16657
20784 10392
33308 16654
55841 27920
10723 21447
34477 68954
5455 10911
13713 6856
12872 25744
7205 3602
62621 31310
30770 15385
18517 9258
24339 48679
47557 23778
63915 31957
33447 66895
6265 12531
64315 32157
5862 11725
15174 30349
37295 18647
5333 10666
6790 13580
26150 13075
53977 26988
670 335
50836 25418
7732 3866
26757 53515
29104 58209
18218 36437
27956 55913
2664 1332
9509 4754
39907 19953
7852 15704
7380 14760
7984 15968
11065 22130
34232 68464
9660 19321
21031 42063
21356 10678
31152 62305
63824 31912
51807 25903
10445 20890
21324 42648
68405 34202
23092 46184
14742 7371
55513 27756
25087 50175
8795 17591
11322 22645
28893 57787
57105 28552
4137 8274
5529 11058
26985 13492
10700 21401
48023 24011
18030 36061
64300 32150
12801 25602
15684 7842
8872 17744
24007 12003
3313 1656
8663 17327
27219 54438
2064 4129
57254 28627
16998 8499
14167 28335
6539 13078
53238 26619
44759 22379
16372 8186
30342 60685
46760 23380
67391 33695
56627 28313
31028 15514
33809 67619
28706 57413
19908 39816
17844 35688
60708 30354
51434 25717
25842 51685
5107 10215
40632 20316
12315 24631
54075 27037
41532 20766
42838 21419
6980 13960
25313 50627
5257 2628
11128 22257
50824 25412
25039 50079
5721 11442
19870 39741
2861 5722
30366 60733
35159 17579
16501 33002
66580 33290
7882 15765
40787 20393
10324 5162
3349 6698
511 1023
17361 34722
32821 65643
30118 60236
8947 4473
8599 17198
5239 10478
25055 12527
29871 59743
64453 32226
24675 49350
27412 54824
68013 34006
18387 9193
47195 23597
25041 12520
54108 27054
38922 19461
25886 51772
6639 3319
60309 30154
11179 22358
31587 63175
61037 30518
16793 33586
5560 11121
48108 24054
31754 63508
11399 22799
11742 5871
6581 13163
15918 31837
35367 17683
9458 4729
21260 10630
42893 21446
32528 65057
7220 3610
2619 5239
10516 21033
18906 37813
66293 33146
30926 61852
38921 19460
53821 26910
29439 58879
6167 12334
9729 4864
22449 44898
27002 54005
22830 45661
63740 31870
22668 45336
45714 22857
30267 15133
38022 19011
26968 53936
58372 29186
16228 32457
49754 24877
61028 30514
33988 67976
26950 53900
26717 13358
5357 10714
23601 47202
47974 23987
29230 58460
2662 1331
10839 21679
30446 60892
33092 66184
25066 50133
30993 61986
18230 36460
30572 61144
24697 49394
3844 1922
37043 18521
55707 27853
32560 16280
64160 32080
965 1930
65750 32875
13553 6776
49247 24623
22001 44002
47384 23692
9205 18411
8698 17397
26662 13331
11171 22342
30285 60571
33937 67874
45777 22888
31554 15777
26768 53536
1677 3355
27499 54998
15772 7886
2775 5550
32753 65507
37224 18612
26290 52580
5321 10643
38682 19341
4218 8436
58718 29359
31934 15967
68581 34290
25994 51989
33635 16817
23899 11949
9958 19916
24844 49688
27126 54252
2708 5417
4363 8727
28009 14004
47715 23857
8511 17023
25010 12505
32594 65189
31032 15516
17041 8520
22766 11383
20059 10029
27810 13905
301 602
61617 30808
12205 24411
11748 23496
12780 25560
17679 35358
20089 40178
12058 24116
24890 12445
14699 7349
14947 29895
1914 3828
25294 50588
610 1220
18712 9356
30925 61850
23846 11923
50125 25062
64643 32321
50242 25121
33453 66906
33926 67852
8483 16966
24647 49295
18709 37419
16029 32058
27290 54581
64317 32158
27237 54475
25174 50348
514 1028
57390 28695
17090 34180
33662 16831
16116 8058
67025 33512
42632 21316
15426 7713
17103 34207
6950 13900
50298 25149
8695 17390
8688 17376
19282 9641
30800 61601
32273 16136
2871 5743
1664 3329
7002 3501
35058 17529
9290 18580
15013 30026
13999 27998
12848 25697
14328 28657
51074 25537
22700 45401
1330 2661
8148 4074
23928 11964
5142 10285
26040 52080
30102 60204
19637 39274
26682 13341
26829 13414
59694 29847
15041 7520
30998 61996
12985 6492
18845 37690
11053 22106
53011 26505
13940 6970
44774 22387
11006 22012
45900 22950
10606 5303
27865 55730
34926 17463
33277 66555
58966 29483
6411 12822
27739 55478
28993 57986
17032 8516
1593 3187
20072 40144
30014 60029
31841 63682
28922 57844
17607 35214
25124 50249
34266 17133
18473 36946
2079 4158
34119 68238
11529 23058
17545 8772
1444 2889
13638 27277
22524 11262
14517 29035
47370 23685
13608 6804
55738 27869
32383 64767
21490 42981
6324 3162
21683 10841
625 1251
20682 10341
32536 65073
43092 21546
7075 14151
24391 12195
34508 17254
3370 1685
50275 25137
18583 37167
1823 911
30934 15467
60257 30128
27547 55095
25476 12738
23778 11889
55450 27725
33728 67457
62453 31226
28460 14230
14078 28157
21809 43618
6263 12527
34303 68606
10055 5027
16420 32841
7934 3967
4462 8925
14141 7070
7659 3829
3245 1622
9265 18531
19239 38479
11096 22193
33364 66729
28120 56240
14252 28505
10659 5329
40394 20197
7365 14731
25637 51274
13930 27860
29467 14733
43017 21508
14855 7427
1667 3334
54524 27262
69167 34583
20526 41052
4069 2034
20772 41544
40125 20062
26001 13000
8668 4334
12856 25713
4101 2050
21241 10620
49955 24977
7455 14910
17700 35401
6904 3452
25789 51578
37646 18823
3652 1826
54043 27021
886 1772
47225 23612
63454 31727
14673 29346
53587 26793
33023 16511
13169 6584
59447 29723
57327 28663
20948 41897
21765 43530
4349 8699
55969 27984
23750 47500
69036 34518
13537 27075
24390 12195
60279 30139
66414 33207
4528 2264
58908 29454
9180 18360
19651 9825
33660 67320
244 488
25860 51721
33996 16998
18148 36297
44441 22220
29383 58766
42852 21426
31 15
50829 25414
1446 2892
56239 28119
16129 32258
31913 63826
9271 4635
59284 29642
21911 43822
8080 16161
58173 29086
20698 41397
62419 31209
5133 10267
19997 39994
17863 8931
17858 8929
3660 1830
64256 32128
17609 8804
15742 31484
65321 32660
44658 22329
10240 20480
28334 56669
18800 37600
19560 39120
47823 23911
25922 12961
22673 45346
2246 1123
18726 37453
62674 31337
4942 2471
26028 13014
13242 6621
21251 42502
3810 7621
50235 25117
26117 13058
41246 20623
25615 51230
10039 5019
16938 33877
66253 33126
18987 9493
32666 65332
17391 34782
5217 2608
12241 24482
44747 22373
33049 66099
6511 13022
31913 63827
25957 12978
22152 11076
29745 59490
3317 1658
952 1904
3588 7176
25316 50632
66190 33095
2166 4333
40546 20273
10443 20887
49168 24584
25256 50512
11223 22447
32296 64592
13704 27408
28527 14263
4184 2092
57189 28594
22638 45277
5619 11238
20375 40751
10938 5469
22602 11301
66507 33253
66091 33045
11877 5938
5773 11546
22887 45774
32654 65308
50966 25483
41197 20598
20049 40099
9281 18562
34003 17001
4421 8842
2886 5773
51601 25800
27651 13825
34300 68600
68043 34021
56253 28126
50417 25208
50919 25459
24167 48334
12119 6059
68946 34473
6637 3318
2612 5225
19945 39891
24149 48298
54052 27026
33920 16960
27624 55249
468 234
14168 7084
4476 2238
27487 54974
14323 28646
23087 46175
14908 29816
21886 43773
21280 42560
32834 65669
30349 60698
29898 14949
29689 59379
50204 25102
16180 32361
10744 21489
4580 9161
10056 5028
34564 69129
9481 18962
60553 30276
26739 53479
21645 10822
55096 27548
39536 19768
10572 21145
32041 16020
2487 4975
35654 17827
40553 20276
32566 65132
17309 34618
2928 5857
16916 33832
67422 33711
56385 28192
50360 25180
20373 40746
243 487
31295 15647
2128 4256
6947 13894
35208 17604
2168 1084
19463 38927
48410 24205
17620 8810
4078 2039
52633 26316
56158 28079
27072 13536
32477 64955
17270 34541
38856 19428
37507 18753
11205 22411
29788 59576
15749 31498
34443 68886
23172 46344
33900 67801
27097 54194
34432 68864
25318 50637
6167 12335
7049 3524
19596 9798
31161 62322
7964 3982
19330 38661
21524 43048
22887 11443
15588 31177
53847 26923
12406 24813
17297 8648
32879 16439
14387 28774
9859 19719
24871 12435
9234 18468
1581 3163
19173 38347
40801 20400
6508 13017
54803 27401
29887 59775
21065 42131
22213 44426
12258 24517
7009 14018
15563 7781
18127 36254
4149 8298
28500 57000
35747 17873
2489 1244
28866 57732
28499 14249
2332 4665
31216 62433
60395 30197
66637 33318
12317 6158
21177 42354
27261 54522
187 375
59786 29893
30468 60937
22418 11209
12485 6242
28338 14169
571 1143
5183 2591
30049 15024
26607 53214
20641 41282
36560 18280
14925 7462
4697 9395
21940 43880
20127 40254
11269 22538
8274 16548
23963 47927
44332 22166
9734 4867
53458 26729
19774 39549
16517 8258
20777 41555
50321 25160
3907 7814
15101 7550
8020 16041
33035 16517
9010 4505
40106 20053
67610 33805
69096 34548
25829 51659
16917 8458
34297 17148
8313 16626
29061 14530
20825 41651
13653 6826
19847 39694
51454 25727
18794 37589
30804 15402
9573 19147
26598 53197
6929 3464
33425 66850
16080 32161
16812 33624
28896 14448
29182 58365
23827 47654
108 217
37286 18643
30629 61258
20876 41752
8761 4380
4181 2090
24664 49328
49774 24887
12319 24639
36570 18285
31052 62105
64975 32487
30236 60472
20392 40784
20853 10426
15232 30465
14120 7060
22274 11137
23466 11733
33317 16658
34071 68143
933 466
32140 64280
28116 14058
33934 67868
27499 13749
29150 58300
26858 53716
30064 60128
41585 20792
6609 13219
4940 9880
53247 26623
13776 27552
40933 20466
60576 30288
67777 33888
25777 12888
51469 25734
31003 62007
7899 15798
20707 41414
24156 12078
43717 21858
16966 33932
5171 10342
2879 5758
39494 19747
36627 18313
1689 3379
23394 46789
26610 13305
10928 5464
31488 15744
52832 26416
19985 39970
25679 12839
42840 21420
2339 4679
66442 33221
60342 30171
9715 19431
18089 36178
17917 8958
1382 691
1363 681
31761 63522
2156 4312
7065 14130
26759 53518
12011 24023
45306 22653
26472 52945
23170 46341
62138 31069
2798 5596
6894 13788
25961 51923
19275 9637
30450 60901
4110 2055
52897 26448
45743 22871
60593 30296
4092 2046
46452 23226
26584 53168
42858 21429
13432 26864
6627 3313
7985 3992
20063 10031
31097 15548
5656 2828
52043 26021
9702 4851
24997 12498
1664 832
31952 63904
39444 19722
46462 23231
2966 5933
897 1795
22040 44080
24882 12441
40569 20284
25155 50311
31292 15646
33145 66291
10610 21221
3730 1865
14510 7255
42250 21125
26101 13050
27448 54897
19591 9795
2475 4950
28160 56320
19686 39373
17754 35508
19037 9518
26085 52171
32443 16221
29143 58286
35529 17764
25666 51332
24144 12072
56140 28070
62489 31244
4941 2470
54616 27308
24170 48341
7420 14840
29525 59050
19389 38779
7106 3553
15078 7539
26829 53658
5146 10293
668 1336
22087 44175
12855 25710
10185 20371
22948 11474
7920 3960
40467 20233
44519 22259
10436 5218
24075 48150
950 475
56264 28132
68107 34053
11167 22334
5601 11202
7879 15759
15795 7897
14460 28920
36006 18003
3300 6600
58980 29490
7744 3872
442 884
34185 68370
15649 31299
4007 8015
48042 24021
15904 31809
34525 69051
59760 29880
55022 27511
11131 22263
3479 6958
18440 36881
40944 20472
21223 42447
744 1489
21733 43467
12348 24696
36878 18439
28555 14277
28341 14170
15891 31782
30411 60822
26178 13089
58892 29446
24619 12309
30697 61394
18199 36398
12752 6376
26753 13376
17199 34399
25690 12845
15380 7690
15150 30301
12235 6117
11465 22930
10088 20177
65875 32937
8879 17759
843 1687
25708 51416
43795 21897
5072 2536
17528 35057
611 1222
49924 24962
24773 12386
4824 9649
50096 25048
68338 34169
24152 48305
69283 34641
37256 18628
28628 14314
52592 26296
34388 17194
24212 48424
3406 1703
6230 12460
43076 21538
20315 40630
62209 31104
46161 23080
16080 8040
28757 57515
22538 45077
2794 1397
66104 33052
1419 2839
62065 31032
6690 13380
50880 25440
9666 19333
64323 32161
25680 12840
36298 18149
63785 31892
37435 18717
29936 14968
5572 11145
62427 31213
26508 53016
19343 38686
17751 35502
36034 18017
53056 26528
7719 3859
38626 19313
46999 23499
24418 48837
12179 24359
22784 45568
3561 1780
27252 54505
63556 31778
11539 23078
45634 22817
63205 31602
29864 59729
7864 3932
32368 64737
27108 54217
33050 16525
28312 14156
52964 26482
21302 42605
55052 27526
65441 32720
24738 49477
61724 30862
6356 12713
8627 4313
25197 12598
29804 14902
40706 20353
20485 40971
48178 24089
64213 32106
61214 30607
7943 3971
1973 3947
29994 59989
28337 56674
31644 15822
15982 31964
44469 22234
28801 57603
6466 12932
27942 55885
3316 1658
15500 31001
46400 23200
53875 26937
25164 50329
2481 1240
19258 38517
64449 32224
16597 33195
16342 32685
30373 60746
9917 19835
65652 32826
22662 45325
19397 9698
1207 2415
4128 8257
2017 1008
62768 31384
33466 16733
20874 10437
18267 36534
29468 14734
23655 11827
9989 4994
68691 34345
7192 14384
54839 27419
26082 52165
29372 14686
50349 25174
732 1465
1341 670
68923 34461
59651 29825
509 254
1707 853
35797 17898
17345 34690
4019 8039
45620 22810
5701 2850
8223 16447
16069 8034
22937 45875
21506 43012
52011 26005
13343 26686
28306 56612
39928 19964
31585 15792
67233 33616
4084 8168
1644 822
26914 53829
12543 6271
11262 5631
23558 11779
11270 5635
17941 8970
17832 35665
2405 4810
25414 50828
33357 66714
20223 10111
18467 36935
425 850
26865 53731
35643 17821
30492 60984
41292 20646
42747 21373
62447 31223
9488 18977
12481 24963
41163 20581
31067 62135
10443 20886
10998 5499
9921 4960
63533 31766
8279 16558
20245 40491
20350 40701
28947 57894
20447 10223
25603 12801
34092 17046
7847 3923
49510 24755
36844 18422
59807 29903
29957 59915
17229 34458
60169 30084
4828 9657
7860 15720
29250 58500
48965 24482
11842 23684
53472 26736
64107 32053
8755 4377
54468 27234
1300 2601
34114 68229
8986 4493
61536 30768
54346 27173
24073 48146
21268 42537
25343 50687
19382 9691
16432 32865
20168 40336
30986 61973
47905 23952
10655 21311
27530 13765
57611 28805
12900 6450
5588 11176
2563 5126
15411 30823
40397 20198
33495 66991
49870 24935
49412 24706
18419 36839
52142 26071
15413 30826
39983 19991
4581 2290
28227 56455
4191 2095
47821 23910
58407 29203
8821 4410
44548 22274
4107 2053
33560 67121
21208 42416
20889 41778
48070 24035
21577 10788
25762 12881
10046 5023
26521 53043
38917 19458
14567 29135
29017 58035
38587 19293
14807 7403
2183 1091
60621 30310
1620 3241
5911 11822
32559 16279
66804 33402
58384 29192
23666 11833
17316 34632
23530 47061
4829 2414
28266 14133
60195 30097
19200 9600
25323 12661
8612 17225
15217 30434
30895 61791
25676 51353
68121 34060
1008 2016
21346 42692
9279 18559
18718 9359
65392 32696
32411 16205
26492 52984
58527 29263
6152 12304
17194 8597
1548 3097
24189 12094
23083 46167
61390 30695
29058 58117
6251 12503
31820 15910
12345 24691
13719 27439
1071 2142
513 1027
6673 13346
61675 30837
9341 18683
65414 32707
24338 48676
15820 31640
19353 9676
11684 23368
31201 62403
44057 22028
3942 7884
2052 4105
11154 22309
15790 31581
36737 18368
27209 13604
10137 5068
51608 25804
1641 820
16421 32843
47587 23793
36919 18459
28314 56629
24879 12439
64657 32328
14600 29200
59499 29749
38520 19260
12536 25072
56019 28009
6783 3391
67775 33887
53392 26696
17993 35987
1604 3209
50601 25300
9439 18878
9693 4846
29557 59115
33886 67773
42704 21352
59358 29679
24851 12425
1816 908
3498 1749
19982 39964
30560 15280
26925 53850
12188 24376
49935 24967
35319 17659
21371 42742
15451 7725
33327 66655
27622 55244
2361 4723
8043 4021
17389 34778
14517 29034
60489 30244
9862 19724
59304 29652
7082 14164
38619 19309
25993 12996
12109 6054
57778 28889
19223 9611
1431 715
58679 29339
33269 66538
27338 54677
33793 16896
66050 33025
8173 16346
13035 26070
5830 11660
1140 2280
5161 10323
11047 5523
38584 19292
59506 29753
9849 19699
4647 9295
66644 33322
13792 6896
11597 23194
17179 8589
2188 4376
12197 24395
64083 32041
30846 61693
22613 11306
31900 63801
65027 32513
22813 45627
10875 5437
45198 22599
59403 29701
38901 19450
34635 69270
22916 45832
69026 34513
26582 53164
17072 8536
21189 10594
21153 42306
31969 15984
40793 20396
25855 12927
59219 29609
21174 10587
15382 7691
163 327
11358 22717
46492 23246
30804 61608
4871 2435
49535 24767
12977 25954
20035 40070
14462 28925
12504 6252
30370 60741
17152 8576
18739 37479
35322 17661
24580 49160
42809 21404
36843 18421
65823 32911
26700 53401
6678 13357
7692 15384
23168 46336
1405 702
25787 51574
11769 23539
11970 5985
11447 5723
287 574
26229 52458
15372 30744
16193 32386
50714 25357
772 1545
11225 22450
18559 37119
33956 67913
29353 14676
45442 22721
22211 11105
10896 21793
7798 15597
57216 28608
50394 25197
30214 60429
40859 20429
31069 15534
31035 62071
4602 2301
26915 13457
65311 32655
31670 63341
22517 11258
55286 27643
29398 58796
11715 23430
46266 23133
16380 32761
17739 8869
18349 36698
15237 7618
19238 38477
34608 17304
3742 1871
38461 19230
11028 22057
9414 18829
23763 47527
35323 17661
60548 30274
20781 10390
13057 26115
7059 14119
8775 4387
21960 43920
7207 14414
36371 18185
15410 7705
59802 29901
12170 6085
23647 47294
28549 57099
6689 13379
30051 60103
16568 33136
15817 31634
3033 6067
20262 40525
3233 6467
8328 16656
51696 25848
599 1199
11575 23151
4356 8713
26331 13165
66102 33051
5279 10559
215 107
31404 62808
594 1188
32597 65194
8904 17808
5 2
45210 22605
30701 15350
870 435
31913 15956
8924 4462
15871 31742
11491 5745
25419 12709
22575 45151
29857 59714
26886 53772
28190 56380
48551 24275
24438 48877
22735 45470
9942 4971
6843 13687
21810 43620
1489 2978
45745 22872
58135 29067
51955 25977
1464 2928
16610 33220
36635 18317
56072 28036
50305 25152
6952 3476
3448 1724
51563 25781
23568 47137
9817 19634
41188 20594
24849 12424
58486 29243
44929 22464
66288 33144
12108 6054
28832 57664
8511 4255
31694 15847
3238 6476
25302 12651
12502 25004
28145 56291
57234 28617
3318 6636
11967 5983
23431 11715
30004 60008
11756 23512
21679 43358
34165 68331
7914 15829
18822 37644
30996 61993
24490 48980
55858 27929
35935 17967
52191 26095
29094 58189
42242 21121
30758 61516
51802 25901
68017 34008
47597 23798
54289 27144
23659 11829
16497 8248
26346 52693
17464 34928
19402 38805
30521 15260
17221 34442
11231 22462
30639 15319
16414 8207
2838 5676
22521 11260
35318 17659
20577 41155
42725 21362
26654 53308
30763 15381
2923 5847
17012 34024
21881 10940
25736 51472
16703 33406
18427 9213
37225 18612
30453 60907
26086 52173
16641 33283
30175 60350
3695 1847
30685 15342
4873 9746
2500 5000
2182 4365
8459 16919
14190 28380
48336 24168
11240 22481
67078 33539
26485 52971
8505 17011
44514 22257
8244 16488
40233 20116
22265 11132
29140 14570
9468 18937
20464 10232
30446 15223
25709 51419
34438 68876
59394 29697
4614 2307
8799 4399
18197 9098
68225 34112
12831 6415
48151 24075
18320 36641
34076 68153
12454 24909
15203 7601
21122 42244
29779 59559
8800 17600
21315 10657
29926 14963
22068 44136
61545 30772
2590 1295
8737 17475
25416 50833
15958 31917
50 25
32790 16395
21658 10829
4153 2076
36263 18131
36536 18268
44069 22034
14829 7414
20460 10230
9979 4989
63219 31609
31077 62154
8422 16845
65478 32739
16544 33089
28249 14124
21162 10581
32551 65102
17613 35227
15795 31591
22718 45437
29619 14809
15574 31148
47726 23863
30789 61579
3292 1646
16716 33433
65957 32978
2922 1461
31241 62482
971 485
28055 56111
17286 34572
25362 50724
30171 60343
24803 49607
4816 9633
7533 3766
4391 8783
18787 9393
5756 11513
31676 63352
59353 29676
934 467
9339 18678
32307 64615
1719 3439
5285 10570
16736 33473
31319 62638
26665 53330
14148 7074
63654 31827
37259 18629
66122 33061
18032 36064
58749 29374
1868 934
31844 63688
24991 49983
13848 6924
12543 25087
49253 24626
21286 42572
16126 32253
37974 18987
18543 9271
33730 67460
41152 20576
22507 45014
68680 34340
59933 29966
57100 28550
33639 67279
15440 30880
1599 799
40285 20142
33858 16929
25370 50740
6377 12754
21151 42303
20298 40596
9133 18266
60433 30216
10349 5174
58851 29425
59159 29579
29913 59827
26546 13273
19577 9788
34830 17415
360 180
3114 6228
43740 21870
4255 8510
14461 28923
25264 12632
4753 9507
7878 15757
25497 50995
10473 20947
25989 51978
26688 13344
16413 32826
24171 12085
29984 59969
42901 21450
34021 17010
16392 8196
34122 17061
16565 8282
20657 41314
6453 12907
12093 6046
20626 41253
23007 46014
115 230
12409 24818
6384 12769
28058 56117
27646 13823
40019 20009
22819 45638
2367 4734
17494 34988
27711 55422
6927 13855
28745 57490
62408 31204
34341 68682
19217 38435
55256 27628
23446 46893
61241 30620
16198 32397
46430 23215
11291 22582
9823 4911
18567 37135
64486 32243
33487 66974
10092 5046
33297 66595
26928 13464
18754 9377
25391 12695
12794 6397
18754 37508
2790 5580
14410 28821
60071 30035
29030 58060
3493 6986
34311 68623
29572 59144
11804 23609
28852 57705
7954 15908
29998 14999
29878 59757
21541 43083
2224 4449
23133 11566
9941 19882
65364 32682
40450 20225
7495 14991
12135 24270
24711 49422
31341 62682
45191 22595
32934 65869
5313 10626
4758 9517
31707 15853
16819 33638
7782 15565
29922 59845
26568 13284
4149 8299
25844 12922
2048 1024
11305 5652
30965 15482
33987 67975
7219 14439
15224 30449
16239 32478
27609 13804
786 393
62358 31179
16483 32966
16874 33749
12496 24992
63359 31679
33940 67880
5184 10368
6234 12468
24794 49588
16306 32613
31242 62485
34629 69258
28652 57305
6633 13267
5949 11898
28201 14100
68105 34052
59172 29586
389 779
6093 3046
4899 2449
27107 54215
3116 6233
2487 4974
39793 19896
21190 42381
41941 20970
18730 37460
1584 3168
7030 14061
10675 21350
60932 30466
44868 22434
23748 47497
25324 12662
18946 37893
3046 1523
41214 20607
19024 9512
35934 17967
53062 26531
11598 23196
22135 11067
21034 42068
2172 1086
11280 5640
56207 28103
23456 11728
12403 24806
63164 31582
45376 22688
8112 4056
23753 47507
37247 18623
2626 5253
36381 18190
25597 12798
33457 16728
28723 57446
31829 15914
6857 3428
30251 60502
27671 13835
27960 55921
1843 921
12688 25376
47879 23939
26562 53125
3468 1734
61961 30980
10374 20748
15666 7833
47152 23576
17173 34347
32786 16393
3096 6192
11819 23638
10877 21754
4366 2183
38337 19168
16162 32325
14157 28315
32104 64209
29279 58559
3488 6977
24544 49088
25112 12556
19325 38650
834 1668
10237 5118
13397 26794
40661 20330
6758 13516
32710 65420
24143 12071
16800 8400
3234 6469
24463 12231
27906 13953
6706 13413
5064 2532
44141 22070
7996 15993
29581 59163
22965 45931
50272 25136
20793 41586
46404 23202
830 1660
29933 59867
46182 23091
42050 21025
7253 3626
24043 48086
11117 5558
14734 7367
27913 55826
50318 25159
23896 11948
21013 42027
10407 20814
30920 15460
30910 61820
14836 29673
43474 21737
15807 7903
7394 3697
2270 4541
695 1390
4664 2332
27689 55379
53837 26918
13133 26266
6136 12273
26379 52758
11719 23438
32099 64198
1609 804
47679 23839
22481 44963
30635 15317
31449 62899
2193 4387
11686 5843
16158 8079
29219 58438
9052 18104
52063 26031
30665 61330
25797 51595
18259 36518
64253 32126
53575 26787
23785 11892
29232 58464
62465 31232
25787 51575
25101 12550
64853 32426
1079 539
22053 44106
13934 27869
34850 17425
7937 15875
9196 4598
16230 8115
15727 31454
22315 11157
28344 56689
21606 43212
1696 848
68243 34121
49501 24750
6418 12836
12510 25020
13329 26658
29173 58346
1870 935
32541 65082
12902 25805
29535 14767
68832 34416
44553 22276
18681 9340
20611 10305
22452 11226
5166 10332
66154 33077
23243 46486
33479 16739
31776 15888
16380 8190
36189 18094
5710 2855
2685 5370
2565 1282
37426 18713
5645 11290
67845 33922
21731 10865
18779 9389
25907 51814
3118 6236
39270 19635
19215 38431
3248 1624
8684 17369
20745 41490
21061 10530
51456 25728
19473 38946
3602 7204
4252 8504
24139 48279
20489 40978
5943 11887
64301 32150
9720 4860
25907 51815
37536 18768
24230 12115
2034 1017
49865 24932
13137 6568
21049 42099
9025 18051
40909 20454
43478 21739
19601 39203
27096 54192
31133 15566
22824 45649
23060 46121
2191 1095
24903 49806
29893 14946
24023 48046
14133 28267
16094 32189
12755 25510
5692 11385
12454 24908
13062 26124
20582 10291
31289 15644
20969 41938
36038 18019
23504 47009
37005 18502
68898 34449
4009 8019
32104 16052
27044 54089
26164 13082
38202 19101
25674 12837
33761 67522
21253 42507
11511 5755
8845 17691
2131 1065
26351 13175
26179 52359
4999 9998
32151 16075
16635 33271
44453 22226
22758 45517
11015 5507
5888 2944
49692 24846
30138 60277
62367 31183
20882 10441
6747 13495
16756 33513
2744 5489
13750 27500
4291 8582
19017 9508
27949 55899
3976 1988
28048 56097
34247 17123
56991 28495
27615 55230
7166 3583
17244 8622
44860 22430
129 64
53349 26674
44709 22354
12306 24613
68429 34214
5319 10639
24962 12481
20446 10223
28711 14355
39078 19539
68294 34147
2625 1312
29645 59291
2786 5573
28249 56499
17193 34386
36693 18346
5448 2724
3769 1884
3053 6107
50905 25452
547 273
47517 23758
44199 22099
31652 63304
45225 22612
29370 14685
2775 1387
14721 29442
29094 14547
52825 26412
58750 29375
10692 5346
10559 21118
14413 28827
51219 25609
57065 28532
954 477
51859 25929
34559 17279
5160 10320
17042 34085
56238 28119
32044 64089
30155 60311
33640 67280
33777 67554
16628 8314
4263 2131
29325 58650
3363 6726
16195 32391
27686 55373
10801 21603
22883 45766
62101 31050
29345 14672
8142 16284
33064 16532
66897 33448
67988 33994
35442 17721
3395 6791
43917 21958
45693 22846
20027 40054
16255 32510
19758 9879
59168 29584
38304 19152
19965 9982
30223 60447
2426 1213
21443 10721
26958 53917
7419 14838
16 32
23448 11724
24262 48524
62115 31057
16847 33695
18359 9179
38760 19380
12615 6307
3796 1898
47698 23849
47508 23754
15249 7624
13832 6916
34641 17320
13176 6588
17844 35689
85 170
57976 28988
49081 24540
32479 16239
32824 16412
4267 8534
27774 13887
37688 18844
7440 3720
65126 32563
61226 30613
19978 9989
49532 24766
39204 19602
3678 7356
4868 2434
33535 16767
30966 15483
25544 51088
1475 2951
7466 14932
27207 54415
15942 7971
25266 12633
17442 8721
27999 55998
33045 66090
68254 34127
5558 2779
14190 28381
33871 67743
26442 13221
37791 18895
40003 20001
7298 3649
26056 52112
12614 25228
3621 7243
9659 4829
16883 8441
42461 21230
18140 36280
29549 14774
28286 56572
28613 57226
5536 11072
24487 48975
19136 38273
52503 26251
11403 22806
34450 68900
36764 18382
48028 24014
10775 5387
30135 60270
6518 3259
210 105
24740 12370
58476 29238
25080 50161
9200 18401
31250 62501
30799 61598
24409 48818
56418 28209
4278 8557
8578 17156
25639 51279
31442 62884
8271 4135
12500 25000
23466 46932
34163 17081
5094 10189
19448 38896
6124 3062
67099 33549
25077 50155
8355 16711
29973 59947
24721 49442
31443 62886
50622 25311
17820 35641
23185 46370
51580 25790
5532 11065
3183 6367
13482 26965
26000 13000
5622 11244
15401 30803
20716 41433
34147 17073
451 903
56927 28463
4071 8143
5047 10094
16509 33019
10584 21169
32688 65376
23993 11996
63218 31609
27478 54957
26678 53356
34554 69108
11904 23808
3359 1679
13182 26364
19229 38458
33294 66588
18142 36284
12705 25410
19622 9811
11600 23200
34064 68128
34046 17023
19192 9596
20035 10017
23003 46007
68821 34410
9909 19819
30771 61543
2177 4354
18223 36447
6041 3020
23001 46003
54136 27068
51061 25530
7111 3555
7060 3530
51321 25660
66346 33173
10067 20134
794 1588
22083 44166
29455 58910
5291 2645
33062 66124
37682 18841
1860 3721
32823 65646
61716 30858
13000 6500
8536 4268
20696 41392
7555 3777
28684 57369
26250 52500
4148 2074
27680 13840
14055 28110
8589 4294
68619 34309
29716 59433
20523 10261
8657 4328
16887 33774
13038 26077
32090 64180
49058 24529
19475 38950
67543 33771
2720 5441
7989 15979
28021 56042
48953 24476
62047 31023
9896 4948
21255 42511
13178 26356
23689 11844
25141 12570
11984 5992
50844 25422
4919 2459
58207 29103
34831 17415
3176 1588
27565 13782
5444 10889
2319 4639
51701 25850
1254 2509
25289 50578
33447 66894
60121 30060
25500 51000
22670 11335
42220 21110
20885 41771
29477 14738
21855 43711
4122 8245
27228 54457
19959 9979
64170 32085
55234 27617
32121 16060
8993 17986
14628 7314
6248 12497
59128 29564
13208 6604
4756 9512
12408 6204
43633 21816
23190 46381
14341 28683
25821 51642
11899 23798
1261 630
20538 10269
11452 22905
26269 13134
14424 28848
29718 14859
39631 19815
23764 47529
8978 17957
34047 68094
54504 27252
17025 34051
32472 64945
26311 52623
31078 15539
34401 68802
11499 5749
25641 51282
60958 30479
10512 21025
49528 24764
54870 27435
14076 28153
32041 64082
13317 26634
24620 49240
14228 28456
37619 18809
20610 41220
14277 7138
15359 30718
20456 10228
32537 16268
19667 39334
34599 69198
37755 18877
503 1006
61400 30700
10290 20581
10827 21654
56866 28433
29074 58149
45644 22822
25721 51443
69029 34514
3109 6218
65577 32788
15808 7904
34433 17216
28523 57047
6640 13280
23831 47663
5541 11082
5317 10635
66656 33328
32153 64307
34791 17395
33617 67235
25241 50483
12426 24853
18711 37422
62964 31482
18342 9171
38980 19490
54745 27372
39721 19860
25661 12830
27379 54758
1921 960
68734 34367
57150 28575
3707 7414
34577 69154
10568 21137
21976 43953
63568 31784
12356 24713
35916 17958
13852 27705
14164 28328
15673 31347
3196 6393
1127 563
102 51
27925 55851
14958 29917
21671 10835
45726 22863
61526 30763
25506 12753
7297 14595
2534 5068
8002 16005
1613 3226
65254 32627
30704 61408
21719 10859
25283 50567
29332 58664
46980 23490
5789 11579
2465 4930
24981 49962
36555 18277
810 1620
7974 15949
58669 29334
37372 18686
17541 35082
5012 10025
14436 7218
19117 9558
24471 48942
23117 46234
19463 9731
8833 4416
6620 13241
30087 15043
3387 6774
22716 11358
4138 2069
48439 24219
11736 5868
33372 66745
27546 55092
27260 54520
32805 16402
60358 30179
31868 15934
24290 12145
10718 21437
24858 49717
20742 41485
26685 13342
3637 1818
31142 62285
11371 22742
26637 13318
29558 59116
33581 67163
27616 55232
3340 6681
14201 28402
3961 7923
19465 9732
22451 11225
53987 26993
53637 26818
9205 18410
13598 27196
2666 5333
4412 2206
16048 32096
20165 10082
9712 19425
36360 18180
12288 6144
14965 29931
12183 24366
30812 61624
5473 10947
69197 34598
14045 28091
36689 18344
4934 9869
48831 24415
15445 7722
5355 2677
24412 48825
41722 20861
2580 5161
1747 3494
43441 21720
22454 44909
28580 57161
43889 21944
18342 36685
15156 7578
47328 23664
11363 5681
29292 58585
33921 16960
28625 14312
23656 47312
11889 23779
31136 15568
28665 57330
15664 31328
29551 14775
67052 33526
9527 19055
56310 28155
9796 19593
68436 34218
12292 24584
45691 22845
63910 31955
33222 16611
28945 57890
20623 41247
33215 16607
25472 50945
46048 23024
67264 33632
9200 18400
48746 24373
31639 63279
7922 15844
20783 10391
51096 25548
44816 22408
13360 6680
51110 25555
1710 855
44725 22362
12447 6223
23976 47953
65271 32635
8964 4482
31227 62455
2056 4113
21697 10848
11081 5540
4474 8949
65137 32568
56107 28053
57752 28876
47509 23754
3174 1587
25337 50675
16306 32612
49103 24551
1104 2209
60158 30079
13343 6671
64694 32347
18319 36638
47793 23896
17706 8853
18960 37921
34029 68059
28964 57929
2086 1043
8491 16983
13563 27127
38230 19115
18485 9242
7354 14708
7807 15614
27353 13676
29241 58482
10101 20203
39343 19671
13806 27613
2892 5785
47300 23650
19708 39416
5494 2747
29723 14861
32118 64236
42451 21225
31592 63184
16545 33090
29534 59068
67885 33942
58680 29340
19175 9587
67126 33563
13695 27390
39689 19844
4501 9003
13269 6634
36798 18399
67538 33769
32169 64338
11039 22079
24296 48592
16071 8035
52739 26369
62693 31346
30658 61317
34794 17397
19432 9716
46292 23146
29707 14853
33703 67407
46293 23146
15376 30752
20900 10450
39041 19520
24972 12486
31818 63637
18854 37708
21580 43161
34399 68798
21265 10632
8821 17642
31086 15543
3457 1728
54074 27037
57426 28713
18372 36745
5434 10868
33678 16839
13076 26153
11733 23467
23848 11924
17235 8617
39149 19574
10203 20407
16549 33099
22634 45269
29076 58152
61714 30857
63792 31896
27866 55732
63129 31564
34298 68596
28309 56619
36550 18275
29067 58134
25032 12516
6286 12573
14622 7311
10008 5004
10303 20607
19483 38966
16079 32159
37033 18516
11553 23106
61356 30678
48646 24323
25883 51766
30456 60912
2930 1465
31403 15701
28753 57506
24115 12057
3236 1618
36301 18150
32385 64770
62954 31477
26761 13380
21296 42593
3410 6820
17435 8717
10974 21948
69309 34654
15308 30617
13357 26714
33155 16577
15484 7742
46250 23125
31285 62570
32649 65299
25065 50131
11843 5921
17755 8877
23535 47071
47911 23955
29959 59918
33670 67340
67316 33658
19899 39799
24295 48590
5479 10958
47738 23869
9306 4653
35531 17765
26738 53476
58015 29007
59118 29559
2243 4486
27800 13900
33334 66669
28432 56865
5551 2775
6964 3482
31243 15621
9265 4632
13947 27894
24018 12009
7820 3910
12567 6283
24300 12150
39878 19939
9759 19518
20960 41921
17201 34402
29810 59620
12574 25149
19532 39064
11319 22639
9470 18941
17256 8628
15834 31668
67287 33643
921 460
10612 5306
40737 20368
3773 1886
24913 49826
24070 12035
59192 29596
10807 21614
29755 14877
24325 48650
45477 22738
19730 39461
47671 23835
17294 8647
26859 53719
19605 39211
50851 25425
1455 727
55367 27683
58592 29296
42277 21138
46398 23199
1348 2697
13246 6623
50530 25265
33916 67832
50676 25338
38759 19379
17466 34933
60674 30337
11136 22272
13245 6622
38506 19253
60583 30291
17452 34904
29293 14646
3026 1513
16530 8265
60160 30080
9845 19690
14241 7120
14107 7053
10387 20774
49738 24869
1877 3754
17386 34773
34717 17358
26672 53345
14191 28382
24074 12037
8262 16524
12124 24248
30432 60865
17138 34277
18359 36718
3305 6610
6021 12042
17424 34848
30022 60045
23184 46369
62229 31114
14341 7170
63294 31647
38910 19455
10743 5371
33637 67274
29128 14564
32566 65133
43899 21949
2410 1205
536 1073
27924 55848
41410 20705
56761 28380
1524 3049
40579 20289
5281 10562
29952 14976
13066 26132
48020 24010
11228 22456
15673 31346
19927 39854
45981 22990
6558 3279
30386 15193
12420 24841
1529 764
14574 7287
23413 46826
45238 22619
24305 12152
17031 34063
10658 21317
4040 8081
6031 12062
39849 19924
20621 41243
46772 23386
65298 32649
12757 25514
4183 8367
32268 16134
5651 2825
19393 38786
44384 22192
11240 22480
13113 26227
42491 21245
31395 62791
28713 57427
12651 25303
55625 27812
68926 34463
10065 5032
5459 10918
47484 23742
54651 27325
29386 58772
6154 12309
57654 28827
31946 15973
4929 9859
8668 17336
27864 55729
63361 31680
41428 20714
18408 36816
48380 24190
4373 2186
13641 27283
12274 24548
1508 3016
53346 26673
26406 52812
2227 4455
771 1543
29925 59851
31992 63984
7210 14420
58276 29138
4067 8135
8165 16330
607 1215
63426 31713
50306 25153
13471 26943
24389 12194
25660 12830
14579 29158
26734 53469
12649 25298
65163 32581
455 911
46499 23249
35873 17936
61189 30594
40102 20051
15070 30140
18412 36824
1196 2393
67007 33503
38559 19279
61753 30876
15527 31054
58085 29042
25928 51856
46229 23114
36573 18286
1409 2819
55951 27975
34191 17095
21018 10509
2961 1480
29610 14805
53978 26989
26207 13103
39023 19511
57199 28599
31276 62553
52069 26034
17063 34127
2344 4689
21429 10714
26611 53222
1967 983
8230 16460
21748 43496
20009 10004
14992 29984
32348 64697
47884 23942
1737 3474
2296 4592
53359 26679
62752 31376
24510 12255
25563 12781
24491 12245
7077 14155
56985 28492
34064 17032
17467 34934
604 1209
2606 5213
27707 13853
8394 16789
27707 55415
63033 31516
9470 4735
13937 27875
66501 33250
28988 14494
37506 18753
701 1403
28354 56708
14961 29922
19446 38893
18957 37915
3964 7929
20957 41914
54478 27239
1294 2588
3779 1889
14150 7075
32340 16170
9560 4780
14943 7471
20300 10150
25941 12970
27274 13637
29248 14624
16761 33523
32906 65813
56459 28229
59444 29722
32876 65752
18300 9150
46296 23148
22978 11489
44735 22367
32692 16346
26498 13249
7279 14559
65742 32871
24216 48433
45475 22737
2126 1063
32855 16427
49293 24646
5479 10959
26945 53891
27185 54370
32735 65471
14171 28343
8984 17968
23940 47880
19724 39448
10582 21164
13753 27506
24119 12059
25703 12851
58609 29304
11703 5851
34605 69210
19644 39289
62637 31318
589 294
29740 14870
11404 5702
10146 20293
16658 8329
13802 6901
15859 31718
11545 23091
5988 11977
34103 17051
11963 23926
14359 7179
30231 15115
4471 8942
18955 9477
29554 59108
15019 30039
5080 2540
47407 23703
16714 33428
11072 22145
8339 16678
19004 38008
26067 52135
1778 3557
33656 16828
61288 30644
37945 18972
33343 66687
28546 57093
19006 38012
59523 29761
4240 8481
23279 46558
28856 57712
60340 30170
552 1104
30790 15395
8733 17466
45342 22671
10243 5121
9938 19876
18678 37356
53446 26723
1286 2573
5923 2961
16974 33949
68257 34128
62184 31092
58841 29420
53221 26610
5586 11172
19637 9818
2695 1347
52015 26007
13611 27222
5886 11773
22687 45375
7458 3729
22270 11135
34832 17416
65719 32859
44077 22038
22137 11068
13256 26512
3430 1715
5186 10372
10489 5244
14978 7489
27030 54060
15104 30208
15281 30562
8691 17382
22816 45633
28743 14371
17237 8618
21431 42863
7476 14952
32725 65450
6915 13830
25868 51737
34017 68034
4043 8087
7836 15673
14212 28424
64614 32307
23350 46700
672 336
32223 64447
12413 6206
6953 13906
20047 40094
14509 29019
26507 13253
22784 11392
50711 25355
18137 36274
5548 2774
3147 6294
44019 22009
58246 29123
13302 6651
59141 29570
23969 11984
18490 9245
6149 12298
24474 48949
9619 19239
17131 34263
5745 11490
5135 10271
5904 11809
47521 23760
57367 28683
63535 31767
58568 29284
21057 42114
10874 21749
33952 67904
2716 1358
28711 57422
33643 67286
68790 34395
5424 10849
63519 31759
45528 22764
23438 46876
27201 13600
8539 17078
26991 53983
55766 27883
34015 68031
28481 56963
9542 19084
17818 35637
64027 32013
13335 6667
11104 22209
6259 12519
18873 9436
9756 19513
32436 16218
50447 25223
22639 45279
24563 49127
15785 7892
67890 33945
18035 36071
30036 15018
38316 19158
1863 3727
24636 12318
28689 57378
6738 13477
60519 30259
56508 28254
23901 47802
36947 18473
33217 16608
22040 11020
10548 21096
28862 57725
65419 32709
24607 49215
24539 49078
36954 18477
30246 60493
32529 65058
15828 7914
13943 27886
64703 32351
19186 38372
43379 21689
21125 42251
48782 24391
17078 34156
26491 13245
28178 14089
26523 53047
94 188
29648 14824
32071 64143
31610 15805
20662 10331
52923 26461
18507 9253
67681 33840
24163 48327
28998 57997
32005 64010
16196 32392
13834 6917
13412 26824
20955 41910
7478 14957
18216 36433
1367 2734
55765 27882
42853 21426
12101 6050
34214 17107
29041 14520
41448 20724
44870 22435
47506 23753
26518 53036
919 1838
69282 34641
49903 24951
12015 24030
28981 14490
1877 3755
27492 54985
30687 15343
1118 2236
64439 32219
18430 9215
28149 14074
63016 31508
32585 65170
27906 55812
17293 34586
33841 16920
19062 38124
53228 26614
19345 38691
30927 15463
559 1118
1680 840
15523 31046
6432 3216
24724 12362
49927 24963
7802 15605
48394 24197
57644 28822
14009 28019
18489 36979
25371 50742
8247 16494
12524 25048
20225 40451
1605 802
55961 27980
3956 1978
2861 1430
49059 24529
31308 15654
27378 13689
43056 21528
32057 16028
11606 23213
21789 43578
23802 47605
24293 48587
28658 57316
10110 20221
22765 11382
33088 66177
62336 31168
10235 5117
42122 21061
46854 23427
53350 26675
6744 13489
21484 10742
22838 45676
21064 42128
16359 8179
37350 18675
54919 27459
42316 21158
25340 50681
49334 24667
1329 2658
1279 2558
29834 59669
18371 9185
10317 5158
16718 33437
15695 31390
973 1947
24755 49511
67997 33998
11919 23839
7371 14743
9773 19546
11683 23367
4802 9605
24149 12074
60702 30351
4868 9736
38553 19276
23452 46905
34414 68828
31379 15689
52907 26453
62717 31358
1583 3166
31309 62618
32946 65893
67214 33607
30392 15196
8249 16498
42876 21438
20036 40072
1506 753
7092 14184
16587 33175
14880 29761
7924 3962
12387 24774
22970 45941
20834 10417
388 776
59448 29724
58427 29213
20193 40386
17112 34224
3169 6338
29052 14526
16733 33467
66914 33457
13988 27976
55325 27662
17204 8602
37955 18977
34647 69295
67579 33789
3490 1745
66269 33134
30378 15189
30382 15191
15068 7534
28033 56066
41790 20895
33186 66373
7046 14092
7650 15300
264 528
62032 31016
53092 26546
26867 13433
410 820
5354 2677
62875 31437
27289 13644
29950 59900
13780 27561
16135 8067
17252 8626
23876 11938
29755 59511
1459 729
14711 29422
19833 39667
31204 15602
50813 25406
4889 2444
9781 4890
1917 3835
25961 51922
17704 8852
24770 12385
39755 19877
5216 10433
19527 9763
26848 53696
29767 14883
2725 5451
60748 30374
6868 13737
30950 61900
43736 21868
11177 5588
9834 19668
14984 7492
24192 48385
30374 15187
31351 15675
18667 9333
37885 18942
31879 63758
27104 54208
40037 20018
25221 12610
20840 41681
13636 6818
39115 19557
12890 25781
26195 13097
63475 31737
4969 9939
7115 14231
8064 16128
28699 57399
25997 51994
67456 33728
23771 47543
2311 4622
25091 12545
11052 5526
12128 6064
15326 30652
61959 30979
11277 5638
15058 7529
52240 26120
21392 10696
32629 65258
1130 565
3335 6671
61145 30572
69095 34547
55708 27854
20300 40601
27810 55621
9839 4919
23300 11650
2022 4045
56279 28139
22118 11059
15592 31185
43841 21920
39919 19959
40229 20114
67109 33554
16233 32467
38960 19480
187 93
18794 37588
327 655
3874 1937
5465 2732
41955 20977
59823 29911
64923 32461
22995 11497
9775 4887
39113 19556
33163 66327
14131 7065
26224 52448
5223 10447
19858 39716
23936 11968
25093 50186
41761 20880
40266 20133
6686 13373
43753 21876
29999 59999
21543 43086
27139 54279
33912 67824
37685 18842
20059 40118
20374 10187
1395 2791
9845 19691
33830 16915
14664 7332
309 154
13098 6549
17215 34431
9282 18565
27305 54610
3740 1870
53078 26539
53773 26886
26264 52528
27042 54084
34658 69317
8708 17417
12764 25529
56292 28146
22249 44498
11060 22121
52223 26111
26740 53480
16613 33227
55987 27993
33734 16867
59585 29792
5922 2961
17384 34768
29259 58518
32865 65730
60219 30109
11385 22770
2637 5274
7493 14987
24710 49420
30422 60844
26490 52980
7828 3914
20082 40164
54408 27204
19174 38349
3743 7487
24227 48455
23410 46820
12572 25144
27897 13948
4072 2036
28237 56474
51391 25695
3227 6454
26699 53398
6017 12035
3779 7558
16696 33393
23805 47610
12786 25572
15943 7971
30313 60626
61109 30554
59769 29884
15710 7855
12991 25982
43590 21795
7017 3508
68570 34285
17003 34006
10690 5345
858 429
8803 17607
34593 69186
9023 18046
21579 43159
10725 5362
28337 14168
68382 34191
33981 67963
25881 51762
32814 65628
24468 12234
30406 60812
53681 26840
19133 38267
32044 16022
33978 67956
14166 28332
13632 6816
32144 16072
30848 61697
20013 40027
44521 22260
3189 1594
39464 19732
793 1587
18799 37598
14678 7339
45016 22508
58514 29257
27738 13869
1208 2417
27338 54676
15246 7623
51707 25853
36994 18497
36401 18200
39474 19737
4782 2391
29042 14521
13075 26151
60385 30192
19103 9551
32500 16250
1931 3862
7180 3590
20489 40979
15629 31259
17124 34249
12555 6277
27682 13841
2690 5381
25639 12819
15130 30260
19625 9812
24044 48088
27008 54017
54879 27439
40252 20126
19775 39551
9701 4850
16130 8065
33474 66949
9855 19710
19011 38023
15546 7773
5632 2816
40795 20397
67271 33635
4569 9139
23318 46636
3553 7107
27562 13781
8881 17762
44656 22328
52394 26197
10913 21826
21416 42833
60732 30366
29240 58481
2388 4777
6452 12904
8326 16653
13671 6835
34019 68039
2292 4584
55151 27575
2141 4283
52141 26070
25077 12538
25063 50126
5549 11099
42278 21139
31389 15694
25033 12516
54072 27036
7629 15258
15043 7521
24770 49541
33009 66018
2008 1004
26701 53402
32415 16207
4891 2445
60575 30287
9760 4880
7464 14929
17292 34585
9212 4606
20391 10195
8917 17835
28491 14245
22796 11398
8973 4486
40530 20265
5417 10834
41151 20575
32653 65307
21216 42433
48722 24361
39332 19666
58607 29303
5448 10897
32853 16426
16156 32313
66793 33396
11377 5688
33264 66528
65505 32752
40404 20202
26895 53791
34186 68372
16529 33059
7684 15369
63181 31590
16262 32524
2201 4402
13139 6569
52211 26105
68456 34228
12482 24965
53113 26556
9074 18149
42888 21444
1566 783
18326 36653
6161 12322
3122 6245
25887 51774
13793 27587
29299 14649
31012 62025
19802 39604
22525 45051
309 618
2265 4531
58208 29104
31834 15917
58459 29229
8817 17634
53095 26547
29523 59046
6 3
31862 63724
30865 61731
29894 59789
10377 20755
16909 33819
62873 31436
24553 12276
59682 29841
26081 52163
15207 30414
44949 22474
30441 60882
31758 15879
12312 6156
61132 30566
3683 7367
69125 34562
15215 7607
23463 46927
18994 37989
283 141
41530 20765
25404 50808
57050 28525
43489 21744
22178 11089
26374 52749
42003 21001
19019 9509
14511 29023
29853 14926
229 458
4887 2443
20103 10051
31338 62677
34972 17486
32664 65328
22086 11043
10294 20588
53146 26573
19068 9534
20094 40189
42622 21311
39700 19850
53604 26802
9629 4814
13475 26951
6352 12704
44210 22105
28012 56025
18225 36450
2116 4232
12867 25734
26592 53184
24288 48577
35806 17903
17293 34587
54692 27346
33965 67930
33655 16827
21104 42209
5345 2672
40864 20432
25996 51992
52002 26001
40074 20037
34278 68557
38624 19312
10405 5202
11236 22472
26649 13324
46936 23468
34419 17209
20621 41242
51581 25790
11501 23002
43168 21584
21862 10931
9019 18039
27327 54654
50496 25248
34973 17486
15881 31762
55783 27891
17408 34817
6073 12147
116 233
28274 56549
51616 25808
32277 16138
33637 16818
955 477
28293 14146
28806 57612
25518 12759
13005 6502
7720 3860
8414 16829
24622 49245
39699 19849
53552 26776
21485 42970
19941 39882
13155 26310
45552 22776
24572 49144
31112 15556
67253 33626
11503 23006
21320 42641
24413 12206
19026 38053
6918 13837
53060 26530
8709 17419
20228 40456
30660 61321
2521 5043
67825 33912
10021 20043
32756 65512
20717 41434
13903 6951
22929 45858
60942 30471
37853 18926
50505 25252
26034 13017
1508 754
57827 28913
65578 32789
4910 2455
603 1207
33659 16829
39321 19660
23264 46528
49246 24623
12600 25201
58799 29399
48635 24317
48078 24039
28922 14461
30975 15487
11875 5937
17086 34172
66931 33465
21342 10671
2748 1374
10870 5435
68314 34157
13639 27279
35303 17651
31518 63037
27595 55190
19255 9627
27122 54244
22308 44617
18222 36445
60953 30476
5512 2756
46652 23326
5301 10602
31539 63079
7966 3983
29302 58604
21037 42074
5349 10698
9726 4863
3913 7826
22039 44078
23225 11612
48346 24173
16632 33265
15687 7843
29432 58865
18226 36452
19498 38996
39212 19606
24122 48245
2812 1406
57384 28692
351 703
16774 8387
30930 61860
40181 20090
33184 66369
27622 13811
16781 33563
28205 56410
4090 2045
51146 25573
3429 1714
62633 31316
29898 59796
26187 52375
39626 19813
32637 65275
25428 12714
68777 34388
34393 68786
746 373
57140 28570
18529 37059
161 322
53857 26928
42434 21217
28838 14419
66321 33160
21603 43207
4761 9523
6128 12256
28096 56192
11003 5501
54147 27073
41835 20917
10575 5287
41502 20751
19663 39326
38242 19121
10905 21810
60089 30044
26771 53542
41590 20795
26445 52890
10442 5221
27922 13961
7779 15558
2400 1200
27815 55630
40475 20237
45814 22907
23750 47501
52305 26152
5727 11455
26154 13077
3996 7992
7634 3817
22592 45185
20476 10238
34050 68100
20318 10159
4662 9325
64085 32042
31149 62299
64617 32308
31693 15846
49128 24564
56153 28076
51435 25717
63525 31762
65357 32678
27518 55037
17477 8738
26789 13394
1411 2822
25709 12854
2211 1105
22296 44592
20241 10120
12460 24920
9277 18555
62593 31296
26415 13207
27682 55364
6456 12913
9369 18738
16535 33071
17583 8791
63389 31694
40875 20437
7600 15201
23366 46732
59456 29728
6297 12594
18019 36039
4442 8885
5878 11756
33568 16784
49637 24818
18218 36436
2492 1246
67166 33583
28081 14040
15671 31342
15292 7646
15304 30608
55442 27721
18553 37107
63538 31769
18096 36192
13170 26341
7063 14126
11214 22428
12113 24226
36851 18425
29949 59899
5302 2651
10264 5132
5249 10499
48572 24286
25923 12961
29686 14843
34612 69225
41035 20517
11596 23192
23913 47826
919 1839
39168 19584
38740 19370
31409 62818
38155 19077
10923 21847
16414 32829
28133 56267
1326 2652
26234 52469
1858 929
10775 21551
30096 15048
15447 30895
7012 14025
29084 58169
21180 10590
81 163
16563 33127
19155 9577
8620 17241
13247 26495
43954 21977
22842 45684
31383 15691
11640 5820
2156 4313
12107 24214
38895 19447
41629 20814
7081 3540
15607 7803
27326 13663
19075 9537
39175 19587
1901 3803
41887 20943
66260 33130
24161 12080
3599 7199
21825 10912
26745 53490
9975 19951
17646 35292
58831 29415
33138 66276
6781 3390
18417 9208
18602 37205
10908 21816
22384 44768
54386 27193
25114 50228
31264 15632
32323 64646
14396 28793
4687 2343
61362 30681
17488 34977
20237 40474
15298 30596
51541 25770
1973 3946
31994 15997
18092 36185
563 1126
26278 52557
28425 56851
13437 26874
17327 34655
14654 29309
36726 18363
22576 45152
28479 56959
6319 3159
2123 4246
46304 23152
882 1765
14089 28179
45208 22604
59472 29736
4558 9116
18569 9284
54530 27265
28467 14233
33241 66482
7322 14645
55617 27808
32320 16160
16783 33566
21851 43702
31737 15868
38664 19332
21563 43126
27851 55703
1984 3968
19221 38442
1896 948
39980 19990
41121 20560
1057 2114
4781 9563
20967 41935
4931 9863
65612 32806
27764 55529
14148 28297
13330 6665
32256 16128
26522 53045
14592 29184
37478 18739
42286 21143
26380 13190
27890 55781
23334 46669
55262 27631
21002 10501
17722 35444
18893 37786
27047 54094
9591 19182
13231 26463
57134 28567
57401 28700
4514 9028
2903 5806
27934 55868
4907 2453
1376 688
14405 28811
13173 6586
13870 6935
23621 47243
63145 31572
31213 62426
3845 1922
22234 11117
21308 42616
49784 24892
15573 31146
32757 16378
16868 8434
59805 29902
65125 32562
3965 7930
17194 34389
30683 15341
37415 18707
22767 45535
65524 32762
26170 13085
10717 21434
31193 15596
64245 32122
10237 20474
64182 32091
15925 31851
18030 9015
4307 8615
33399 16699
9429 4714
49391 24695
32221 64443
50035 25017
38846 19423
36903 18451
19128 9564
61783 30891
5005 2502
181 363
1704 3408
16110 8055
33653 16826
26431 52862
27987 13993
4586 9173
867 433
30380 60761
46448 23224
15625 7812
17368 34737
13476 26952
11460 22921
16902 8451
12005 24010
30751 61503
44284 22142
7697 3848
1536 3073
2002 4004
27264 54528
64396 32198
1249 2499
36139 18069
18614 9307
15166 7583
2602 5205
67442 33721
64274 32137
18128 36257
10053 20106
12554 25109
9923 4961
3503 7006
40568 20284
4060 8121
28781 57562
36463 18231
23031 11515
34107 68215
67191 33595
18396 9198
20111 40223
26790 53581
9574 19148
29102 58204
17186 8593
23623 47246
62372 31186
17203 34407
15215 30430
28816 14408
56561 28280
50957 25478
8578 4289
62398 31199
21908 10954
770 1540
19674 39349
53427 26713
8330 16661
1542 771
12818 25636
3351 1675
46319 23159
5771 2885
59583 29791
7842 15685
68443 34221
57007 28503
65043 32521
31261 62522
18467 36934
67477 33738
34557 69114
56044 28022
3167 6334
2451 1225
24384 48768
32716 65432
25395 50790
8452 4226
39690 19845
14052 28104
6168 12336
7377 14755
10619 5309
3747 7494
20377 40755
60371 30185
41327 20663
33755 67511
17326 8663
6664 13328
57143 28571
34381 17190
23814 47628
26415 52831
28954 14477
28418 56836
42246 21123
11116 22233
23492 46985
22081 44163
23743 47486
14357 28715
14587 29174
5873 2936
14169 7084
15287 30574
18216 9108
34522 17261
3408 6816
61888 30944
16821 33643
6710 13421
18114 36229
6089 12178
9308 18616
2520 5040
9221 18442
3728 1864
64051 32025
13326 6663
13360 26720
39377 19688
5945 2972
7583 15167
12551 6275
12311 6155
37771 18885
510 1021
18557 37114
17219 8609
34568 69137
12043 6021
33347 66695
22502 45004
53643 26821
2221 1110
2500 5001
11471 22943
52935 26467
5562 2781
22412 44824
50749 25374
15315 30631
25483 50967
2054 4109
54880 27440
53976 26988
39851 19925
53099 26549
6394 12789
37977 18988
5889 2944
54529 27264
14743 29486
7387 14775
30002 60005
54725 27362
3424 1712
14017 28035
9792 4896
18786 37572
48357 24178
42714 21357
21422 42844
40591 20295
30421 15210
23940 47881
68804 34402
37410 18705
14952 29905
63238 31619
41620 20810
7865 15730
61591 30795
20165 40330
31670 63340
3442 6885
9122 18244
23234 46469
32897 16448
39654 19827
11747 23494
10011 5005
16224 8112
56080 28040
23433 11716
40476 20238
30621 61243
13600 6800
29082 58165
27258 13629
60312 30156
35892 17946
4965 9930
66524 33262
43772 21886
18025 9012
18358 9179
17277 34555
12099 6049
31358 15679
28346 14173
57816 28908
7656 3828
12559 25118
15221 30442
27157 54314
3618 7236
7410 3705
25203 50407
26325 13162
63121 31560
20913 41827
67552 33776
9841 4920
17887 35775
11236 22473
22023 44046
8268 16537
21863 43726
28539 57079
20689 41378
140 281
26620 13310
15807 31615
67889 33944
11749 23498
38669 19334
44091 22045
12022 24044
4997 9994
32853 65707
39354 19677
16049 8024
16385 32770
37673 18836
54097 27048
21172 42344
19391 38783
51546 25773
48700 24350
17069 34139
50173 25086
44373 22186
20095 40190
20872 41745
30078 15039
18076 9038
13728 6864
33511 67022
34357 68715
20418 10209
21234 10617
60004 30002
4 8
24357 48714
31539 63078
11329 22659
22072 44145
10681 21363
32096 64193
12471 24942
14468 7234
29886 59773
27547 13773
49051 24525
5973 11946
36203 18101
33508 16754
45752 22876
9736 19472
4335 8671
29746 59492
29149 14574
33324 66648
515 257
24518 49037
1768 3536
48254 24127
28924 14462
32988 65977
31980 63961
29087 14543
45220 22610
576 1153
17584 35168
32330 64660
17189 34378
12719 6359
60056 30028
17617 8808
46906 23453
64127 32063
42215 21107
7548 15096
25610 51221
25775 12887
56407 28203
7829 15658
3180 6360
12414 24829
31878 63757
11469 22938
31453 15726
28914 57828
5878 2939
61509 30754
10847 21694
2876 5753
17693 35386
7778 3889
24540 12270
15139 30279
13737 27474
2379 4759
22074 11037
34414 68829
17734 35468
14053 28107
13437 26875
6637 13275
37442 18721
19884 39768
22106 44213
15721 31442
10692 21384
39899 19949
57 28
25133 50266
16083 32167
7105 14211
63010 31505
5155 10310
10973 21947
12480 24961
2166 1083
43519 21759
27683 55366
13141 6570
33032 66064
36080 18040
3789 7578
360 721
16954 33909
60634 30317
50083 25041
51656 25828
33941 67883
61930 30965
58490 29245
50207 25103
38535 19267
14442 28884
8653 17307
26921 53842
22453 44907
19457 38915
599 299
27681 13840
5022 10044
27024 13512
6494 12989
61883 30941
27732 55465
35122 17561
32928 65857
52857 26428
8015 16031
61719 30859
34056 17028
20475 10237
31726 15863
29911 59822
5382 2691
46608 23304
14447 28895
64462 32231
24445 48891
27709 55419
27326 54652
26339 52678
24731 49463
33056 66112
26877 13438
40670 20335
19841 39683
58847 29423
40112 20056
33672 67344
17501 35003
646 1292
27778 55556
25957 51915
6837 13675
36395 18197
19211 38423
19782 39565
2926 5852
53499 26749
28915 57831
57018 28509
21109 10554
46205 23102
6288 12576
20824 10412
46954 23477
22889 45778
347 695
22345 44691
45246 22623
21800 43600
11498 22997
60413 30206
61699 30849
3438 1719
22573 11286
26467 52934
47846 23923
26297 52594
53380 26690
26605 53211
3968 7936
23213 46427
66603 33301
21432 42865
26580 13290
13270 6635
5915 11830
59399 29699
19772 9886
26955 53910
66048 33024
5147 2573
2680 5361
22190 44380
48266 24133
54863 27431
29179 58358
11851 23702
64817 32408
24305 48610
59355 29677
697 1395
29111 58223
66137 33068
35533 17766
38790 19395
8136 16273
21578 10789
26161 13080
13344 26689
1518 3036
8703 17407
8690 4345
23231 11615
8427 16854
40653 20326
22226 44452
27824 55648
13700 27400
17351 34703
34596 69192
33191 66383
18863 37727
20157 40315
14744 7372
56316 28158
11137 5568
33438 66876
1288 644
2373 4746
27870 13935
6534 3267
24211 12105
5009 10019
36632 18316
20331 10165
2254 1127
12877 25754
7515 15030
14906 29812
39978 19989
1619 3239
19031 9515
8277 16554
36789 18394
30584 61169
15201 30402
66040 33020
30630 61261
32502 65004
25758 51517
16881 33762
33087 16543
32244 64488
15508 31016
15633 7816
14085 28170
42346 21173
944 472
47744 23872
68566 34283
16601 33203
16719 8359
14762 7381
62199 31099
25035 50070
13323 26646
7282 14564
65103 32551
17875 8937
8035 16070
35234 17617
989 1979
29078 58157
64525 32262
25595 12797
3 7
15910 31821
12463 6231
15493 30986
5913 2956
25518 51036
724 1449
42568 21284
62296 31148
717 1434
4115 8230
17656 35312
3027 6055
14111 28223
30884 61769
41784 20892
44886 22443
3022 6044
32282 64564
4387 8774
39374 19687
33597 67195
64434 32217
10758 5379
18563 9281
37191 18595
11055 5527
59563 29781
2927 1463
16175 8087
16600 33200
13451 26903
65434 32717
16327 32654
13570 27140
37345 18672
7251 14502
23406 11703
410 205
27563 13781
15312 7656
4199 2099
44838 22419
30591 61182
5298 10597
43610 21805
20817 41635
17762 35524
12906 25812
57404 28702
22244 44489
50354 25177
368 736
32482 64964
17672 8836
20241 40482
11054 22109
63402 31701
6017 3008
25634 12817
34596 69193
67830 33915
1162 581
33189 16594
2517 1258
59636 29818
25563 51127
28067 56135
12808 25617
3624 1812
15260 30520
19952 39905
18140 9070
28751 57502
54760 27380
7558 15117
17627 8813
1361 680
68196 34098
21475 42950
9134 4567
47899 23949
7855 3927
11551 5775
53764 26882
28780 14390
65635 32817
19270 38540
32072 16036
26020 52041
19914 39828
62070 31035
7904 15809
24370 48740
39643 19821
23257 46515
28588 57176
29649 14824
11375 22750
24681 49362
27614 13807
33754 16877
8285 16571
11883 23766
24736 49473
747 1494
828 1657
30318 15159
17483 34966
51768 25884
68046 34023
36168 18084
6872 13745
39519 19759
5883 11766
43146 21573
23923 47847
42498 21249
16234 32469
21093 10546
60872 30436
18189 36378
20975 41950
33584 16792
11938 23877
9738 19476
28961 57923
8796 4398
15688 7844
22985 45971
45503 22751
49310 24655
17689 35379
4062 8124
8618 4309
11487 22975
33158 66317
6769 13539
28821 57643
56548 28274
23964 47928
32924 65848
33692 67385
51445 25722
11526 5763
16099 32199
15267 30534
6778 3389
31628 63256
27130 13565
10706 21412
26859 13429
15332 30665
5860 11720
64834 32417
16539 33078
38098 19049
32740 65481
28889 57779
29968 59936
29091 58182
49365 24682
28866 57733
27588 55177
33890 67780
52429 26214
30198 60396
6098 12197
22630 45260
6991 13982
12092 24184
5599 11198
11544 5772
41222 20611
53465 26732
18021 9010
10819 21638
25743 51486
61695 30847
47378 23689
59942 29971
32125 64250
19823 39647
27679 13839
14228 28457
39847 19923
10987 5493
26796 13398
2501 5002
10364 5182
62056 31028
1522 761
20141 10070
12615 25231
35089 17544
24459 48918
1174 2348
9619 4809
31193 62387
32215 64430
40968 20484
27137 54274
33275 16637
16130 32260
13032 6516
30368 60737
30442 60885
18963 9481
9670 19341
6280 12561
13580 27161
55532 27766
20792 41584
48473 24236
14831 29663
12887 25774
10460 20921
44321 22160
42624 21312
4449 8899
53094 26547
39056 19528
34103 68207
21877 43754
29274 58548
26245 13122
24959 12479
3294 1647
12072 24145
13147 26295
10902 5451
22291 11145
29280 58561
17184 34369
24937 49875
17414 8707
17436 34872
44504 22252
63329 31664
39794 19897
35975 17987
44316 22158
12778 25556
44131 22065
49808 24904
49798 24899
11723 23446
18444 36889
29846 59693
33440 16720
4198 2099
65528 32764
6603 13206
24750 49500
19211 9605
54631 27315
23462 46925
60258 30129
53590 26795
2830 5661
28130 56260
1359 679
62391 31195
24654 49309
1101 550
22525 11262
33887 67774
62910 31455
12457 24914
26046 52092
1851 925
31991 15995
53342 26671
28295 14147
11899 5949
11035 5517
5101 10202
25884 51769
676 1352
7608 15216
4405 2202
31573 15786
17901 35802
32058 64117
14819 29639
32380 64761
22334 44669
25669 51339
52891 26445
21466 42932
32630 65261
17976 8988
28881 57763
2523 5046
4464 8929
10825 5412
7007 3503
13507 6753
47736 23868
13254 26508
26749 53498
12367 6183
28664 57329
52892 26446
30105 15052
26787 53574
15760 31521
11089 5544
33647 67295
28443 14221
46000 23000
21022 10511
4122 2061
20342 40684
40051 20025
21132 42265
19496 38993
48324 24162
31224 62448
43036 21518
23302 46605
12127 6063
14116 7058
4895 2447
32540 65081
29322 58645
3920 1960
25377 50755
37751 18875
21641 43282
37319 18659
21963 43927
68083 34041
63396 31698
15030 30060
61118 30559
4587 9175
7354 14709
1036 518
62595 31297
2796 5592
23395 11697
22010 11005
4344 2172
26184 52368
15562 7781
13006 6503
60463 30231
27244 13622
47682 23841
41575 20787
67207 33603
7089 14178
51612 25806
16336 8168
20062 10031
20393 10196
55073 27536
8584 17168
13160 26321
9996 19993
60494 30247
34822 17411
49943 24971
60044 30022
22752 45505
9841 19682
42947 21473
7224 14448
18278 36556
57888 28944
29715 14857
6366 3183
31356 62713
7032 14064
66718 33359
18891 37782
23626 47253
5401 10803
27740 55481
18202 36404
24257 48515
12570 25140
22421 44843
63822 31911
29488 14744
41832 20916
21544 10772
6303 3151
3316 6633
32376 16188
165 82
60243 30121
42713 21356
20565 41131
33377 66754
41633 20816
19226 38452
4666 9333
43667 21833
6301 12603
152 305
11115 22231
51811 25905
11284 22568
11178 22357
29742 14871
33006 16503
30055 60110
40213 20106
15700 31400
10068 5034
59573 29786
10432 20864
17177 34355
4669 9339
35342 17671
29610 59220
25138 12569
14896 29792
57380 28690
52866 26433
18392 36784
29684 59368
20186 10093
52094 26047
16449 8224
54138 27069
19629 9814
27874 55749
3569 7138
65346 32673
21236 10618
55759 27879
33801 67602
57906 28953
26283 52567
47207 23603
18239 36478
4825 2412
16968 33936
49348 24674
6020 12041
21881 43763
28947 14473
16512 8256
46467 23233
30915 61831
41759 20879
24868 49737
34657 17328
44804 22402
37636 18818
28590 57181
10305 20610
2057 4115
5084 10168
6352 12705
3000 6000
21068 42136
8502 17005
18746 9373
3887 1943
25907 12953
8586 4293
20794 41589
50997 25498
18925 9462
9260 18521
30262 15131
8044 16088
56226 28113
14388 28777
12878 25757
1564 3129
17499 34999
46303 23151
31955 15977
12303 6151
63347 31673
22866 11433
50775 25387
33445 66890
32201 16100
8960 17920
30467 60935
58793 29396
28836 57672
9836 19673
52218 26109
25233 12616
26828 53656
13079 26158
27668 13834
59441 29720
19346 38693
35397 17698
61549 30774
47672 23836
20285 40570
47499 23749
40365 20182
9324 4662
23184 11592
23110 46220
39180 19590
43809 21904
13462 26924
37433 18716
24771 49543
22771 45542
3999 1999
53901 26950
18998 37996
5832 11664
13730 6865
23951 11975
31404 15702
58861 29430
62915 31457
29197 14598
59047 29523
4027 8055
26023 52047
9180 18361
28085 14042
21416 42832
3653 7307
282 564
32302 64604
25901 51803
32726 65452
21903 43807
18775 37550
25925 12962
14543 29086
28962 57925
24103 12051
13688 6844
6239 12478
3549 7098
9409 18819
13046 26093
56390 28195
59932 29966
29076 14538
19159 38318
3315 6631
17795 8897
9512 19025
1042 2085
26785 53570
3058 6116
61374 30687
28910 14455
29387 14693
5453 2726
23165 46331
55735 27867
31401 62803
61355 30677
7947 15894
33120 66241
21042 42084
58656 29328
12658 25316
66827 33413
532 1064
13915 6957
66563 33281
9582 19164
31248 62497
32229 64459
28060 56120
7524 15049
62222 31111
11416 5708
11166 22332
68846 34423
925 462
21740 43480
55935 27967
60406 30203
45982 22991
43419 21709
56100 28050
51400 25700
6959 13919
11085 5542
12763 6381
19751 9875
11781 23563
49335 24667
62253 31126
15978 7989
10753 21507
5598 2799
6974 13949
63872 31936
1467 2935
21625 10812
58020 29010
1061 2122
3314 6628
44777 22388
31421 62843
1952 976
12525 25051
20085 40171
23515 47031
27788 55576
17984 35969
19165 38330
9196 18393
19007 38015
33910 16955
8469 4234
22938 45877
8188 16376
60856 30428
43389 21694
16737 8368
20306 10153
2894 1447
5625 2812
51347 25673
6755 13511
23714 47429
53892 26946
49936 24968
11836 23672
67744 33872
57602 28801
66562 33281
43821 21910
26700 53400
7023 14046
28707 57415
7105 3552
24973 12486
32493 64986
8016 16033
64671 32335
49320 24660
10907 21815
44399 22199
68844 34422
20030 40061
15409 7704
26052 13026
14323 28647
69214 34607
30548 61097
28574 14287
19343 9671
663 1327
5717 11434
10430 5215
52311 26155
20538 41077
53882 26941
39413 19706
49035 24517
29909 59819
55879 27939
54648 27324
5798 11597
28558 57117
10428 5214
40649 20324
64987 32493
13132 26265
17206 34412
14577 29154
21286 42573
27302 13651
16159 8079
14256 28512
64331 32165
36678 18339
7267 14535
27059 13529
4079 8159
56312 28156
31964 63928
25773 12886
8461 16922
11024 22048
22475 44950
24076 48152
61164 30582
31582 15791
46134 23067
15445 30890
4001 8003
32559 65119
54406 27203
1281 2563
26532 53065
58496 29248
9024 18049
14042 28084
29373 58746
32192 64385
55815 27907
24435 48870
20332 40664
20922 10461
29025 58050
16888 8444
17527 8763
31755 63510
2324 1162
10009 20018
20070 40141
30065 60130
23668 47337
64174 32087
9560 19121
35658 17829
42320 21160
13949 27898
1451 725
10844 5422
37013 18506
25845 51691
9578 19157
34651 17325
45645 22822
63377 31688
65705 32852
40162 20081
19276 38552
64578 32289
2407 4814
338 169
8615 17231
26817 53634
21947 43894
33441 66883
47259 23629
12061 24123
29123 14561
7973 15947
52389 26194
29594 59188
22502 11251
27748 55497
30323 15161
32882 65765
3106 6213
11839 23679
28410 56821
28493 56986
3216 6433
68655 34327
28271 56543
34141 68283
2622 1311
25268 50536
4613 2306
21998 10999
27475 54950
28934 14467
10531 5265
42205 21102
3016 6033
19988 39976
21825 43651
10017 20034
29863 59726
4007 2003
43888 21944
7909 3954
55070 27535
63428 31714
23309 11654
27887 55774
20807 41615
30333 60667
43732 21866
21430 42860
40280 20140
51270 25635
2016 4032
14839 7419
18555 37110
32547 16273
49486 24743
10803 21606
30715 61430
11751 5875
67856 33928
27538 13769
10767 5383
29536 59072
58148 29074
577 288
22537 11268
14537 29074
24222 48444
21252 42504
1897 3794
62854 31427
2394 4789
61949 30974
28789 57579
22932 45864
4716 9432
12690 25381
7799 15598
590 1180
25613 51227
26097 52195
7671 3835
10994 21988
28516 14258
6509 3254
66464 33232
22773 11386
11440 5720
4944 2472
1159 579
21686 43373
23388 46777
29810 59621
27347 13673
30663 61327
23896 47792
27423 13711
14789 29578
21511 10755
49036 24518
16743 33487
65407 32703
10500 21001
38515 19257
14186 28372
23443 46887
46443 23221
3225 6451
28385 56771
55993 27996
31911 63823
61585 30792
3398 6796
3184 1592
14365 28730
31036 62072
7064 3532
5106 2553
34538 17269
26255 13127
42873 21436
21842 10921
62911 31455
14330 7165
33985 67970
31102 62205
27974 55949
16067 32134
9149 18299
17355 34711
53561 26780
31292 62584
51661 25830
29250 58501
34497 17248
31755 63511
9984 4992
7369 3684
17409 34819
28770 14385
12323 6161
45893 22946
6443 12886
33725 67451
19559 39118
23732 11866
24664 12332
47843 23921
36049 18024
7008 3504
21328 42657
54661 27330
17841 35683
51439 25719
55499 27749
52482 26241
13956 27913
47433 23716
46384 23192
33973 67946
30948 61897
47581 23790
18423 36847
48706 24353
45048 22524
21968 10984
30565 61131
51625 25812
27849 55699
58784 29392
30814 61628
14206 7103
7259 14518
52028 26014
20488 40977
26474 52949
23748 47496
28515 57030
12751 6375
29859 59719
6727 13454
13867 6933
31289 62579
39621 19810
69318 34659
16244 32488
18469 9234
30952 61905
46239 23119
29552 14776
19470 38941
53931 26965
67938 33969
43704 21852
2801 5603
9892 19785
19523 9761
37148 18574
2141 1070
35001 17500
45138 22569
39582 19791
42953 21476
28320 14160
34022 17011
13463 26926
4169 2084
19396 9698
24906 49813
17926 35853
46114 23057
11684 23369
57353 28676
67180 33590
3703 7407
2141 4282
1518 3037
38213 19106
53019 26509
30755 61511
33628 67256
6496 12992
7733 15466
365 730
11706 5853
20989 10494
29866 14933
13501 27002
28986 14493
37236 18618
64597 32298
26566 53132
27070 54140
6724 13448
2412 1206
31517 15758
17502 8751
8680 17361
34710 17355
24788 12394
34291 68583
28799 57599
38066 19033
10273 20546
11610 5805
45624 22812
23122 11561
14080 28160
43906 21953
29330 58661
25533 12766
4428 2214
13333 6666
26957 53914
24034 12017
13020 6510
2420 1210
47215 23607
1439 719
26352 52704
56147 28073
26631 13315
63072 31536
69254 34627
4016 2008
13106 6553
7080 14161
68131 34065
38279 19139
25037 50074
2235 1117
20744 41489
30040 15020
5548 11097
19883 39767
2630 5260
9360 18721
29621 59242
24210 48420
2745 5491
23322 46645
31585 63170
15462 30924
59065 29532
36890 18445
4682 2341
31550 15775
21672 43344
16720 8360
47234 23617
16331 32663
37733 18866
33961 16980
1349 2699
1907 3815
65920 32960
54513 27256
46105 23052
19633 39266
17372 34744
29705 59410
20398 40796
32779 65559
5604 11208
62145 31072
4578 2289
28242 14121
23035 46071
22811 45622
34253 17126
55502 27751
18074 36148
23718 47436
46315 23157
62100 31050
5172 10345
38574 19287
49054 24527
7337 3668
22954 45909
38268 19134
26091 52183
63497 31748
27205 54410
24876 49752
41932 20966
17152 34305
9087 4543
11267 22534
4523 9046
7312 3656
26144 52288
6270 3135
60040 30020
26002 13001
46631 23315
12424 24848
19764 39528
18660 37320
23892 11946
4028 2014
16090 32180
9296 18593
9176 4588
8883 17767
5750 11501
8353 4176
30370 60740
31075 62151
4093 2046
18519 37038
18574 37149
48250 24125
22659 45318
8937 4468
13271 26543
44369 22184
8231 16462
3384 1692
20740 41480
734 1468
21493 42987
16842 33684
14506 29013
17020 34040
4419 2209
21115 10557
17085 34171
68995 34497
14150 28301
64980 32490
15443 30886
30142 60285
2364 4729
63554 31777
23115 46230
17196 8598
58946 29473
15981 31962
44407 22203
23409 11704
986 1972
16599 8299
67114 33557
6018 3009
49392 24696
15129 30259
2758 1379
55989 27994
4334 8669
59603 29801
45629 22814
14437 28875
5840 2920
2325 4651
53444 26722
50159 25079
20493 40987
2091 4182
59926 29963
62535 31267
33712 67424
16378 8189
13203 26406
17539 35079
28491 56983
27855 55711
24348 48696
19046 38092
33048 66097
46709 23354
15738 31477
27334 54668
10036 20072
10884 21768
47213 23606
12075 24150
41329 20664
56719 28359
62722 31361
4932 2466
15499 30999
19163 9581
3021 6043
40674 20337
47447 23723
25050 50101
43815 21907
727 363
20257 40515
18446 36892
10714 21428
57511 28755
21587 10793
23008 11504
15293 30587
4478 2239
52245 26122
549 1099
66543 33271
16033 32067
8006 4003
25228 50456
13491 26982
8268 16536
67799 33899
6353 12707
19118 38236
4662 2331
19376 38752
7219 3609
6871 13743
12033 24067
52868 26434
14791 29583
50962 25481
15052 7526
53787 26893
65594 32797
20166 40333
6454 12909
65745 32872
67537 33768
21863 10931
17292 8646
25030 50061
3960 1980
38039 19019
30550 61100
67470 33735
29635 14817
18307 9153
15338 30677
31804 63608
23016 46032
60420 30210
26747 53495
23317 46635
67674 33837
51964 25982
27955 55910
22874 45748
31368 15684
47489 23744
20100 40201
23409 46818
32311 16155
22663 11331
22431 44863
8677 17354
5395 10790
65525 32762
30665 61331
52497 26248
19286 9643
46193 23096
18970 9485
16464 8232
10288 20577
12472 24945
31221 15610
56592 28296
2906 1453
30073 60146
29685 59371
5659 2829
37795 18897
5980 11960
27335 54671
16714 33429
3274 1637
3468 6936
4336 8672
451 902
23755 11877
66105 33052
26846 53692
20461 40922
34536 69073
39361 19680
11143 22286
31026 62053
63259 31629
65850 32925
15324 7662
30166 60332
68563 34281
2882 5765
17701 35402
41997 20998
16196 32393
23976 11988
1908 3817
19222 38445
23145 46291
16863 33727
12082 6041
18171 36342
15079 30158
19297 38594
31715 63431
30542 61085
25900 51801
6410 12821
60374 30187
53579 26789
6013 12026
2378 4757
2423 1211
5702 11405
4532 2266
51835 25917
18104 36208
65736 32868
22289 44578
69148 34574
33224 66448
18070 9035
28037 14018
52848 26424
28095 56190
4552 9105
56759 28379
32037 64075
28081 56162
27656 55313
58022 29011
10054 5027
54442 27221
29983 59966
2009 4018
38613 19306
40232 20116
13210 6605
27308 54617
4750 2375
36575 18287
45117 22558
14865 7432
22304 44609
30469 15234
46930 23465
2437 4874
5396 10793
8378 16757
8337 4168
13545 27090
13478 26956
23815 47631
4868 9737
23315 46630
2781 1390
53396 26698
34569 17284
8797 4398
37361 18680
57653 28826
8116 16233
61369 30684
20812 41625
32275 64550
15642 31285
14617 29234
13706 6853
7756 3878
32845 65690
43914 21957
3952 7905
9691 4845
23018 11509
38627 19313
29720 14860
19177 38354
48225 24112
6858 13717
25596 51193
1048 2097
28598 57197
1832 3664
27144 54288
16104 32208
57480 28740
29134 58269
31506 63012
17608 35216
56809 28404
1303 2606
8423 16847
24821 49643
30448 60897
54302 27151
43913 21956
24926 12463
50230 25115
14843 7421
23270 11635
4266 8533
26001 52003
7842 3921
913 1827
64034 32017
11540 23081
54360 27180
58282 29141
26935 13467
18182 36364
19809 39618
41979 20989
32390 64780
46256 23128
36491 18245
23228 46456
5887 11774
1184 592
45536 22768
33511 67023
32734 65468
37726 18863
6005 12011
50977 25488
21182 42364
3407 1703
19426 38853
12034 6017
64352 32176
24260 48521
11163 22327
27788 13894
20263 40526
24790 12395
33641 16820
13845 27691
11161 22323
59514 29757
43748 21874
55130 27565
17911 35823
63678 31839
59066 29533
54077 27038
18923 37847
25256 50513
16583 8291
6300 12601
13378 26756
32501 65003
59544 29772
14074 7037
59351 29675
17114 8557
7556 3778
3331 1665
14892 29784
17322 34644
24157 48314
57386 28693
8515 17030
5167 2583
26974 13487
47933 23966
31853 63707
34518 69037
50891 25445
4714 2357
3971 1985
30870 15435
53527 26763
30503 61007
9707 19415
7230 14460
19787 39575
835 1671
26482 52965
40345 20172
32941 16470
25795 51591
10392 5196
6954 3477
27380 13690
24057 12028
28456 56912
21729 43458
18655 37311
18210 36420
281 562
7298 14597
30954 61909
25058 12529
33984 67969
1207 2414
32889 65779
2598 1299
23572 11786
60785 30392
15715 31430
53612 26806
57687 28843
6556 3278
20519 41039
12368 24737
31101 62202
21040 42081
8990 17981
26697 53395
21092 42185
24286 12143
6524 3262
29655 14827
34179 68358
4842 9685
15866 31732
65846 32923
40834 20417
14101 7050
42619 21309
68104 34052
5986 11972
47126 23563
1144 2289
46447 23223
33357 16678
13151 26303
57038 28519
29397 58795
5486 10972
27234 54469
8438 4219
56344 28172
575 1150
34164 17082
16879 33758
2101 4203
27250 54501
21584 10792
32253 64507
18626 37252
23308 11654
34011 68023
18468 36936
29907 59815
47016 23508
28858 57716
5229 10458
23149 46299
16583 33167
16026 32053
5790 11581
30787 61574
23997 47994
10135 20270
28100 14050
4287 2143
18063 36127
28637 57274
956 1912
51177 25588
27817 55634
54083 27041
46477 23238
58736 29368
22748 45497
35272 17636
26069 52139
16008 32017
67540 33770
3875 1937
26106 13053
29703 59406
26741 53483
22346 11173
14557 29115
6032 3016
15366 30733
25533 51067
24207 48415
9961 19923
16619 33239
32893 16446
26769 53539
17366 8683
42398 21199
57957 28978
13427 6713
9504 4752
31151 62303
47957 23978
13281 26563
11299 22598
57120 28560
34332 68664
68120 34060
30992 61984
13006 26012
9371 18742
32648 65296
30388 60777
16409 8204
38519 19259
15851 31703
45975 22987
26235 13117
36676 18338
45927 22963
13174 26348
2107 4215
24659 12329
26996 53992
50367 25183
28635 57270
19901 39803
14650 29301
7123 3561
42533 21266
38811 19405
47516 23758
31365 62731
30734 61469
22726 45453
62091 31045
42247 21123
32255 64510
63124 31562
8295 16591
16039 32078
29099 58199
846 423
43079 21539
27784 13892
31635 15817
22342 44684
17565 35131
465 931
6084 12168
43799 21899
19208 9604
3584 1792
17681 8840
35870 17935
7116 14232
27733 55467
2456 1228
16979 33958
17033 34066
22429 44858
5145 10291
38525 19262
12428 24856
13097 26194
12667 6333
17342 34685
7261 14523
33921 67843
13014 6507
23455 46911
27848 55697
8432 16865
41924 20962
2554 1277
30567 61134
38348 19174
21356 42712
13631 27263
26332 13166
44960 22480
19953 9976
68187 34093
29675 14837
18952 9476
2029 4058
28589 14294
19590 9795
67616 33808
48966 24483
27835 55671
12729 25458
26517 53034
17838 35677
16759 33519
19752 9876
34574 69149
13362 26725
9049 4524
29943 59887
18472 9236
33363 66726
57745 28872
41952 20976
68479 34239
10874 5437
6217 12435
25499 50999
18188 9094
31774 63549
22049 44098
61818 30909
31956 63912
16140 8070
55873 27936
9562 19125
18154 9077
64339 32169
10597 21194
16093 8046
23043 11521
11956 23913
17093 34186
25453 50906
33719 67439
19847 39695
9603 19207
13232 26464
43264 21632
28772 57544
31376 15688
46358 23179
6867 3433
11795 23591
64436 32218
5566 2783
2802 5604
47348 23674
10893 5446
29267 14633
53594 26797
10306 5153
1060 530
8418 4209
53531 26765
44715 22357
44518 22259
12438 6219
1141 2283
25186 12593
23059 46118
1623 3247
21906 43812
12554 25108
65701 32850
2084 4168
62965 31482
54490 27245
10825 21650
45841 22920
28841 14420
14166 28333
10134 20268
34431 68862
2183 4367
22824 45648
18802 37604
18173 36346
312 624
53477 26738
61994 30997
54494 27247
6749 13499
45899 22949
9565 19130
50409 25204
16324 32649
45597 22798
48195 24097
3552 1776
2229 4458
15217 30435
22358 44716
33166 16583
4060 8120
5224 10449
13106 26213
20669 10334
62530 31265
33137 66274
26674 13337
1578 3157
67992 33996
33292 16646
40008 20004
33809 67618
14378 7189
6271 3135
44904 22452
3654 1827
54246 27123
11421 22842
60757 30378
22203 11101
41948 20974
1613 806
20503 41007
32684 65369
3075 1537
13007 6503
14260 7130
41065 20532
12978 6489
9146 18293
36775 18387
28326 56652
53513 26756
12027 6013
10554 21108
25602 51205
413 827
24702 12351
50581 25290
29012 58024
18241 9120
18664 37328
18045 36091
44598 22299
26720 53440
27205 54411
17959 35919
31631 63263
30737 61474
17821 8910
29725 59450
23549 47099
212 424
29478 14739
28371 56742
28490 56980
26096 13048
34269 68538
24446 48893
52851 26425
21274 42549
10289 5144
52127 26063
6819 13638
7073 14146
30183 60366
27228 54456
33176 16588
23004 46009
18638 9319
33374 16687
21946 43893
7574 3787
7195 14391
31173 62347
40964 20482
39977 19988
15476 30953
4332 2166
10409 20819
21649 10824
30230 60461
62022 31011
21366 42732
18139 36279
44650 22325
65748 32874
57783 28891
44295 22147
24849 49699
26938 13469
26922 53844
57431 28715
2193 1096
10194 20389
17955 35911
19127 38254
17371 34743
61886 30943
29630 59261
60591 30295
456 228
29330 58660
2152 4304
6534 13068
20667 10333
66173 33086
7702 3851
2431 4863
14745 29491
7774 3887
28176 14088
43943 21971
16937 8468
13696 27392
56801 28400
2027 4055
11980 23960
8445 16891
66556 33278
20023 10011
14667 29334
28176 56353
29902 59804
56013 28006
20673 10336
68291 34145
21391 10695
39902 19951
5262 10525
3074 6149
20038 40077
50540 25270
29292 14646
21544 43089
9477 18954
26218 52437
69302 34651
36862 18431
9133 4566
62146 31073
26827 53654
28932 57865
32449 16224
8920 17841
52616 26308
19930 9965
39751 19875
60444 30222
17450 8725
66712 33356
8017 16035
3019 6039
15208 30417
32507 65014
27360 54720
29311 58623
11389 22779
68008 34004
5425 10851
39055 19527
12134 24269
12060 24120
13408 26817
33545 67091
18274 36548
30385 15192
27725 55451
33131 16565
15172 30345
41610 20805
12371 6185
18333 36666
8082 16164
20889 41779
3614 7229
5173 2586
30848 15424
24008 12004
8460 4230
20386 40772
21717 43435
12713 25427
26476 52952
58034 29017
46044 23022
33714 16857
37968 18984
24733 12366
24053 48106
2389 1194
54067 27033
27976 55952
23705 47410
16759 33518
19560 9780
68210 34105
7498 3749
46637 23318
17275 34551
22359 11179
22077 44155
20589 10294
18244 36489
34780 17390
21399 42799
9567 19135
45753 22876
39960 19980
17850 8925
11552 5776
12501 25002
38277 19138
27778 13889
8698 4349
57692 28846
13286 26572
22124 44249
12395 24791
16264 32529
6560 13120
2293 4586
31525 15762
7686 3843
66179 33089
43006 21503
43839 21919
13515 27030
2510 5021
8565 17131
6892 13784
1954 3908
33634 67269
14720 7360
17928 8964
20186 40372
33816 67633
5194 10389
20993 41987
61885 30942
10077 20155
20921 41842
66117 33058
15192 7596
16146 32293
1888 3776
29556 59112
21058 42116
2275 4551
1546 3093
62903 31451
40538 20269
14811 29623
26633 13316
32849 16424
5862 2931
20900 41800
53686 26843
24034 48068
57665 28832
5882 11765
4499 8999
757 1515
7969 15939
41812 20906
62288 31144
10241 20483
12644 6322
36539 18269
25895 51790
33218 66437
34075 17037
15457 30915
26327 52654
8817 17635
13631 27262
2809 5618
9137 18274
10915 21830
13337 26675
5964 11929
29226 58453
29912 14956
31674 63349
22552 45105
25710 51420
25467 50935
39635 19817
4005 8011
338 677
19248 38496
23280 11640
40219 20109
7047 14095
31685 63370
18554 9277
30614 61229
13847 27694
3098 6196
22101 44202
8170 16341
15512 7756
27191 13595
26451 52903
24988 49977
62475 31237
22247 11123
22017 44034
12288 24576
60558 30279
12448 6224
54407 27203
48262 24131
48367 24183
17485 8742
68090 34045
2594 5188
8464 4232
4652 2326
28654 57309
21535 10767
22995 45990
15100 30201
10359 20718
31571 63143
42681 21340
14318 28637
9039 4519
35461 17730
16918 8459
24395 48791
31505 63011
59922 29961
19604 39208
7917 3958
10544 5272
61717 30858
1001 2003
31938 63876
14742 29484
23536 47073
37873 18936
38074 19037
32741 65482
19079 38158
9867 19734
7243 14486
1318 2637
11686 23372
18082 9041
22777 45554
28118 56236
29154 58309
909 454
13870 27741
33552 67105
15337 7668
16810 8405
24278 12139
8336 4168
544 1088
51826 25913
33350 16675
45276 22638
5534 11068
61911 30955
10028 20057
61482 30741
46647 23323
50419 25209
59190 29595
33424 66849
10487 5243
3692 7384
29442 58885
37016 18508
21883 43766
32291 64582
4459 2229
25701 51402
18307 36614
45667 22833
52636 26318
15579 7789
13284 26569
25651 51302
14160 7080
69280 34640
41206 20603
17116 34233
33199 16599
19981 39963
17644 35289
10246 5123
60775 30387
55632 27816
7552 15105
2204 4409
61775 30887
21991 43983
37222 18611
43995 21997
25325 12662
20170 40340
28888 57777
12600 6300
32220 64441
9817 4908
11824 5912
7072 14145
26437 52875
28936 57872
28505 57011
28137 56274
40244 20122
68667 34333
2564 1282
18719 9359
32628 16314
30174 60348
29304 14652
30475 60951
12968 6484
27031 13515
11264 22529
24466 48933
24757 12378
45387 22693
14186 7093
66953 33476
29896 59793
23803 47606
15362 30725
48823 24411
9934 19869
29099 58198
1681 840
11544 23089
60684 30342
30521 61043
10170 5085
55883 27941
26316 13158
19972 39944
10159 20319
5644 11289
56181 28090
28859 57719
17260 34520
55148 27574
24346 12173
58634 29317
46426 23213
34122 68244
29164 58328
23477 46955
22320 44641
1348 674
31331 15665
4834 2417
24027 48055
38684 19342
4093 8186
24360 48720
56696 28348
29437 58875
34395 68791
521 1042
3527 7054
45735 22867
51827 25913
3911 7823
24666 12333
66415 33207
31733 15866
4700 9400
12182 24365
831 415
8572 17145
35509 17754
18281 36562
15325 30650
16903 33807
10365 20730
17823 35647
437 874
22686 11343
295 147
5556 2778
17650 35300
47511 23755
20936 10468
63767 31883
46228 23114
12605 25210
11961 5980
64869 32434
32460 64920
23450 46900
15813 7906
27773 55546
4837 2418
21884 43768
2707 1353
26810 13405
21116 10558
28874 57749
7550 15100
30183 15091
11506 5753
23298 11649
16139 32278
11171 5585
53708 26854
27796 55592
14266 7133
32210 64421
67438 33719
4820 9640
8091 4045
10074 5037
5910 11821
30110 15055
51947 25973
33856 16928
4087 8174
31984 63969
33013 66027
41208 20604
20677 10338
3291 1645
16936 8468
53194 26597
32032 64065
50859 25429
21656 43312
31708 63416
31291 62582
29983 59967
34609 17304
55996 27998
3260 6521
3459 6919
54586 27293
23181 46362
17055 34110
32056 64112
2003 4006
19992 9996
21034 10517
40502 20251
16158 32316
57614 28807
34823 17411
8809 17619
60170 30085
25767 51534
50443 25221
5198 10396
58929 29464
43981 21990
31448 62896
24198 48397
34462 17231
37044 18522
55804 27902
20381 40762
59205 29602
57026 28513
20173 10086
58648 29324
12352 24705
32175 64350
48039 24019
65766 32883
69043 34521
69273 34636
23674 47349
18260 36521
28882 57765
8024 4012
2468 1234
12911 6455
7749 15498
17778 35557
9340 18680
11078 5539
7184 14369
17758 8879
6948 3474
26212 13106
20367 10183
48215 24107
39391 19695
53424 26712
20926 10463
9109 18218
45288 22644
1287 643
17808 35617
67998 33999
16773 33547
50050 25025
19783 9891
16896 33792
41347 20673
42219 21109
2436 1218
50107 25053
30649 15324
49544 24772
46030 23015
58755 29377
53200 26600
50255 25127
62698 31349
7576 15152
7963 3981
12850 25700
20122 10061
15863 31727
61876 30938
16983 33967
38697 19348
61981 30990
36275 18137
17602 35205
22674 11337
61337 30668
12100 24201
1271 2543
60836 30418
26684 53368
24989 49978
7547 15094
67668 33834
31426 62853
23554 11777
60906 30453
21935 43870
8895 4447
8256 4128
66720 33360
209 419
34788 17394
9741 19482
39731 19865
18483 36966
44516 22258
28692 14346
14923 7461
20668 10334
48805 24402
61341 30670
42387 21193
26812 53624
28754 14377
23074 46148
11595 23190
20403 40806
59184 29592
15573 31147
12020 24041
17924 8962
10937 21875
13303 6651
45271 22635
13167 6583
8933 17866
13065 26130
3481 6963
18868 9434
26978 53956
23508 47017
31993 15996
10930 21861
9245 4622
5063 2531
24667 12333
18316 36633
6357 12715
31089 62179
44579 22289
40464 20232
30657 61314
21526 10763
36667 18333
57878 28939
21281 42562
32507 16253
29533 14766
16086 32173
20949 41898
28445 56891
11393 22786
56074 28037
27700 13850
25108 50217
23499 46998
3882 7764
51014 25507
6831 13663
58270 29135
42119 21059
28162 14081
42702 21351
8042 4021
53467 26733
20319 40639
9548 4774
1250 2501
31007 62014
26179 52358
9770 19541
31483 15741
29402 58805
33825 16912
26731 53462
68574 34287
28583 14291
14610 29220
6181 3090
32848 16424
8337 16674
3859 1929
21108 42216
23034 11517
29747 59495
22884 11442
14081 7040
10339 5169
16440 32880
8117 16235
2640 1320
38810 19405
19221 38443
36677 18338
35226 17613
19374 9687
10058 20116
52790 26395
19173 9586
19391 9695
18081 36163
66270 33135
20308 40617
24816 12408
12855 25711
44626 22313
11965 5982
417 834
7881 3940
33854 16927
24098 48196
57221 28610
52707 26353
13653 27306
28439 56878
59203 29601
18723 9361
51441 25720
21075 42150
16343 32687
29023 58047
26280 52561
31936 15968
9115 18231
8604 17208
8785 17570
12748 6374
40439 20219
19765 9882
56361 28180
36629 18314
27917 13958
28556 57113
14950 7475
4198 8397
65624 32812
55263 27631
11862 23725
18445 36891
13035 6517
10605 5302
33969 16984
17138 8569
4088 8176
33617 67234
65026 32513
60805 30402
49208 24604
24837 49674
38132 19066
6456 3228
17132 8566
25334 50669
11347 22694
25454 12727
49398 24699
37542 18771
42525 21262
11258 5629
17645 8822
12824 6412
31047 15523
56989 28494
9784 19569
28725 14362
21717 10858
2800 5600
24651 12325
9358 4679
66760 33380
1175 587
27783 13891
27377 13688
24259 12129
23867 47734
20779 10389
35316 17658
13483 26966
11323 22646
22539 45079
39277 19638
1948 3897
7611 3805
28353 56706
56562 28281
60012 30006
4853 9707
18143 9071
11918 23836
49560 24780
15970 31941
29655 59311
5839 2919
55597 27798
18844 37689
22447 44894
8224 16448
2698 1349
18151 36303
23895 47791
15716 31432
1843 3686
30796 61592
31581 63163
4124 8248
3228 1614
5952 2976
19091 38182
31984 63968
22395 11197
36574 18287
30526 61052
18111 9055
29988 14994
51775 25887
14695 29390
37497 18748
43290 21645
2731 1365
54231 27115
52269 26134
23653 47306
16875 33751
28900 57800
51592 25796
5583 2791
10891 21782
20282 40565
7660 15320
20619 41238
27393 54787
23777 47555
32423 64847
7171 14343
22644 45289
40883 20441
25295 12647
14254 28508
21778 43556
24200 12100
44461 22230
2373 1186
38344 19172
44580 22290
32846 65693
23586 47173
21758 43517
20634 10317
32470 64941
33336 66672
28125 56251
33443 16721
10865 21730
41201 20600
32275 64551
18987 37975
12921 6460
19367 38734
5578 11156
8542 17085
27963 13981
5886 11772
15081 7540
19157 38314
21493 10746
43649 21824
24152 12076
1429 2859
16953 8476
15327 30655
11589 23178
24269 48539
52664 26332
15395 30791
18097 36194
4061 2030
28892 57785
14785 29570
17579 35158
24202 12101
12014 24029
28989 57978
20579 41158
43639 21819
15272 30545
39447 19723
47845 23922
32495 64990
17323 34647
18700 9350
31888 15944
4265 8531
32844 65689
29182 14591
8879 4439
4170 2085
10814 21628
29892 59785
5428 2714
26263 52526
46424 23212
15937 31875
11051 22103
12659 6329
68530 34265
9342 18685
59881 29940
1938 3877
32722 16361
2456 4912
25652 12826
9760 19520
9702 19404
17884 35769
3456 1728
14405 7202
16373 32746
21596 43193
53008 26504
24146 48292
17911 35822
4293 2146
42241 21120
27837 55674
16324 32648
2662 5325
48081 24040
1981 990
46433 23216
10091 20182
7575 15151
3222 6444
69185 34592
9912 19824
40194 20097
32860 65720
17675 8837
26413 52827
42271 21135
68354 34177
34178 68357
4897 9794
2761 1380
13797 27595
53514 26757
27718 13859
24487 48974
18159 36319
7982 3991
7294 14588
17058 34116
26551 53102
8401 4200
32788 16394
27498 54997
15773 7886
17137 8568
21360 42721
14078 28156
148 297
33786 67573
33722 67444
1272 2545
4602 9205
5431 2715
34069 68139
1572 3144
28582 57164
20093 40186
21282 10641
17100 34200
49474 24737
9153 18306
29825 14912
30440 60881
20697 41395
35412 17706
44797 22398
66976 33488
27240 13620
58631 29315
5964 2982
4775 2387
36908 18454
17898 8949
28281 14140
5503 2751
20844 10422
2029 1014
26182 52365
6080 12160
1158 579
17725 35451
38965 19482
6882 3441
35477 17738
58446 29223
20950 41901
62481 31240
29496 58992
19749 39498
3431 6862
4097 2048
31238 15619
23342 46685
17029 8514
11270 22541
18532 37064
15255 30510
35973 17986
18335 36670
36264 18132
28761 57523
7922 3961
3317 6634
17549 35099
21554 43108
19744 39489
43316 21658
29073 14536
25510 51021
4463 2231
13214 26428
16348 8174
21984 10992
10616 21233
24347 48695
18828 37656
21266 10633
20017 10008
15278 7639
9194 4597
22618 45236
12619 25238
38588 19294
67894 33947
30611 61222
1034 2069
24240 48481
28429 14214
19556 39112
19354 9677
4840 9681
30720 15360
5195 10390
17253 34507
32760 16380
2917 5834
9830 4915
14379 28758
1167 2334
12575 25150
17110 34221
11983 23966
2828 1414
53825 26912
6625 13251
8724 4362
66737 33368
19032 9516
11118 22237
1769 3539
28533 14266
56024 28012
67683 33841
59142 29571
15732 31464
23668 11834
57471 28735
68885 34442
30786 61573
15912 31825
32310 64620
56280 28140
29616 59233
2113 4227
1143 2287
38252 19126
24618 49236
38409 19204
37047 18523
60956 30478
45264 22632
28652 57304
19552 9776
6203 12406
55880 27940
23285 46570
51823 25911
36968 18484
55458 27729
26452 52905
16702 33404
17513 35027
14544 29088
34238 17119
31739 15869
27766 55533
21636 10818
18070 36141
1939 3878
4036 8072
15232 7616
554 277
19846 39693
6568 13136
62972 31486
31914 63829
5522 11045
34246 68492
29919 14959
32006 64012
62697 31348
17757 8878
23412 46825
31273 62547
20918 10459
23425 46851
6235 3117
1135 567
8444 16889
29878 59756
1841 920
20460 40920
21472 42944
16504 8252
41074 20537
42924 21462
10975 21951
19588 9794
41345 20672
41315 20657
10661 5330
53435 26717
6813 3406
17691 35382
41190 20595
62456 31228
7212 14424
14568 29136
28469 14234
25575 51150
14729 29458
43685 21842
34025 17012
17825 8912
33380 66761
16370 32740
15161 30322
36819 18409
15245 30490
5449 10898
13507 27014
2160 4320
61203 30601
14934 29869
43855 21927
29679 14839
19181 38362
63539 31769
9584 19169
14446 28892
17822 8911
14363 7181
3031 1515
57753 28876
21216 42432
32384 16192
19387 38774
17277 8638
2622 5244
50431 25215
23662 11831
18788 37576
32079 64159
61932 30966
16581 8290
24665 49330
40488 20244
10538 5269
46019 23009
26567 53135
10961 21923
3916 7833
60991 30495
22389 44778
30449 60898
16377 32754
29833 59666
42162 21081
17449 8724
25547 51094
8113 4056
19600 39200
1676 3353
31319 62639
6727 3363
50729 25364
28800 14400
18562 37124
8272 16545
57633 28816
39225 19612
25853 51706
25023 50047
64289 32144
12317 24634
64140 32070
14544 7272
597 1194
59275 29637
29856 14928
14712 29424
29941 59882
68556 34278
25142 50285
17332 34665
61767 30883
10116 20232
64351 32175
3572 7145
10795 21590
57551 28775
32972 65945
14400 7200
5343 10687
8901 4450
23709 47418
16613 8306
29970 59941
26148 52296
4331 8662
8616 17232
3035 1517
60655 30327
14756 29512
19055 38110
29129 58258
31063 15531
4333 8666
28899 57798
61534 30767
55698 27849
45534 22767
37014 18507
15712 7856
35974 17987
29962 59924
12214 24428
13506 6753
2690 1345
15526 31052
20847 41695
33718 16859
29356 58713
40602 20301
34126 68252
37713 18856
41358 20679
50323 25161
31476 62952
60083 30041
54917 27458
3400 6800
21900 43801
47629 23814
129 259
27405 54810
30992 15496
45658 22829
2848 5696
13966 27933
23252 46505
24062 48125
9578 19156
62055 31027
24424 12212
15672 7836
8491 4245
21289 42579
262 131
4577 9155
47398 23699
31570 15785
974 487
41441 20720
5023 2511
25545 51091
64797 32398
6114 3057
2686 5372
3050 1525
6567 13135
16307 32614
7395 14790
23986 11993
7149 14298
12548 25097
66115 33057
65829 32914
25047 12523
42740 21370
29971 14985
18232 36464
23567 47134
18769 37538
34022 68045
1272 636
22836 45672
3289 6579
60329 30164
20626 41252
18201 36402
22378 44756
3871 7743
20325 40651
22500 45000
3595 7191
49568 24784
51506 25753
38085 19042
2194 4389
23944 47888
46577 23288
5273 2636
11563 5781
42139 21069
45348 22674
24531 49063
29331 58662
10102 20205
25666 12833
21348 42696
26225 52450
68222 34111
59276 29638
28824 57649
58701 29350
12141 24282
23495 46990
17675 35350
9473 18946
36135 18067
23139 46279
61548 30774
56032 28016
11098 5549
34686 17343
23730 47461
55025 27512
16656 33312
34498 17249
15408 30816
3761 7522
43194 21597
16578 8289
12420 6210
33494 66988
42879 21439
54157 27078
31113 62227
61354 30677
11735 5867
10065 20131
8196 4098
3781 1890
5381 10763
44181 22090
9759 19519
33913 67826
9890 19781
28017 56035
14974 29949
2470 1235
16861 33723
266 533
29370 58740
22279 44559
28127 56255
25744 51489
66101 33050
24985 49971
42031 21015
3103 6206
25242 50484
67763 33881
48913 24456
51191 25595
42078 21039
38245 19122
38694 19347
5946 11892
55469 27734
3950 1975
47320 23660
20801 41602
14306 28612
30298 60596
10972 21945
15340 30681
39395 19697
31449 62898
52 105
32642 16321
45682 22841
4365 8731
24485 48970
19242 38484
50758 25379
34063 68126
18482 36964
13845 27690
25606 51212
9083 4541
8625 17250
1449 2899
26064 52128
1635 3271
48033 24016
60237 30118
45029 22514
48774 24387
61648 30824
17341 34683
41557 20778
17760 35521
14522 29044
18592 37184
5848 2924
32380 64760
613 306
33060 66121
66958 33479
6501 3250
29967 14983
22944 45888
4258 8516
31930 63861
6908 13817
2709 1354
3448 6897
789 1578
27248 13624
27814 55628
34639 69279
25723 51446
22328 11164
5738 11476
12064 24128
24101 48202
24990 49981
28019 56038
278 139
43905 21952
44612 22306
45451 22725
13145 26290
27306 54613
61269 30634
30068 60137
11546 23093
68955 34477
32042 16021
26618 53236
10476 20953
8260 4130
15385 7692
23505 11752
24285 48570
43696 21848
49005 24502
57433 28716
28358 14179
39920 19960
8237 16474
64828 32414
5514 2757
11510 23020
20977 41954
19061 38122
5297 10594
5192 10384
23905 47811
13826 27653
23753 11876
19340 9670
30249 60498
63680 31840
30145 60290
17669 8834
12735 25470
13069 6534
62804 31402
18682 37364
23262 11631
31802 63604
27077 54155
22559 11279
16635 8317
203 406
9414 18828
14887 29775
34164 68328
25471 50942
31029 62058
26539 53079
4749 9498
44785 22392
31926 15963
52670 26335
17077 34155
16995 33991
23494 46989
30833 61667
32227 64455
12582 25164
32174 64349
22796 45592
55425 27712
33249 66498
22725 11362
10533 5266
39401 19700
57841 28920
11910 23821
12973 6486
5998 2999
25763 12881
15266 7633
34160 17080
26253 52507
4094 8189
352 704
63683 31841
32202 64404
14602 29205
18467 9233
16131 8065
15110 7555
34361 17180
5798 2899
65076 32538
11518 23036
25988 12994
16652 8326
41332 20666
23968 47936
33775 16887
15790 7895
15789 7894
20109 40218
29989 59979
52292 26146
30325 15162
10750 5375
1218 2437
30697 61395
10667 21334
11582 5791
17341 34682
17939 8969
41709 20854
5930 2965
31170 15585
40658 20329
30247 60495
2217 1108
32550 16275
32233 64467
57073 28536
30106 60212
26184 13092
48162 24081
34190 68380
37714 18857
23339 11669
63101 31550
29180 58360
31626 63252
25436 50872
11829 23658
68761 34380
33092 66185
50063 25031
17300 8650
27868 13934
12829 25659
56565 28282
66518 33259
28091 56183
66878 33439
25863 51726
64261 32130
17716 8858
11791 23583
20942 10471
11712 5856
24889 49778
23597 11798
48911 24455
5403 2701
19243 38486
10467 20935
16247 32494
16560 33121
58339 29169
30437 60874
32299 16149
66292 33146
6504 3252
14337 7168
28097 56194
29162 58324
251 503
3284 1642
23007 46015
654 1308
31320 62641
21728 43456
19083 38167
39352 19676
957 478
4403 8807
27952 55905
55890 27945
21322 42645
26390 52781
31607 63214
5168 2584
8267 16535
23991 11995
8937 17874
33439 66879
61954 30977
43324 21662
32589 16294
9371 4685
33726 16863
33650 67300
50781 25390
33746 67493
7404 3702
35761 17880
2490 4980
12750 6375
32856 65712
27437 54874
20938 41876
49874 24937
60697 30348
40127 20063
40646 20323
28441 56882
25416 50832
8961 4480
20994 10497
4536 9072
788 1577
7165 3582
46507 23253
27737 55474
18412 9206
59143 29571
44730 22365
7345 14691
59736 29868
39845 19922
15764 31528
29701 14850
15073 7536
24972 49945
60562 30281
50174 25087
60695 30347
8720 17440
59252 29626
17597 8798
16798 33597
11485 22970
34610 69220
56939 28469
8379 16758
68616 34308
31645 15822
15020 30041
2194 1097
22082 11041
32360 64721
16861 8430
3371 1685
4932 9864
53607 26803
10937 5468
27310 54620
32084 64168
40688 20344
34922 17461
19543 39086
9386 18772
47162 23581
8360 16721
66663 33331
33844 67689
36245 18122
57198 28599
36052 18026
16734 8367
26403 52806
34106 17053
5220 2610
6914 13829
23288 11644
10993 5496
20627 41254
26672 53344
62490 31245
50491 25245
10072 20145
11124 5562
3613 1806
13611 27223
2194 4388
19851 39702
26119 52239
37907 18953
962 1924
26577 53155
27891 13945
7880 15761
52817 26408
58903 29451
14020 7010
694 1388
64183 32091
39896 19948
33947 16973
22775 11387
11924 5962
39573 19786
31556 63112
47565 23782
18240 9120
3152 6305
62517 31258
12664 25328
25586 51173
41174 20587
24999 49999
36510 18255
33072 16536
8643 17286
12608 25216
2996 5993
3172 1586
4376 8752
7640 15280
23884 47769
61000 30500
19207 38415
17749 8874
50811 25405
47766 23883
52969 26484
3364 6728
51718 25859
31723 63446
13724 27449
27498 13749
4972 2486
19969 39939
1350 2700
53732 26866
18973 9486
55928 27964
9291 18583
55094 27547
33894 67788
15814 31629
15465 30930
2495 4991
19909 9954
28912 14456
22439 11219
20631 41262
10005 20011
26329 13164
49370 24685
20990 41980
67818 33909
10728 21456
29646 59293
41922 20961
44891 22445
25027 12513
31272 15636
11215 22431
3527 1763
22948 45896
13975 6987
16078 8039
34550 17275
745 1490
62796 31398
9720 19440
5626 11252
31038 62077
33190 16595
19082 38165
9435 18870
29430 14715
3412 1706
1963 981
6547 3273
18266 36533
17026 34053
39933 19966
14040 28080
2464 4929
3996 7993
22208 44417
13954 27908
9921 19843
33536 67072
42401 21200
15781 31562
41609 20804
8764 4382
23301 46603
56659 28329
36426 18213
6501 13002
10152 20305
7397 3698
13328 26657
24748 49497
14292 7146
23505 47011
24864 49729
29475 58951
55239 27619
28043 56087
7286 3643
12758 25516
65167 32583
18937 37875
3732 7465
28925 57850
32967 16483
26239 13119
31775 63551
34166 68333
407 203
13061 6530
23539 47079
6736 3368
13667 27334
22567 45134
7338 14676
19607 39214
18232 36465
6289 12579
36077 18038
41861 20930
17728 8864
13802 27604
10518 21036
19531 9765
15013 30027
26887 13443
13008 26016
44770 22385
18776 37552
5605 11211
20329 40659
30655 61311
67550 33775
16282 32565
21248 42496
28460 56921
45757 22878
15790 31580
2818 5637
56498 28249
11121 22242
64814 32407
24448 48897
68932 34466
37085 18542
36873 18436
12599 25198
49857 24928
16754 8377
8072 16144
16309 8154
7326 14653
22568 45136
26405 52810
23021 46042
14720 29440
22305 11152
26346 52692
34521 69042
39971 19985
15733 31467
49648 24824
30745 61490
7537 15074
5947 2973
11837 23675
20526 10263
6607 13215
59380 29690
56616 28308
422 844
25061 12530
10115 5057
13077 6538
56541 28270
5311 10623
10822 21644
33072 66145
15921 31842
47062 23531
20834 41669
15277 7638
10574 21149
15250 30500
12709 25418
55691 27845
10985 5492
19800 39601
38725 19362
22928 45856
4976 9953
30951 61902
42330 21165
11941 5970
3640 7281
284 142
13130 26260
5795 11591
37431 18715
45860 22930
1653 826
15257 7628
34424 68848
18263 36526
33992 16996
1046 2093
39423 19711
60787 30393
26378 52756
25333 12666
22080 11040
55713 27856
31760 15880
26107 52214
21344 42689
7919 3959
54963 27481
28456 56913
65373 32686
8825 17650
44066 22033
1424 712
33289 66578
1344 2689
5705 2852
59724 29862
15330 30660
21979 10989
24380 48760
21931 43862
29179 14589
706 353
1963 3927
2512 5024
23430 46860
11 5
22882 11441
21459 10729
67430 33715
20470 40940
15864 7932
32567 16283
11199 5599
9487 4743
27666 55333
68601 34300
13381 26762
30692 61384
28766 57532
1787 3575
13792 27585
28930 57860
20554 41109
34593 69187
62218 31109
11433 22867
21978 43957
15227 7613
23437 46874
20779 41559
32319 64638
3452 1726
53506 26753
45343 22671
21830 43661
26616 53233
37216 18608
17632 8816
8285 4142
26557 53114
1501 3002
6576 13152
60529 30264
19285 38570
17399 34799
61638 30819
60213 30106
9718 4859
11797 5898
7326 14652
52852 26426
20667 41335
15166 30333
45181 22590
39101 19550
2952 5905
21362 42724
3055 6111
65879 32939
19484 38968
1974 3949
12830 6415
6956 13913
574 1149
39517 19758
14505 7252
785 1571
19137 38275
42335 21167
53152 26576
40065 20032
23574 11787
57897 28948
28730 57461
67127 33563
49576 24788
21837 43674
5356 10712
64158 32079
46103 23051
24437 12218
12597 25194
27425 54851
13493 26987
33492 66984
26893 53786
8473 4236
14359 28719
9645 4822
25802 51604
50113 25056
60831 30415
42884 21442
42601 21300
56875 28437
64145 32072
8301 4150
6628 13257
28068 56136
3397 6794
23062 46124
3902 7804
16272 32545
56567 28283
9715 4857
50759 25379
23965 47931
19755 39511
11520 5760
37767 18883
25435 12717
27636 55273
19936 39873
49263 24631
34572 69145
67502 33751
61806 30903
16112 8056
29009 58018
58499 29249
41191 20595
16255 32511
31434 62868
59027 29513
23085 46171
31996 63993
33987 16993
17661 8830
63764 31882
4131 8263
50216 25108
5529 11059
1017 508
22849 45698
38818 19409
28507 57014
13827 27654
60561 30280
30412 60824
20058 10029
31148 62297
55519 27759
67709 33854
34074 17037
2837 5674
5867 2933
16988 8494
3151 6302
20240 40481
7525 15051
67520 33760
4507 9014
57629 28814
35562 17781
6093 12186
20150 40300
26026 52052
29632 14816
25260 50521
9498 18996
16773 33546
24399 48799
11220 22441
21344 10672
1605 3211
63846 31923
5093 2546
29887 59774
6125 3062
13905 6952
45167 22583
52889 26444
27147 13573
26375 52750
64101 32050
16973 8486
39136 19568
22936 45873
62139 31069
2646 5292
52517 26258
9080 18161
12390 24780
64626 32313
48694 24347
53735 26867
29439 14719
23277 46555
17862 8931
7028 3514
31859 63718
1290 645
16420 32840
31702 63404
10079 20158
45802 22901
26304 13152
68943 34471
7346 14693
20468 40936
3329 6658
34289 68579
28360 14180
18631 9315
758 379
64229 32114
50641 25320
23440 46880
12186 24373
1813 3626
25329 50659
32439 64878
11683 5841
13978 6989
32376 64753
15614 31229
13603 27207
61462 30731
12665 25331
27813 55627
5517 11034
54283 27141
43063 21531
43218 21609
16280 32561
6734 3367
29827 59655
682 1364
8961 17923
33163 16581
39263 19631
44350 22175
57243 28621
40163 20081
26279 13139
5277 10555
15760 7880
17163 8581
63354 31677
13458 6729
36262 18131
27375 54750
10365 20731
20306 40612
3444 1722
35613 17806
8464 16929
12356 6178
27183 13591
21056 42112
4825 9650
32167 64334
10460 20920
6870 13741
19429 38858
47808 23904
67181 33590
52395 26197
9250 4625
20683 10341
45881 22940
56773 28386
34485 17242
67420 33710
32735 65470
2639 1319
12674 25349
11283 22566
23817 11908
22273 44547
23604 11802
20015 10007
15191 30383
4442 8884
25525 51051
68298 34149
32535 16267
20741 41482
17815 8907
29505 59011
30553 15276
57666 28833
23129 46259
14694 7347
32141 16070
16542 33084
49769 24884
12925 25850
4529 9059
5385 10770
22255 44510
52703 26351
7327 3663
35084 17542
18149 36299
23960 47920
28540 57080
2765 5530
50638 25319
26086 13043
37934 18967
49970 24985
18595 9297
1851 3702
17397 34795
18245 9122
5106 10212
51377 25688
30611 61223
12050 24100
13663 27327
16477 32955
25509 51018
45663 22831
33700 16850
5423 10846
62169 31084
21605 10802
8549 17099
18615 37230
64632 32316
33014 66029
19817 9908
31060 62121
67343 33671
31588 15794
4913 9827
24673 49346
16670 33340
7159 3579
16589 33179
14264 28529
8720 17441
65203 32601
33081 66163
20852 41705
42794 21397
32007 16003
61836 30918
30606 15303
31427 15713
25857 51714
19091 9545
32657 16328
30840 61680
21605 43211
19178 38356
32777 16388
28929 57859
6966 13932
32710 16355
33414 66829
7710 15421
28075 14037
21312 42625
16493 32987
17391 8695
29085 14542
2278 4556
27065 54130
32564 16282
32615 65231
5078 10157
33703 16851
24394 12197
725 362
10856 21713
44255 22127
19389 38778
17606 8803
14969 29938
20635 10317
25094 50189
23031 46063
25762 51525
9273 18547
34337 68674
18419 36838
26815 13407
32835 16417
34558 69116
65387 32693
27328 54656
18744 37489
7245 14491
32047 16023
21052 42105
12498 6249
41682 20841
19611 39222
36451 18225
21288 10644
3437 1718
19007 38014
17684 35368
31409 15704
4208 8417
27036 54073
33165 16582
24278 48557
8159 16319
22096 11048
30524 61049
18062 36124
30756 15378
15403 7701
10541 21082
3064 1532
17176 34352
30524 15262
347 173
12761 6380
58052 29026
33533 67066
7337 14674
1909 3818
6332 3166
27010 54021
62272 31136
11876 5938
10135 20271
6665 3332
10845 21691
12426 24852
33443 66886
14026 28052
41665 20832
30206 60412
65193 32596
12694 6347
4275 2137
23178 46356
56648 28324
6749 13498
35771 17885
3004 1502
67532 33766
12562 6281
14117 28235
453 907
1766 3533
17 8
66854 33427
8651 17302
5656 11313
54838 27419
43720 21860
14317 28634
63585 31792
12064 24129
36475 18237
5058 10117
13552 27104
12136 24273
22218 44436
26370 13185
61380 30690
33705 16852
49291 24645
2528 5057
58412 29206
11391 5695
39454 19727
24998 12499
6514 3257
53973 26986
27187 13593
14780 29560
20976 41953
49220 24610
26277 13138
22992 45984
16099 8049
21586 43173
2146 1073
37317 18658
13458 26917
33162 66325
24359 48718
20056 40113
62917 31458
17288 8644
7973 3986
4271 2135
4046 8093
1068 2136
61742 30871
4884 9769
51993 25996
26905 53811
29538 59076
55631 27815
17130 8565
16100 32200
11407 22814
5906 11812
5442 10885
1410 705
11645 23291
20034 40069
27421 13710
1828 3657
18788 37577
10668 21336
33511 16755
56631 28315
22108 44216
22461 11230
23428 11714
62824 31412
6088 12177
28475 14237
17049 8524
30615 61231
24794 12397
59761 29880
34931 17465
16489 32978
5016 2508
48738 24369
60658 30329
23965 47930
30323 60646
24335 12167
11940 23881
15512 31024
34311 17155
27261 13630
29011 58023
58689 29344
20760 10380
10612 21224
22535 11267
56995 28497
14798 29596
19852 9926
979 489
24772 49545
11828 23656
10339 20678
23507 11753
18178 36357
46056 23028
11817 23635
18795 37591
31319 15659
41884 20942
11888 23776
1002 501
8157 16315
4695 9390
3770 7540
43234 21617
31943 63886
45935 22967
2830 1415
14612 29225
28597 57195
23449 46899
34562 69124
26897 13448
27803 13901
53206 26603
23056 46113
3047 6095
3035 6070
46079 23039
5509 11019
61265 30632
63651 31825
40379 20189
36108 18054
54971 27485
15684 31369
37657 18828
56138 28069
33395 66790
21165 42331
36408 18204
43339 21669
16081 32163
28432 14216
36702 18351
10390 20780
32498 64996
26439 52878
60198 30099
11579 23159
6629 3314
51002 25501
24107 48214
61064 30532
7040 3520
8582 17164
46668 23334
26942 53884
30147 60295
59265 29632
41193 20596
32138 64276
26770 13385
36167 18083
10729 5364
5193 10386
15779 31558
887 1775
25601 51202
32712 65425
47904 23952
25567 51134
55596 27798
17220 8610
21275 42551
18678 37357
30659 61319
5169 10338
62608 31304
2727 5454
65442 32721
5727 11454
6928 13857
29507 14753
5161 10322
4646 9293
25399 50798
34306 17153
27668 55337
33736 16868
40020 20010
8201 16403
45455 22727
5360 10720
55931 27965
19056 38113
24416 48833
22593 45186
64695 32347
15704 31408
28613 14306
66908 33454
36276 18138
54798 27399
34561 69123
34124 68249
52115 26057
7757 15515
65721 32860
32988 16494
5217 10435
18169 36338
9428 18857
15479 30958
32602 65205
42290 21145
51148 25574
39984 19992
21607 43215
66548 33274
10777 21555
30136 60272
63231 31615
24419 48839
26743 53487
10328 5164
9111 18222
52149 26074
59319 29659
66826 33413
2584 5169
1230 2460
32155 64310
61200 30600
49758 24879
4152 2076
3409 6818
13955 27911
24069 48139
9147 4573
23087 46174
42857 21428
20584 41169
67650 33825
20629 41258
11477 22954
33018 16509
31923 63847
44968 22484
15610 31220
23582 47165
32561 65123
14391 28782
21125 10562
24476 48952
28635 57271
30306 15153
8008 4004
59690 29845
11980 23961
17279 8639
45599 22799
68454 34227
16777 33555
5120 10240
28167 56334
56738 28369
6579 13158
3997 7994
11524 23049
29741 59483
66495 33247
2568 1284
14967 29934
33994 16997
28289 14144
10026 20052
27095 54190
6165 12331
782 1565
28499 56998
39639 19819
4243 8486
33408 66816
29626 14813
55823 27911
1501 750
66923 33461
21542 10771
6541 13082
24907 49815
14670 29341
5560 2780
41996 20998
34413 68826
6515 13030
27432 54864
28284 56568
29385 58771
14519 7259
66611 33305
24846 12423
15151 30302
18004 36009
41212 20606
45800 22900
4213 2106
2472 4945
32094 16047
26649 53298
63401 31700
19742 9871
24013 48026
67154 33577
40 80
3775 7551
1987 3975
2180 4361
55673 27836
49756 24878
51984 25992
31197 62394
521 1043
52598 26299
20187 40375
2842 5684
68359 34179
2249 4499
31500 63000
34322 68644
35532 17766
21971 43942
38738 19369
30723 61447
51136 25568
17212 8606
2220 1110
20878 41757
25672 51345
16462 32924
41344 20672
31121 62242
59923 29961
44526 22263
17685 35371
38758 19379
39936 19968
1543 3086
39605 19802
12193 6096
44614 22307
32288 64577
10417 20835
37878 18939
14397 7198
53301 26650
3649 1824
58183 29091
23478 11739
412 206
37480 18740
64881 32440
34648 69297
59632 29816
19199 9599
68772 34386
12328 6164
4524 2262
19304 38608
26957 53915
18113 36227
47674 23837
14937 29874
18816 9408
55912 27956
9882 19764
69298 34649
31504 63008
22364 44728
5665 11330
1895 947
4518 2259
2883 5766
44237 22118
19679 9839
33656 67313
63810 31905
21764 43529
54251 27125
41436 20718
54716 27358
6395 12790
34606 17303
11378 22756
21890 43781
55045 27522
36594 18297
26357 52715
62921 31460
24436 12218
23663 47326
19350 38701
11153 5576
20992 41985
6442 3221
36441 18220
17277 34554
17753 35507
37778 18889
39661 19830
43148 21574
16417 32834
55331 27665
14747 7373
12497 24994
36731 18365
27010 13505
43362 21681
29150 14575
29117 14558
60113 30056
19371 9685
11473 22946
25656 51312
22507 45015
15700 7850
474 237
7652 15305
68468 34234
11491 22982
24774 49549
26317 52634
20040 40081
18675 9337
56920 28460
592 296
27374 13687
21975 10987
30567 61135
14185 28371
1375 2750
4812 2406
24852 49704
9588 19177
10385 20771
22303 11151
6279 3139
9945 19891
27446 13723
26079 13039
18782 37565
22370 44740
35804 17902
62066 31033
21889 43778
32482 16241
3005 6011
31627 63255
19560 39121
33864 16932
31991 63983
29001 58003
30396 15198
67581 33790
28704 14352
25750 51500
1794 897
23578 47156
27031 54063
2509 5018
68381 34190
11307 22615
22560 45120
16957 33915
16859 8429
2007 4014
27034 54069
27514 55028
21688 10844
53982 26991
51662 25831
5207 2603
9301 4650
5172 10344
49098 24549
31962 63924
53261 26630
39607 19803
31000 62000
20629 41259
1130 2260
8702 4351
67887 33943
63726 31863
16930 8465
13031 6515
52264 26132
59003 29501
586 1173
32899 16449
62707 31353
24586 49173
4988 9977
20797 41594
50571 25285
26548 13274
1235 617
25503 51006
31881 15940
17784 35569
33714 67429
33461 66922
13307 26614
35834 17917
7546 3773
7127 3563
34306 68612
21935 10967
16694 8347
3681 1840
41570 20785
50183 25091
53111 26555
3765 7531
33713 67426
20413 40827
49038 24519
6794 13588
2274 1137
33756 67513
15734 31468
49640 24820
62575 31287
35670 17835
17337 34675
17413 8706
38568 19284
28266 56533
24521 12260
2851 5702
51873 25936
26923 13461
2717 1358
3998 1999
32369 64738
30596 61193
3194 6388
23500 47000
61642 30821
11216 5608
11568 5784
24079 48159
66724 33362
45059 22529
46853 23426
309 619
54911 27455
22071 11035
136 68
5755 2877
37490 18745
48064 24032
43499 21749
24552 49104
24688 49377
17240 34481
53948 26974
27706 55413
31134 62269
12283 24566
22382 11191
21873 10936
10382 20765
13720 6860
7854 15708
27758 55517
40501 20250
24652 12326
2168 4337
220 440
31240 15620
45782 22891
31618 15809
19837 39675
8900 4450
35010 17505
7317 3658
12718 25436
5288 2644
3918 7836
15436 30873
25349 50699
51520 25760
28708 14354
59401 29700
19004 38009
15674 31348
29717 59434
24845 49691
61328 30664
64097 32048
30206 15103
34262 68524
59462 29731
16772 8386
41049 20524
6590 3295
12585 25170
61710 30855
18322 36644
1630 3260
27193 13596
14069 28138
64405 32202
53887 26943
6692 13384
13264 26528
23713 47426
34363 68727
33282 66565
26771 53543
26226 13113
6555 13110
49651 24825
16243 32487
44841 22420
19430 38860
55179 27589
22364 44729
1598 3196
30895 61790
18078 36157
23978 11989
8515 17031
29507 59015
19281 38562
34168 68337
11653 23306
42686 21343
14890 29781
13627 6813
19314 38629
9532 19064
51503 25751
8768 17537
38556 19278
49759 24879
4988 2494
40560 20280
13479 26959
13161 26323
61177 30588
25412 12706
26763 13381
8152 16305
59954 29977
22036 11018
44999 22499
11362 5681
27731 55463
31848 63697
24586 12293
33357 66715
9324 18648
14344 28689
30656 61312
5994 2997
27355 54711
23885 47771
36166 18083
5305 10611
56560 28280
58366 29183
63721 31860
11001 22003
3242 6484
33533 67067
28287 14143
46748 23374
55368 27684
21479 42958
49973 24986
5834 11668
23916 47832
7068 14137
12762 25525
43818 21909
26565 53131
42703 21351
60789 30394
56096 28048
16087 8043
35331 17665
15872 31745
17945 35890
556 1113
732 366
19317 38635
13482 26964
24940 49880
20869 41738
10959 21918
2146 4292
53714 26857
61517 30758
12104 6052
36910 18455
1746 873
15226 30453
20431 10215
45192 22596
55459 27729
15597 31195
158 79
17617 35235
31617 63234
7361 14722
46449 23224
34952 17476
16956 33913
40286 20143
37823 18911
4463 8926
32255 16127
25739 12869
7758 15516
16471 8235
9838 19676
8447 16895
24561 12280
38221 19110
32068 64137
3604 7208
58299 29149
32354 64709
28893 57786
19967 39934
26503 53007
19140 38281
24665 12332
3148 1574
4899 9798
121 242
51452 25726
28277 56555
13551 27102
63835 31917
13818 6909
17771 35543
819 409
11929 23859
24140 48281
68801 34400
4175 2087
27420 54840
499 998
37181 18590
33811 16905
23479 46959
24255 48510
16497 32994
12836 25673
25785 51570
27790 13895
26353 52706
44275 22137
12979 25958
21385 42770
21732 43464
15601 31202
12077 24155
28379 56758
30055 60111
20601 41203
47568 23784
47142 23571
53530 26765
2329 4658
29501 59002
1960 980
6639 13279
32803 65607
26456 52913
1920 960
28496 14248
43872 21936
56398 28199
38469 19234
61386 30693
23642 11821
66213 33106
31945 63891
9865 19731
49260 24630
22271 44543
15731 31462
3874 7748
21980 43961
7561 15122
29283 58566
41455 20727
4361 8723
30275 60551
7961 15923
20730 41460
17183 8591
17266 34532
49581 24790
49714 24857
4668 9337
17092 34185
20645 10322
14699 29398
31856 63712
55165 27582
22683 45367
48459 24229
8114 16229
31173 15586
4654 2327
58425 29212
9089 18179
8648 4324
2869 5738
4104 8209
9199 18399
43710 21855
43286 21643
62956 31478
2581 5163
10379 20758
11393 22787
6929 13859
20185 40371
3886 1943
29546 59093
4961 9922
18926 37852
4326 2163
9413 18826
5204 2602
22237 44475
7234 3617
60854 30427
1500 3000
13947 6973
15529 31058
35320 17660
22601 11300
63550 31775
17128 8564
25365 12682
4724 9449
27690 55381
61010 30505
19403 9701
13013 6506
13823 27647
16396 32793
55145 27572
11596 23193
22571 45143
1757 878
8186 16373
13845 6922
21878 43756
1805 3610
9345 18690
9721 19442
7148 14296
63158 31579
2324 4649
2885 1442
26796 53592
4398 2199
10248 20497
23108 11554
3048 1524
27578 13789
9246 18493
32133 16066
2972 5944
5998 11996
6201 3100
30950 61901
19006 38013
26710 53421
16792 33585
24701 12350
51509 25754
27233 54466
20822 10411
1378 2757
33197 66395
66775 33387
9054 18108
10857 5428
9602 19205
4949 9899
16121 8060
28590 57180
62334 31167
16160 32321
30358 60717
26194 52388
14043 28087
38099 19049
19443 38887
844 1688
55771 27885
5767 11535
12735 25471
25299 50599
32523 16261
43924 21962
16947 33895
25181 50362
18240 36481
36855 18427
26406 52813
51374 25687
56065 28032
65023 32511
28457 56915
16510 33020
17183 34366
32429 64859
10087 20174
23726 47453
8784 4392
19636 39272
34010 68020
800 400
25350 50701
68408 34204
59706 29853
33485 66970
28501 14250
12916 25833
1056 2112
24228 48457
17346 8673
64124 32062
13490 26981
57635 28817
13921 6960
34089 68178
48449 24224
27306 54612
30728 61456
17839 35679
24980 49961
18252 36504
25167 12583
17641 8820
68665 34332
19290 38581
27904 13952
18432 36864
50411 25205
32908 16454
2219 1109
33108 16554
49067 24533
32082 64165
28307 14153
16014 8007
31717 63435
68972 34486
63191 31595
8930 17860
32843 65686
14389 28779
59608 29804
5770 11541
13524 27048
2240 4481
25404 12702
4505 9011
9969 19939
61978 30989
63573 31786
23295 46591
24159 12079
11049 22098
43078 21539
35135 17567
1887 3775
84 169
23806 11903
34763 17381
34206 68413
44402 22201
36579 18289
18444 36888
49503 24751
20731 41462
33670 67341
36026 18013
53003 26501
31680 15840
33257 66514
58181 29090
24158 48316
16854 33709
46895 23447
27064 13532
14960 7480
63996 31998
28779 57558
9966 19933
19047 38094
52930 26465
37281 18640
20570 41141
61976 30988
15879 7939
19824 39649
30452 60905
68945 34472
11495 22991
31812 63625
34736 17368
11229 22459
51059 25529
13741 27482
20556 41113
24254 12127
53227 26613
35446 17723
18696 9348
22650 45301
27576 55153
6992 13984
38178 19089
24987 49974
49932 24966
33230 66460
33891 16945
41554 20777
18522 37045
19622 39245
58626 29313
51093 25546
3506 1753
20838 41677
34383 68766
53856 26928
3670 1835
15204 30408
35612 17806
327 654
12789 25579
52816 26408
8310 16620
24842 49684
43037 21518
19214 9607
53408 26704
5626 11253
52034 26017
34468 68936
34480 17240
65089 32544
17986 35972
3078 6156
29672 59345
33524 67048
815 1631
58064 29032
27688 55376
60930 30465
775 387
5520 11041
27780 13890
29042 58084
22875 45751
47067 23533
2836 1418
12028 6014
13028 26056
23743 11871
37569 18784
28672 57345
40349 20174
35356 17678
7527 15055
38558 19279
49167 24583
185 371
3036 6072
63775 31887
10618 21237
15076 30152
31702 15851
15469 30939
25046 50092
41164 20582
10492 5246
29955 59911
13983 6991
3204 1602
3831 7662
12588 25177
59001 29500
47646 23823
27746 55493
12200 24401
29191 58382
29252 14626
40621 20310
8780 17560
11593 23186
20316 40633
49551 24775
14421 28843
3170 1585
56767 28383
36305 18152
10869 21738
12894 25789
31082 62165
20270 40540
31708 15854
4069 8139
24425 48850
24570 49141
21582 10791
67107 33553
46611 23305
26693 13346
64752 32376
33817 67635
21983 10991
10147 20295
2151 4303
19403 38806
3856 7713
52228 26114
51606 25803
17486 8743
2116 1058
56084 28042
10665 21331
22962 45924
33894 67789
40626 20313
51251 25625
6624 13249
45562 22781
30605 61211
6101 12202
23458 11729
39969 19984
61537 30768
13468 26937
14981 29963
18306 36612
46035 23017
36169 18084
32931 65863
33449 66898
11158 22316
15231 30463
8654 4327
42189 21094
14575 29151
40754 20377
62613 31306
9866 4933
28339 56679
26860 53721
9242 4621
11336 5668
35537 17768
16624 33249
30477 60954
17118 34236
18522 9261
2614 1307
28849 57699
36230 18115
18104 36209
7754 3877
24312 12156
3274 6549
43377 21688
5792 2896
61538 30769
5494 10988
16849 33698
26976 53952
26437 52874
22333 44666
7600 3800
3985 7970
42688 21344
21783 43566
11125 5562
22325 44651
2149 1074
42930 21465
23426 46852
14417 28835
16171 8085
11463 5731
28266 56532
3385 6771
49083 24541
32367 64734
26462 52924
12631 25263
43755 21877
26136 52273
24892 12446
33760 67521
26683 53367
6315 12630
49400 24700
16191 32382
12121 24243
4829 9658
56971 28485
21267 42535
23704 11852
7205 14411
7808 3904
2608 5216
29542 59084
58162 29081
25400 50801
61420 30710
62153 31076
25444 50889
58804 29402
8127 16254
12088 6044
60031 30015
33872 16936
23062 11531
5487 10975
1460 2920
39560 19780
61962 30981
9461 4730
48321 24160
45153 22576
65799 32899
26142 52284
16434 32868
11395 22791
41976 20988
34996 17498
59124 29562
12564 25129
29063 58126
11907 23815
6832 3416
53777 26888
42881 21440
42232 21116
19158 9579
28518 57037
30226 60453
6559 3279
3781 7563
5725 11450
9510 19020
45248 22624
24086 48173
32420 64841
45008 22504
16992 8496
173 86
61242 30621
3983 7967
62311 31155
25916 51833
9920 4960
32191 64383
31098 62197
7066 3533
55441 27720
42231 21115
15823 31646
28026 14013
65250 32625
31947 63894
18107 36214
23647 11823
30530 61060
35703 17851
22654 45308
12172 6086
9140 18280
19632 9816
22483 44966
17301 8650
4908 2454
6495 12991
34057 17028
66107 33053
16949 8474
53232 26616
30502 15251
11475 5737
66435 33217
32999 16499
47925 23962
4377 8754
6469 12939
61136 30568
30742 15371
20929 41858
15976 31953
54447 27223
45243 22621
7233 14466
14271 28542
19806 9903
1109 554
42429 21214
18743 37487
8427 16855
33133 16566
1278 2557
48079 24039
12941 25883
64884 32442
60248 30124
28171 56343
32490 16245
24198 12099
29703 14851
9303 18606
5870 11741
13592 6796
15220 30441
9647 19294
15560 31121
8829 17658
43663 21831
11674 23348
32555 16277
68649 34324
13588 27176
23305 46610
20216 40432
4963 9927
25488 50976
28023 14011
24382 48765
20905 10452
29366 58732
11088 22176
12485 24970
3397 1698
43919 21959
29520 59041
69106 34553
32431 64863
40759 20379
26817 53635
9825 4912
15501 31002
38878 19439
13831 27662
15114 7557
48588 24294
33928 16964
45734 22867
27023 13511
26088 52177
69296 34648
20315 10157
43432 21716
15636 31273
8858 17717
23804 47608
20003 40006
34435 68871
2979 1489
21339 10669
49311 24655
33724 67449
35659 17829
23841 47683
19484 38969
725 1450
3356 1678
63906 31953
66070 33035
62166 31083
10596 21192
24010 48021
13891 27782
15259 7629
49396 24698
64386 32193
436 218
3079 1539
11743 5871
12623 6311
35210 17605
45958 22979
65363 32681
391 783
48615 24307
4563 9126
15793 7896
58049 29024
15495 30990
30728 15364
19401 38803
59681 29840
32934 65868
17976 35952
4338 8677
55803 27901
19404 38809
23360 46721
6615 13231
17162 8581
13567 27134
59365 29682
17052 8526
50143 25071
326 652
12087 24174
8902 17804
40869 20434
49866 24933
42510 21255
39546 19773
25838 51677
17626 35253
53763 26881
7485 3742
15230 7615
63512 31756
4937 9875
6508 3254
68726 34363
3642 7284
9850 19701
23626 11813
37582 18791
63035 31517
58577 29288
28887 57775
18090 36181
55109 27554
9416 4708
30475 15237
8134 4067
29283 58567
49426 24713
17166 8583
61880 30940
4914 9828
7399 14799
55977 27988
12556 25113
15877 7938
39439 19719
64885 32442
27452 54904
26588 13294
4075 8151
19350 9675
63586 31793
18548 37097
11480 22960
58262 29131
42484 21242
17811 8905
28877 14438
11387 5693
5178 10357
15747 31494
2262 1131
28791 57583
30304 60608
4937 9874
12220 24441
21164 42329
27700 55400
4939 9878
26852 53705
8003 16006
22150 44300
25105 12552
18622 37244
23924 11962
42376 21188
20114 40228
63552 31776
16770 33541
59801 29900
18058 36116
39419 19709
52921 26460
41058 20529
1898 3797
20342 40685
22530 45061
19122 9561
36790 18395
17590 35181
32458 64916
34578 17289
23771 11885
65972 32986
12277 6138
31537 63075
32707 16353
10646 21292
3724 7449
1487 2974
20677 41354
33243 16621
56717 28358
15062 7531
45575 22787
24501 49002
12805 25611
20418 40837
29502 14751
60492 30246
3105 6211
5068 10136
14447 7223
36317 18158
12254 6127
7530 15061
42213 21106
23622 47244
22968 45936
9164 18328
21901 10950
16009 8004
17352 8676
17195 8597
66568 33284
2105 4211
32569 16284
19980 39961
19073 9536
32993 16496
6499 12999
18570 37140
40422 20211
1669 3338
34277 68554
8071 16143
53201 26600
18950 37900
22269 11134
13041 6520
30641 61282
15938 31877
21159 42319
17663 8831
68390 34195
53202 26601
17046 8523
24855 49710
5955 11911
30658 15329
19414 38828
51248 25624
41818 20909
26205 13102
53256 26628
12495 24991
46206 23103
31213 15606
19005 9502
32838 65676
14142 28284
38793 19396
17317 8658
7657 3828
38199 19099
5878 11757
23709 11854
34425 68851
24084 48168
18888 37777
67560 33780
27083 54167
68918 34459
3106 1553
16199 32398
60581 30290
29395 58791
34534 17267
15692 7846
12494 24989
11936 5968
1168 2336
11948 23897
1784 892
46538 23269
17802 35605
14575 7287
29569 59139
39440 19720
3969 7938
30328 60656
63291 31645
488 976
62889 31444
6712 3356
64556 32278
30823 61646
29298 58597
2018 1009
25586 51172
3821 7643
33011 66022
5700 11400
3041 6083
18642 37284
28776 57553
50733 25366
18508 37017
15016 7508
33220 66441
56424 28212
23540 47080
5515 2757
13514 27028
13875 27751
60612 30306
62753 31376
35096 17548
853 426
11559 23118
10368 20737
36605 18302
32116 64232
55853 27926
31772 63544
28616 57232
14387 7193
21188 42377
15603 31206
66786 33393
34956 17478
16941 8470
62815 31407
15556 31113
20519 10259
6230 3115
31906 63813
10867 21735
8713 17427
24472 48945
46337 23168
28028 56056
32517 65035
62016 31008
56504 28252
45694 22847
44582 22291
1600 3200
36212 18106
54553 27276
33140 16570
19681 39363
62116 31058
18282 36564
28502 57004
33974 16987
19761 39523
5731 2865
65940 32970
8199 16398
975 1951
4383 8767
17971 35942
26454 52909
10531 21063
9946 19892
23414 11707
40580 20290
35408 17704
874 1748
57177 28588
19408 38816
5587 11174
43790 21895
12169 6084
22501 11250
10003 20007
68353 34176
8721 4360
25433 12716
36600 18300
10340 20680
65165 32582
42710 21355
7972 3986
6107 12214
33386 16693
37551 18775
23606 47212
25375 50751
63193 31596
13707 6853
28627 14313
64463 32231
15811 7905
26916 13458
6260 3130
26832 13416
40721 20360
64465 32232
17087 34175
7666 15333
17760 35520
18491 9245
19954 39909
32789 16394
4901 2450
36153 18076
32276 16138
54006 27003
20335 10167
30264 15132
31949 63899
3799 7599
996 1992
6292 12584
4497 8995
30981 61963
21934 43869
27470 13735
2321 4642
21717 43434
4636 2318
90 45
59064 29532
1554 3109
5735 11471
46878 23439
30270 60541
63611 31805
16104 32209
46312 23156
14005 28010
2488 4977
50788 25394
24132 48265
46633 23316
45768 22884
28213 14106
13200 26401
29054 58108
40123 20061
10789 21579
26544 13272
12205 24410
17400 34800
30267 60534
25504 12752
12316 6158
14256 7128
60823 30411
9677 4838
16690 8345
23729 47459
10377 5188
7818 15637
10791 5395
55408 27704
4624 9249
31902 63805
39563 19781
29637 14818
22370 44741
65572 32786
45885 22942
31665 63330
57260 28630
13368 6684
39026 19513
23987 47975
8039 16079
63548 31774
58163 29081
32785 65571
45678 22839
36005 18002
59194 29597
22394 11197
16549 8274
555 1110
28422 14211
28341 56682
56452 28226
10330 20660
16229 32458
25869 51739
17926 35852
12696 25392
25732 51465
5248 10497
50459 25229
42985 21492
20399 40799
61125 30562
24029 48059
66226 33113
6767 3383
42984 21492
15614 31228
34139 68278
52369 26184
13703 27407
29885 59771
20186 40373
12968 25937
46594 23297
58512 29256
66613 33306
1793 896
3798 7596
63986 31993
16388 32776
17946 8973
2643 5286
20433 40866
33491 66983
24249 12124
18540 9270
29079 58158
26457 52915
42301 21150
12676 25352
42825 21412
139 279
23140 46281
27678 55357
27128 13564
22000 44000
2960 5921
15177 30355
13700 6850
48149 24074
17211 8605
14692 29385
48294 24147
32870 16435
26847 53694
46412 23206
33666 67332
50804 25402
20860 10430
7595 15190
19627 9813
58254 29127
5657 11314
5679 11358
13032 26065
47675 23837
27130 54261
882 441
64485 32242
32015 64030
10188 20377
12045 6022
11360 22720
64491 32245
21633 43267
17387 8693
22282 44565
24242 48484
33565 67131
30984 61968
26133 52266
7453 14906
13506 27013
6431 12862
29882 14941
10274 20549
22583 11291
66516 33258
11717 23435
25622 51244
21513 43026
62734 31367
10761 21522
27055 54111
49525 24762
42279 21139
26799 53598
18292 36584
25160 12580
30046 15023
11425 22850
28733 57467
57200 28600
2550 1275
64922 32461
66861 33430
20530 41060
50168 25084
29062 14531
32502 65005
64473 32236
3801 7603
63379 31689
16364 32728
9820 19640
48808 24404
59878 29939
22234 44468
20870 41741
29148 14574
23671 47343
46242 23121
3938 7876
19891 39783
69165 34582
61173 30586
25159 50319
24854 49709
16284 32568
11688 23376
13375 26751
40967 20483
48734 24367
6545 13090
13466 26932
10985 21970
15540 31080
19832 9916
864 432
32597 16298
57822 28911
2944 1472
32374 64748
26963 53927
38104 19052
9459 4729
26867 53734
60398 30199
8319 4159
34212 17106
53673 26836
67714 33857
55695 27847
46254 23127
20332 10166
24280 12140
43806 21903
42623 21311
27140 54280
55309 27654
22120 11060
17715 35431
10009 5004
34519 69039
55468 27734
16781 33562
58850 29425
53866 26933
45188 22594
34253 68507
13506 27012
29147 58294
12113 6056
11583 23167
25219 50439
14268 7134
6554 13108
17093 34187
2835 5671
27121 54243
6971 3485
27987 55975
15359 7679
19140 9570
44026 22013
67776 33888
53087 26543
48353 24176
31779 15889
49230 24615
8414 16828
16386 8193
26771 13385
31688 63376
52986 26493
54496 27248
67169 33584
57667 28833
46720 23360
23813 47626
24250 48500
47277 23638
35789 17894
65768 32884
30154 60308
28227 56454
27495 13747
6566 13132
7754 15509
28476 14238
9301 18603
44314 22157
199 99
94 189
10755 21510
16007 32014
45044 22522
9963 4981
16740 33481
14708 29416
6034 12069
11170 22341
55180 27590
18752 37505
16347 32694
35715 17857
21978 43956
26885 13442
12929 6464
18546 37093
14353 28706
20442 40884
25875 51750
27553 55106
32061 64122
20422 10211
46553 23276
31666 15833
52821 26410
49000 24500
59672 29836
15671 31343
29928 59856
9482 18965
16117 32234
19525 39050
30595 61191
16235 32470
31723 63447
58053 29026
62393 31196
62955 31477
60393 30196
50388 25194
12142 24285
21071 42143
66499 33249
49657 24828
21751 10875
8883 4441
10352 5176
19318 38636
19899 39798
32849 65699
54299 27149
22715 45431
28166 56333
42138 21069
25576 51152
32445 64890
15924 31848
64196 32098
13981 27962
36755 18377
68223 34111
62037 31018
34123 68246
12368 6184
56630 28315
38750 19375
41626 20813
19055 38111
9469 18938
38689 19344
21672 10836
25576 51153
8435 16871
14002 28005
23016 11508
45449 22724
15542 31085
27081 13540
31080 62161
43501 21750
28962 14481
46276 23138
29244 14622
5775 11550
14947 29894
59813 29906
9310 18620
49119 24559
58448 29224
27953 13976
2031 4063
18928 37857
21524 10762
7185 14371
32196 64393
59028 29514
24137 12068
12076 6038
33565 16782
8599 4299
7204 14408
53793 26896
26772 13386
33497 16748
36244 18122
40512 20256
27353 54707
21513 10756
31752 15876
29634 14817
27663 55327
14088 7044
28161 14080
56329 28164
1067 2134
20654 10327
34444 68889
36887 18443
21107 10553
3230 6460
4655 2327
68431 34215
7980 15960
48297 24148
3333 1666
51476 25738
66612 33306
25128 12564
3799 1899
2422 4844
4105 8211
7554 15109
28250 14125
24358 12179
13165 6582
33020 66041
999 1999
53141 26570
57184 28592
10612 21225
42142 21071
14247 7123
33139 66278
30959 15479
64917 32458
23255 46511
14393 28787
1876 3752
5553 11107
28214 56429
30531 61063
30270 15135
1470 2940
24725 12362
14377 28755
4211 8422
59971 29985
2261 4522
32054 64108
31197 15598
15827 31654
31700 15850
19315 38630
15271 7635
16002 32005
43245 21622
34102 68204
29071 58143
7528 15056
11492 22984
5929 11858
36771 18385
22494 11247
13226 6613
47091 23545
15725 31450
28534 14267
15539 7769
55472 27736
20800 10400
49351 24675
38154 19077
5596 11193
13808 27617
8986 17973
17066 34132
18294 9147
36688 18344
28147 56295
65412 32706
39752 19876
22802 45604
26343 52686
6801 13603
31013 62027
18165 9082
40609 20304
12489 24978
17632 35265
17810 8905
11521 23042
9238 18476
16926 33853
15070 30141
22193 44386
23634 47268
9115 18230
66225 33112
17359 34719
19514 39029
22408 44817
2514 1257
64702 32351
10460 5230
20903 10451
23891 11945
31166 62332
44835 22417
15532 31065
30902 15451
15970 31940
14022 7011
66882 33441
38995 19497
16705 8352
42500 21250
47035 23517
62211 31105
55918 27959
58894 29447
40647 20323
13791 27583
23326 46653
33934 67869
35619 17809
32687 65374
37936 18968
24070 48141
28053 14026
29572 14786
24166 48332
51879 25939
15241 7620
34151 68303
67993 33996
1034 517
33098 66196
5540 11080
49565 24782
26140 13070
47851 23925
12884 25769
44865 22432
29155 58311
40497 20248
9901 19803
12922 25845
22340 11170
1046 523
34157 68315
17627 35254
21005 42011
59653 29826
23897 47795
29859 14929
18523 37046
33362 16681
24772 12386
44488 22244
13249 26499
27065 54131
12638 6319
55166 27583
21273 10636
32524 65049
22768 11384
24182 48364
19030 38060
4024 2012
14536 29072
22466 11233
6287 12575
17252 34504
25185 12592
29814 59628
61644 30822
1854 3708
14310 7155
19312 9656
32801 65603
5484 10969
25500 51001
41305 20652
55762 27881
66234 33117
12890 25780
33438 16719
32407 64815
68785 34392
26226 52452
6142 12285
2808 1404
14816 7408
6548 3274
2007 4015
6226 12452
6216 12433
16796 8398
22968 45937
30625 15312
19919 9959
64311 32155
755 377
10480 5240
55407 27703
57683 28841
22769 45538
38144 19072
14975 7487
67754 33877
56734 28367
50325 25162
18465 9232
62852 31426
49780 24890
3658 7316
26324 52648
474 948
11319 5659
27086 54173
30067 15033
19887 39775
66031 33015
57395 28697
4855 2427
28857 57715
26728 13364
27872 13936
53091 26545
67149 33574
18587 9293
21230 42460
68111 34055
16081 8040
62330 31165
53605 26802
32819 65638
12036 6018
21314 42628
2300 4600
20430 40860
2742 5485
34330 68661
23788 11894
22107 44214
11321 22643
18453 36906
22298 44596
2026 4053
14062 28125
21742 43485
35390 17695
68688 34344
6079 12159
59957 29978
17470 34941
67293 33646
14852 29704
1528 764
67147 33573
9317 18634
58127 29063
8317 16634
13544 27088
21110 10555
8292 16584
12342 24684
32521 65042
30397 60795
19216 38432
28763 57526
54895 27447
2235 4470
13990 27981
26223 13111
37801 18900
25293 50586
21999 43998
16163 32327
1799 899
22587 45175
44326 22163
20802 41605
44277 22138
31386 62773
5030 10061
47685 23842
33826 16913
13517 27035
42660 21330
1357 2715
1105 2210
11771 5885
52197 26098
23932 11966
2252 4504
10548 21097
4285 2142
56954 28477
42428 21214
5379 10759
33043 66087
1837 3675
23669 47338
178 357
41965 20982
10306 20613
33552 67104
31214 62429
24246 48492
43403 21701
4411 2205
46667 23333
47857 23928
50831 25415
33811 67622
17475 34951
3927 7854
32437 16218
48629 24314
4553 9107
29118 14559
3903 1951
28277 56554
15322 30645
39207 19603
29774 14887
31492 15746
67323 33661
33128 66257
12426 6213
14935 7467
18403 9201
26902 13451
45454 22727
9941 4970
30461 60922
2805 1402
18699 37399
30306 60613
64264 32132
18896 37792
1304 652
34600 17300
7124 3562
43413 21706
31992 63985
7329 14659
5457 10915
15759 31518
2202 1101
15085 7542
25694 51389
49837 24918
30544 61088
42635 21317
58171 29085
15796 7898
30263 60527
7345 14690
14826 29653
12547 25094
31511 63022
2065 4131
33592 67185
30572 15286
32102 64205
20667 41334
48691 24345
12008 24017
14623 29247
38991 19495
144 288
48005 24002
33463 16731
33167 66334
64104 32052
4655 9311
9007 18014
18123 9061
8814 17629
56564 28282
33462 66925
33603 67206
30157 60314
32353 16176
68639 34319
13200 6600
10966 21933
14229 28458
22834 11417
6094 12188
21776 43553
29161 58323
5657 2828
12801 6400
40614 20307
10686 5343
55734 27867
21778 43557
11237 5618
20085 10042
26424 13212
64727 32363
8870 17741
3206 6413
60383 30191
62063 31031
8533 17067
4920 9840
1220 2441
17871 35742
43107 21553
7222 14445
10375 20751
38258 19129
41515 20757
46235 23117
7789 15578
29660 59320
12044 6022
3650 1825
4385 8771
7300 14600
19775 9887
5159 10319
66744 33372
25135 50270
18658 9329
4536 9073
22880 45761
64431 32215
24813 49626
31833 63666
63564 31782
49558 24779
28731 57462
61363 30681
30 15
13589 6794
33488 66977
15911 31822
425 851
25480 12740
47151 23575
13795 27591
23324 46649
1183 591
27748 55496
65954 32977
52694 26347
32317 64634
20897 10448
28510 14255
7887 3943
14097 7048
39100 19550
15772 31545
19445 38890
24801 49602
17991 35982
55292 27646
8746 17492
42866 21433
1936 3872
3049 6099
15053 30107
1557 778
22561 45123
1709 3419
44371 22185
36407 18203
10779 21558
25818 51636
33172 16586
28506 57012
10860 21720
27805 55611
22528 11264
1804 3609
60256 30128
33896 16948
18145 36291
14257 7128
11974 23949
13050 6525
22388 44776
8643 17287
45075 22537
15028 30056
18476 36952
2147 1073
36406 18203
33472 16736
1933 966
38578 19289
66735 33367
24705 49411
25900 12950
50277 25138
9612 19225
7935 15870
17006 34013
13131 26263
44437 22218
55252 27626
59677 29838
15951 7975
24745 49490
14369 28738
13286 6643
38531 19265
33298 66596
14063 28127
48672 24336
66202 33101
63677 31838
20222 10111
69014 34507
27217 13608
46160 23080
66989 33494
49409 24704
14364 28729
28107 56215
16136 8068
6034 12068
5133 2566
43444 21722
33714 67428
15781 7890
64839 32419
24093 12046
22355 11177
64762 32381
31108 15554
3617 1808
22513 45027
5056 10112
1544 3088
10058 20117
12491 24982
27153 54306
54989 27494
21983 43967
4213 8427
61260 30630
13624 27249
62932 31466
47054 23527
22361 44723
18079 36159
2690 5380
32447 16223
62402 31201
13232 6616
3544 1772
29033 58066
12387 6193
33153 66306
69046 34523
1422 2845
23444 46889
21127 42255
20247 40495
11957 5978
11439 22879
21132 42264
21183 10591
48301 24150
21538 10769
1018 2037
21418 42837
3846 7692
15532 31064
31220 62441
1693 3387
21175 10587
60109 30054
4620 9240
13473 26947
16652 33305
2401 4802
25176 12588
2811 5623
242 484
20760 41520
27899 13949
56043 28021
9913 19826
3846 1923
15496 30993
53925 26962
24349 12174
16808 33616
4400 8800
26530 53061
66342 33171
33234 66468
17266 34533
41531 20765
68234 34117
10272 5136
261 523
4504 9008
22904 45809
37666 18833
838 1676
12411 24822
30133 60266
5999 11998
7777 15554
26524 53049
1427 2854
43046 21523
67476 33738
51668 25834
29043 58087
32732 65465
27506 55013
21028 10514
30153 60307
31807 63614
29494 58989
42089 21044
19391 38782
12838 25677
39593 19796
25558 51117
52042 26021
24792 49585
8135 16271
21760 43520
27688 13844
54884 27442
12242 24484
1128 564
58739 29369
11333 22666
811 405
12862 25725
2722 1361
6262 12524
30188 15094
7813 15626
18792 37584
9910 19820
67488 33744
35377 17688
31736 63473
5297 10595
3232 6464
29196 58393
61891 30945
44269 22134
46487 23243
6786 3393
24356 48712
22707 45414
58532 29266
2848 5697
24966 12483
20647 10323
26405 13202
22304 44608
18496 36992
60025 30012
31275 62551
4438 8876
25890 51781
37200 18600
17930 35860
4650 2325
40616 20308
434 869
33342 66685
16102 32205
2044 4089
27230 54461
65121 32560
31935 15967
15485 30970
25822 51645
14292 28584
2745 1372
28126 14063
57751 28875
7438 3719
33525 67050
34621 69243
53363 26681
1547 3094
6227 3113
8190 16381
9872 19745
3042 6085
25518 51037
20596 41192
44610 22305
20811 41622
43555 21777
28507 57015
19212 38425
12086 6043
7921 15843
16128 32257
3895 1947
3699 1849
29712 59425
18996 37992
26748 53496
4114 8229
5232 10464
26237 13118
25909 51818
11323 5661
28400 56800
5114 2557
23383 11691
1119 2239
3157 6314
23294 46588
25251 50502
28702 57405
4804 9609
30050 60100
11400 22800
32983 16491
10651 21302
116 232
40999 20499
19409 9704
65489 32744
8383 16767
37848 18924
4284 2142
33006 66013
14809 29618
67866 33933
58379 29189
13244 26488
14049 7024
17788 8894
7489 3744
63346 31673
9493 18986
5130 10261
24234 48469
470 940
3460 6921
6720 3360
34327 17163
11067 22134
49830 24915
3440 6880
22363 11181
19030 38061
4081 8163
10581 21163
41596 20798
11292 22585
1005 502
33657 16828
61485 30742
25799 12899
59449 29724
46776 23388
3051 1525
42831 21415
19358 38717
24042 48085
16222 32444
5201 10402
33444 66889
3834 7669
2667 1333
36559 18279
32444 64889
10657 5328
21642 43284
13441 6720
7021 14043
22468 44936
37212 18606
22744 45489
34159 68319
27026 54053
22567 45135
49988 24994
39866 19933
29618 59236
55334 27667
9042 18085
3788 1894
36611 18305
12718 25437
31353 15676
12250 24500
7614 15228
30811 61622
11367 22735
1531 3063
15015 7507
43352 21676
25675 12837
61249 30624
55329 27664
29620 14810
53961 26980
44689 22344
69191 34595
5818 2909
18377 36754
17151 8575
14604 7302
47434 23717
23160 46320
20628 41256
32770 65540
10846 21692
53912 26956
31521 63043
33109 66219
25009 50019
2832 5665
17563 35126
4590 9180
47523 23761
66773 33386
33390 16695
7220 14441
21151 42302
47350 23675
817 1635
13377 26754
19240 38480
5877 11754
49080 24540
34513 69027
27397 54794
22404 44808
21003 42006
30989 15494
13292 6646
27371 54742
6762 3381
52280 26140
21801 10900
62563 31281
20209 40418
23290 46580
65825 32912
32213 64427
29969 14984
1311 655
57738 28869
2860 5720
5092 10184
20079 40159
14098 28197
33299 66598
7387 14774
3840 7681
12204 24409
4673 9346
48002 24001
62936 31468
3004 6008
8400 16801
18848 37697
42260 21130
33859 67719
50738 25369
8545 17090
67755 33877
54706 27353
65148 32574
37169 18584
3865 7730
55845 27922
26979 53958
18918 37837
6671 13342
65541 32770
59202 29601
18950 9475
32289 16144
27853 13926
17201 8600
7784 3892
58773 29386
1346 2692
41925 20962
16969 33938
16755 33510
41370 20685
15555 7777
26225 13112
26224 52449
28892 57784
12207 6103
3249 1624
31437 15718
21054 42108
11687 5843
23177 11588
25309 50618
24809 49619
34452 17226
9111 4555
24381 12190
27236 13618
59570 29785
65499 32749
32485 64971
29169 58338
15708 31416
32725 65451
67575 33787
16134 8067
12856 25712
15663 31326
10476 20952
9362 18724
2717 5435
20359 40719
6538 3269
19521 9760
16013 32026
27265 54531
16190 32380
30935 61871
26200 52400
33319 16659
21955 43911
28384 14192
1550 3100
38246 19123
11508 5754
16447 32894
24840 12420
20928 41856
26367 13183
24352 48704
16965 33931
19633 9816
13297 6648
19594 39189
7323 14647
5237 10474
48244 24122
2179 4358
18060 9030
65355 32677
39843 19921
56175 28087
42518 21259
26815 53631
15571 7785
10695 21390
65692 32846
20712 41425
2349 4698
38618 19309
26750 13375
25802 51605
46797 23398
27766 13883
16254 32509
45607 22803
11963 5981
43594 21797
45394 22697
25437 50874
17286 34573
63050 31525
5272 2636
20974 10487
21864 10932
50892 25446
6059 3029
21108 42217
42541 21270
67647 33823
1134 2269
60816 30408
61934 30967
32223 64446
4627 9254
3186 1593
19111 9555
51209 25604
20105 10052
14047 7023
40172 20086
47518 23759
61233 30616
34864 17432
16736 8368
21699 43398
2510 5020
42046 21023
12737 25474
46461 23230
1318 2636
44511 22255
3939 7879
33765 67530
46367 23183
4142 2071
27823 55646
32012 64025
68191 34095
40032 20016
66312 33156
12968 25936
59730 29865
34651 69303
10311 20623
63048 31524
21620 10810
7841 3920
17562 8781
22509 11254
25982 51965
9692 19385
48253 24126
61894 30947
703 1407
37403 18701
47914 23957
2694 1347
67468 33734
27801 13900
30348 15174
22651 11325
24123 48246
40880 20440
45792 22896
714 1428
13887 6943
61903 30951
29361 58723
12365 24731
22148 44297
25947 51895
6427 12855
16490 8245
51648 25824
18840 37680
1156 578
12366 24732
9105 18211
6481 12962
3745 7491
21612 43224
16359 32719
37393 18696
44590 22295
19707 9853
26165 13082
21955 43910
4846 9692
24216 48432
22719 45439
3451 6903
52933 26466
13100 26200
22505 45010
12672 25344
47022 23511
4539 9078
26211 13105
24099 48199
30547 61094
49106 24553
17861 8930
12934 25868
56483 28241
8341 16683
3721 7442
19613 39226
13164 6582
10576 21153
25657 12828
6570 3285
30050 15025
11482 22964
8537 4268
14627 29254
43834 21917
4085 8171
37640 18820
900 1800
13030 26061
68687 34343
11259 22518
38897 19448
63679 31839
24768 12384
17097 34195
66174 33087
11718 23436
23254 11627
677 1354
6964 13928
5006 2503
35341 17670
23397 46795
31090 62181
12379 24759
23828 47656
60725 30362
60425 30212
30189 15094
32272 64544
1016 2032
12030 6015
20352 40705
47956 23978
26044 52089
22847 11423
25680 51360
16650 33300
14315 7157
48460 24230
3336 6672
52088 26044
10110 20220
40897 20448
4190 8380
20169 40338
29393 58786
57796 28898
15878 31757
14907 29814
2552 5105
27226 54452
65521 32760
63367 31683
10056 20113
8074 16149
64729 32364
63136 31568
64086 32043
52077 26038
17208 34417
15592 7796
3177 6354
40691 20345
18549 37099
17947 35894
19447 9723
49423 24711
3179 6359
12296 24593
47273 23636
29537 14768
69016 34508
22402 44805
24313 12156
26743 13371
4363 8726
28594 57188
509 1019
17430 8715
19096 38193
4952 9905
21588 43176
41943 20971
20856 10428
5079 10158
36872 18436
14273 7136
32886 65773
31916 63833
15553 31107
12066 24132
19901 9950
33813 67627
22193 44387
50375 25187
37006 18503
47912 23956
7312 14624
24217 48435
7816 3908
55056 27528
6448 12897
623 1247
31824 63648
26101 52202
8571 17142
27079 13539
21986 43973
20471 10235
24822 49644
3843 1921
49578 24789
8052 16105
9735 19471
11023 22046
24037 48074
30636 61273
10677 5338
10321 5160
23104 46208
10333 20666
9824 4912
44094 22047
19263 38527
34158 17079
68922 34461
1711 3422
4966 9933
14726 29452
15052 30104
2386 1193
68350 34175
13018 26037
19359 38719
17730 8865
66665 33332
14071 7035
41150 20575
63536 31768
61431 30715
29480 58961
53134 26567
15776 31552
28008 56017
45494 22747
16387 8193
35669 17834
28990 14495
30049 60098
54048 27024
9583 19166
3997 1998
39877 19938
4997 2498
13762 27525
4983 9967
3421 1710
24852 49705
46615 23307
12349 24699
56783 28391
30593 61187
4000 8001
6987 13974
58935 29467
8478 4239
5327 2663
4390 2195
4540 9081
19646 9823
28977 57954
29904 59809
12265 6132
8310 4155
4893 9786
2945 1472
28123 14061
57469 28734
11524 23048
17633 35266
26084 13042
10533 21066
1007 503
14953 7476
7772 3886
34826 17413
18268 36537
8110 16220
29635 59270
58981 29490
56461 28230
23926 47853
11897 23794
29409 58818
490 980
14999 29999
3343 6686
19283 9641
11074 5537
16053 32106
21806 43613
57223 28611
2691 5383
51040 25520
34496 17248
5058 10116
24683 49367
59366 29683
29695 59391
20439 40879
31118 62237
13948 6974
22171 11085
30789 15394
3321 6642
63262 31631
27041 54082
14059 28119
32227 64454
32850 65700
54396 27198
57137 28568
47069 23534
29390 58781
49618 24809
24474 12237
15210 7605
9951 19902
27088 54176
64477 32238
27555 55110
29934 59868
7357 14715
21920 10960
20942 41885
24205 48411
22810 45621
65260 32630
55547 27773
15551 7775
16088 32177
29527 14763
60065 30032
19558 9779
49042 24521
26925 53851
8226 16452
51961 25980
46729 23364
62092 31046
12798 6399
25147 50294
62379 31189
53770 26885
14483 28966
15307 30614
63386 31693
38956 19478
58625 29312
54701 27350
32910 16455
21348 42697
19161 38323
1868 3737
6561 13122
27971 55942
36997 18498
27301 54603
1480 2960
32857 16428
7559 15119
20417 10208
30430 60860
34694 17347
2893 1446
37798 18899
8826 17652
20234 10117
21430 10715
34876 17438
31258 62516
32938 65877
2972 1486
17971 8985
28661 57323
14021 28043
28975 14487
13015 26030
15520 31041
65739 32869
33614 67228
541 1083
58375 29187
28486 56972
8881 17763
25466 50932
46543 23271
25487 50974
33862 67724
36251 18125
12225 24450
14938 29877
6842 3421
6068 3034
7200 14401
27205 13602
2202 4404
18620 37240
22130 44260
29542 59085
30669 15334
18874 9437
29020 58040
8679 4339
65 32
45566 22783
35856 17928
51795 25897
42045 21022
23950 47901
15048 30097
57637 28818
30757 15378
40135 20067
20178 40356
27018 54037
17019 34039
46135 23067
8030 4015
10360 20720
30079 60159
29365 58730
65185 32592
61237 30618
4116 8232
15267 7633
33625 67250
33223 66446
49789 24894
7691 15383
57846 28923
22597 45194
66625 33312
8821 17643
4348 8697
2004 4008
30645 61291
22684 45368
34322 68645
8857 17715
40195 20097
12677 25354
68838 34419
60841 30420
53550 26775
4810 9621
33682 16841
18001 36003
20564 10282
8855 17710
32616 65232
10437 20875
31823 63647
20335 40671
32393 64786
32533 16266
27211 54423
34495 17247
50172 25086
60093 30046
3709 7418
18398 36797
25356 12678
32108 64217
35197 17598
30777 61555
24782 12391
9210 18420
31563 63126
11313 22626
2077 4154
8210 16420
3473 1736
47943 23971
3439 6879
61795 30897
33463 66926
2981 5962
54785 27392
34097 17048
16353 32706
5447 10895
54470 27235
68850 34425
6836 13672
25114 50229
27772 55544
24957 49914
7726 3863
25612 51225
26442 52884
5192 2596
24102 48205
8642 17284
62580 31290
18794 9397
744 1488
61156 30578
33908 67816
67397 33698
22574 45149
33995 16997
48916 24458
15233 7616
32765 16382
60405 30202
6113 12226
14849 29698
16665 33331
42109 21054
26384 52768
68700 34350
1255 2511
15022 30045
48830 24415
65965 32982
33430 66860
8958 17916
19025 38051
30708 61417
9706 4853
342 171
20509 41018
15724 31448
31980 63960
34217 17108
28024 56048
3777 1888
42121 21060
7654 15308
13684 27368
54399 27199
32389 64779
32557 65115
34705 17352
4047 2023
32029 16014
31537 15768
53743 26871
1739 3478
1172 2344
9300 4650
10626 21252
18249 36499
22030 11015
55927 27963
5907 11815
26972 53944
14104 7052
42361 21180
31268 62536
14094 28189
11379 22758
1761 3522
15425 30851
31522 63045
10881 5440
37745 18872
126 63
6825 13650
19526 39052
21314 42629
46767 23383
57207 28603
47748 23874
24374 48748
64035 32017
29188 58376
20910 10455
67415 33707
14823 29647
43695 21847
28185 56371
32250 64501
63931 31965
61689 30844
67827 33913
5483 2741
4384 8768
55494 27747
23666 47332
37613 18806
41205 20602
1507 753
10302 20605
3246 6492
7594 15188
20599 10299
34576 17288
47208 23604
42383 21191
10528 5264
24671 49343
3194 1597
4001 2000
22535 45071
28106 56212
19670 9835
12965 25931
21162 42324
24434 48868
28553 57107
57548 28774
13549 27098
6649 3324
38437 19218
29034 58069
31496 15748
29710 59420
32805 65610
47733 23866
37290 18645
20937 41874
4760 9521
24508 49016
274 137
17285 8642
25778 51557
5157 10315
6156 12313
15966 31932
50885 25442
3262 6525
17943 35887
17880 8940
18406 36812
540 270
23637 47274
1389 2779
7620 15240
9085 18170
38397 19198
31521 63042
29286 14643
16200 32400
4640 2320
3929 7858
17251 34502
57989 28994
5822 2911
1462 2924
13721 27442
31878 63756
67924 33962
9506 4753
7412 14825
14538 29077
29951 14975
13074 6537
11321 22642
51045 25522
47531 23765
36104 18052
32726 65453
52932 26466
14459 28918
9894 19788
6647 13294
64777 32388
26631 53262
12388 24776
33019 66039
25766 51532
14945 29891
56012 28006
13849 6924
58941 29470
57339 28669
15587 31174
24945 49891
18326 9163
34270 17135
31471 62943
10629 21258
14877 29754
23217 46434
61666 30833
25407 50815
48007 24003
33902 67805
24880 49760
17847 35694
33030 66061
17385 34771
6845 13691
31814 63629
12510 25021
21372 42745
20076 40152
60982 30491
44090 22045
34099 68199
28718 57437
18109 9054
59245 29622
49449 24724
13848 27697
24419 48838
5764 11529
48013 24006
642 321
13997 6998
12986 6493
1362 2724
6539 13079
26167 52334
28227 14113
67758 33879
19529 9764
16208 32417
30359 60718
17620 35240
18300 36601
26800 53601
32369 16184
21992 43985
8203 16406
43039 21519
66662 33331
68951 34475
53529 26764
1733 3467
9435 4717
10133 20266
21927 43854
31738 63477
35121 17560
21341 42683
48533 24266
49812 24906
21827 43654
18611 9305
31603 15801
9121 18243
23069 46138
323 646
14452 28904
33504 16752
461 922
16832 33665
20183 10091
13168 26337
21227 42454
15266 30532
65080 32540
34370 17185
10656 5328
30863 61727
25940 12970
2118 1059
25288 50577
55933 27966
68433 34216
22321 11160
6571 13143
6452 3226
31487 62975
46165 23082
28890 14445
56249 28124
11785 23570
25430 50860
29817 59634
9074 4537
4678 9356
18694 37388
47263 23631
5925 11851
48017 24008
22132 44265
48417 24208
1696 3393
26229 13114
34516 17258
25684 12842
7604 15209
5044 2522
12708 6354
2984 5969
23295 11647
67578 33789
19565 9782
2711 5423
43230 21615
18306 36613
3673 7347
1128 2257
24019 12009
25587 51175
7269 14539
1327 2655
11133 22267
15349 30699
3043 1521
32623 65246
36488 18244
197 395
12895 25790
7722 15444
31592 15796
9076 4538
34021 68042
30325 60651
21702 43405
31010 62021
55555 27777
32935 16467
24093 48186
33957 67914
22614 45229
33373 66747
22436 11218
5993 11986
31342 62685
29236 58473
26077 52154
41084 20542
59864 29932
31785 63571
28903 14451
20549 41099
13378 26757
32365 64730
470 941
27679 55358
32080 16040
10336 5168
2134 4268
56437 28218
4916 9833
12800 25600
8794 17589
26289 52579
25035 12517
23818 11909
59829 29914
14321 28642
7244 3622
33028 66057
21602 10801
1548 774
24691 49382
68074 34037
47416 23708
30776 61553
48476 24238
28196 14098
4869 9739
19161 38322
13897 6948
33675 67351
30445 60891
15192 30384
20593 10296
48466 24233
10388 20776
31869 63739
21704 43408
18887 9443
13979 6989
19206 38413
28904 57808
17327 34654
29097 58194
48098 24049
26330 13165
2529 5059
31174 62348
23662 47324
51149 25574
34315 68631
54846 27423
41228 20614
62761 31380
43950 21975
5124 10248
34853 17426
8054 4027
34270 68541
67060 33530
58469 29234
67350 33675
48393 24196
57641 28820
33384 66769
37261 18630
66950 33475
101 202
22116 44233
63561 31780
35264 17632
4315 8630
29464 58928
20562 41125
6705 13411
10313 20626
21659 43318
28870 57741
18023 9011
12024 6012
22629 11314
61797 30898
49034 24517
8860 17720
20784 41568
30652 61304
24761 49522
41365 20682
3594 1797
10459 20919
57503 28751
4644 9288
7121 14242
28770 57540
37717 18858
218 109
7731 3865
11976 23952
30316 60633
26798 53596
33279 66559
13142 26285
20520 10260
24486 12243
13718 27437
4884 2442
46396 23198
7005 3502
27537 55075
34389 68779
20365 40731
38207 19103
16685 8342
16499 8249
68705 34352
47637 23818
6372 3186
11630 5815
6759 13518
10941 21883
15755 31510
7156 14312
37173 18586
67699 33849
8553 17107
7625 3812
16586 8293
13914 6957
17458 34917
52030 26015
65018 32509
41403 20701
18506 37012
57900 28950
26997 13498
26824 53649
4995 2497
34100 68200
2710 1355
10138 5069
18537 9268
37555 18777
284 569
13541 6770
16620 33240
19534 9767
59298 29649
50060 25030
23084 11542
41359 20679
7676 15353
8963 4481
31818 63636
19134 9567
47878 23939
28860 57720
9589 4794
25215 50430
57444 28722
20271 40542
15925 7962
42886 21443
29980 14990
62452 31226
34046 68092
16139 8069
44393 22196
17374 34748
20851 10425
30487 60974
17022 34044
51185 25592
31165 62331
12696 6348
35702 17851
47995 23997
3125 6250
10074 20149
14402 7201
63623 31811
552 276
44926 22463
16506 33013
21012 10506
13803 27607
6174 12348
15480 30961
20046 40093
14030 7015
12637 6318
30946 15473
60059 30029
33681 67363
54403 27201
29529 59058
21033 42067
8488 16976
33495 66990
10634 5317
46807 23403
30544 15272
28732 57465
43081 21540
39703 19851
22882 45764
32178 64357
4134 8269
10696 5348
3676 1838
27034 54068
12326 24653
20287 40574
5329 10658
23381 11690
33415 16707
44177 22088
26925 13462
9495 18991
21741 43482
12182 6091
33601 67203
7360 3680
8036 4018
36618 18309
8108 16216
25243 50487
24854 49708
114 57
14904 7452
17038 34076
49164 24582
25210 50420
53951 26975
39186 19593
1253 2507
7538 3769
43747 21873
32148 64296
17122 34245
7511 3755
8606 4303
23796 47593
24960 49921
6905 13810
23528 47057
15825 31651
4521 9043
28540 57081
17365 8682
6664 13329
30898 15449
16046 32093
31925 63851
23561 47123
39194 19597
3119 1559
32712 16356
64150 32075
30346 60692
30657 15328
22983 45967
24357 12178
12781 6390
22785 11392
26902 53805
787 1574
4214 2107
41020 20510
19553 39106
40471 20235
67151 33575
16108 8054
63269 31634
30413 15206
33680 67360
20136 10068
66259 33129
27607 55215
7704 3852
7238 14476
64722 32361
18113 9056
6183 12366
23733 47467
19945 9972
6247 12495
15547 31094
55598 27799
19479 9739
47127 23563
17045 34091
10650 21300
26481 13240
5146 10292
23484 46968
18136 9068
66549 33274
11472 22944
1848 3697
60703 30351
9256 18513
9269 18539
5780 11560
61561 30780
21589 10794
41461 20730
67059 33529
26894 13447
15509 31019
42066 21033
21894 43789
18762 9381
42327 21163
34257 68515
28917 14458
6733 13467
684 342
58273 29136
5149 2574
52453 26226
8342 16684
41849 20924
67173 33586
13895 6947
4569 9138
20254 40509
32877 65755
36269 18134
1284 2569
25848 51697
30674 61348
34491 68982
1559 779
9293 18586
28020 56041
19852 39705
8237 4118
34530 69061
16431 8215
16775 33551
15034 30069
24686 49372
14550 29101
19835 39670
32443 64886
20343 40686
32367 16183
17190 8595
18520 9260
6779 13558
10246 20493
18088 9044
53493 26746
2176 4353
58387 29193
46714 23357
50385 25192
17373 34747
27211 54422
15588 31176
4951 9902
35938 17969
23093 46187
22276 44552
26935 53871
16721 33442
29992 14996
50726 25363
14757 7378
18141 9070
67387 33693
38845 19422
18170 36341
24541 12270
7728 15457
38138 19069
23513 47027
29890 59781
618 1236
32781 65562
3581 1790
11301 22603
10205 5102
32197 16098
56941 28470
11762 5881
27329 54658
22969 45938
27495 54991
2017 4034
68893 34446
20455 40910
34120 17060
24220 12110
54592 27296
8541 17083
6787 13575
15589 7794
34261 68523
33980 67960
58352 29176
5753 11507
10049 20099
26108 13054
54533 27266
18460 9230
4911 2455
37237 18618
27480 13740
630 1260
28455 56910
34365 17182
21127 10563
26963 13481
29431 58862
33083 66167
17994 8997
9082 18164
13694 27388
17379 34758
33780 67561
48486 24243
21151 10575
27775 55550
3050 6101
7812 15624
8127 16255
34262 17131
14811 7405
25905 12952
25666 51333
17220 34440
22937 11468
59470 29735
668 334
8607 17214
19092 38184
22022 44045
6649 13298
26092 52185
19602 39205
7244 14489
21130 10565
33375 66750
47707 23853
52818 26409
20622 10311
4156 2078
4902 2451
36944 18472
3967 7935
50743 25371
14620 29241
13791 6895
22826 11413
8562 4281
41406 20703
19825 9912
26711 53422
10488 20976
14949 7474
4536 2268
553 1106
24284 12142
24974 49948
5342 2671
59155 29577
28935 14467
10660 5330
18698 37396
1482 2964
51675 25837
28775 14387
42444 21222
13678 27356
26036 52073
30819 15409
23935 47871
10530 21060
64864 32432
13233 26466
29251 58502
33183 16591
10162 20325
47218 23609
27530 55061
57519 28759
6155 12310
24146 48293
62087 31043
11404 22808
32840 65680
49612 24806
22570 45141
20309 10154
32800 65600
15294 30588
3220 6441
4768 9536
19038 9519
24166 12083
60940 30470
12684 25369
2413 1206
27389 54778
4224 8449
59958 29979
2799 1399
7157 3578
23048 46096
31389 62778
43575 21787
12339 24678
15061 30122
15398 30796
24297 48594
18922 9461
44633 22316
62127 31063
17222 8611
22408 11204
14599 7299
24458 12229
16125 8062
57615 28807
46620 23310
27424 13712
15776 7888
18327 36654
7958 15916
33314 66628
5555 11111
29751 59502
20933 41866
2494 1247
24558 49117
3768 7536
15244 30488
2144 4289
18407 36815
15350 7675
23880 47761
16804 33608
10545 21090
61814 30907
55254 27627
9379 18758
8834 17668
21994 43988
61277 30638
8348 16697
3560 1780
9129 18258
18090 36180
18509 37018
27434 54868
24882 49764
25131 50262
18239 9119
25633 51266
54118 27059
10938 21876
28349 56699
22655 45311
2735 1367
21522 43045
15269 7634
31953 63907
16268 8134
28825 14412
26238 13119
3964 7928
12073 24146
1156 2313
14373 28747
2765 1382
66701 33350
26551 13275
34526 17263
31865 63731
30658 61316
2397 4795
18273 36546
14365 28731
8951 17902
4382 2191
24903 49807
22411 44822
41501 20750
68797 34398
58432 29216
27575 13787
33301 66602
27227 13613
11902 5951
21341 10670
26432 52864
28675 57351
12684 6342
6197 12394
9291 4645
2489 4979
51621 25810
61997 30998
69034 34517
24114 48228
2174 1087
20474 40949
1062 2124
15667 7833
61201 30600
9669 4834
19629 39259
24698 12349
27200 13600
64094 32047
1741 870
6881 13762
46861 23430
7817 15634
25740 51481
29774 59549
59333 29666
32710 65421
15399 30799
48960 24480
7058 14117
49689 24844
10731 5365
4649 9299
718 1437
30575 61150
23172 46345
4575 2287
51588 25794
20115 40230
61739 30869
43535 21767
18972 9486
15234 30468
18637 37274
22489 44978
66023 33011
5779 2889
33232 66465
58707 29353
17779 35558
13171 26343
14972 29945
41420 20710
21386 42772
58101 29050
30375 60751
2641 1320
12170 24340
45405 22702
27436 54873
11506 23013
24138 48277
3258 6516
1891 3782
19401 9700
10663 21326
61093 30546
10924 21849
13608 27216
34137 17068
10962 21924
65697 32848
4696 9392
2107 1053
28880 14440
7574 15148
26386 52773
16924 33848
14009 28018
9710 19420
11332 5666
23094 46188
6266 12533
4039 8079
24955 49910
56387 28193
17429 34859
57005 28502
33095 66191
46119 23059
9713 19427
44179 22089
34023 17011
23722 47445
14457 28914
57591 28795
21471 42943
2377 1188
64095 32047
47185 23592
3736 7472
55086 27543
52424 26212
33804 16902
16963 33927
2821 5642
30580 61160
10366 5183
6886 13772
24547 49094
15067 30135
29120 58240
17065 34130
14722 29444
14751 29503
23695 11847
18903 37807
56552 28276
47331 23665
32089 16044
54762 27381
18177 36354
10119 20238
10968 21936
33345 16672
9848 19696
3978 7956
22858 45717
48613 24306
25940 51881
30542 61084
19989 39979
19387 9693
6886 3443
7293 3646
8413 16826
3494 6989
15283 30566
4327 2163
50868 25434
31951 63903
31507 63014
50777 25388
47045 23522
13225 26451
10438 20877
15084 30169
28572 57145
11514 23029
34374 68748
44 22
3734 7468
5045 10091
47494 23747
29726 59452
23595 47190
1759 3519
39974 19987
1789 3579
2481 4963
35756 17878
4737 9475
29278 58557
16970 33941
64450 32225
34110 68221
11825 23650
56179 28089
52410 26205
10282 5141
36951 18475
17624 8812
42534 21267
9984 19968
5251 10502
3599 1799
31762 63524
26589 53178
13350 26701
18848 37696
32124 64248
29594 59189
26972 53945
43481 21740
1398 699
22936 11468
6746 3373
14652 29305
51610 25805
41213 20606
30290 60580
22703 45407
9569 19139
21490 42980
65426 32713
10722 5361
12871 25742
14302 28604
13890 6945
9799 19599
2632 5264
2365 1182
4372 2186
40334 20167
32027 64054
34261 17130
56189 28094
20865 41731
29751 14875
68607 34303
19191 9595
3004 6009
22143 44286
4432 8864
15696 31392
29881 59763
17468 8734
12214 24429
54125 27062
30010 15005
68692 34346
4116 2058
2493 4986
12780 6390
22928 11464
18351 36703
29502 59004
18404 9202
25942 12971
22168 44336
3362 6725
34580 69161
63934 31967
14982 29964
8512 17024
5368 10736
24625 49250
23762 47525
2618 5237
55811 27905
25553 51106
39231 19615
2571 5142
60768 30384
68165 34082
31672 15836
52062 26031
15590 31181
16443 32886
7640 3820
4011 8022
43898 21949
19583 39166
36828 18414
23657 47314
61770 30885
30619 61238
46378 23189
33157 16578
3637 7274
39328 19664
10846 21693
1242 2485
24645 12322
18961 37922
45233 22616
62476 31238
29990 14995
24076 12038
22128 44257
30529 61059
22273 44546
53695 26847
9597 19195
56232 28116
24470 48941
22140 44280
12589 6294
12046 24092
35460 17730
26165 52330
5201 2600
20764 41528
26346 13173
18176 36353
3362 6724
4374 8748
14530 7265
64494 32247
19911 39823
39904 19952
10492 20984
50343 25171
39860 19930
18229 36459
10337 5168
18288 9144
58516 29258
40231 20115
287 575
13609 27219
1617 3235
22698 45397
14465 28931
21407 10703
65429 32714
64651 32325
793 1586
34976 17488
8003 16007
10694 21388
37705 18852
22156 11078
40885 20442
59840 29920
57901 28950
449 224
28420 56841
8332 4166
38179 19089
14807 29615
14435 28870
6129 12259
28078 56156
53760 26880
11942 23885
21427 10713
19180 38360
19521 39043
27465 54930
15173 30346
51003 25501
8749 4374
33289 16644
35359 17679
57361 28680
21349 10674
61763 30881
17899 35798
48493 24246
27556 55112
32674 65348
3537 1768
12642 25284
7797 3898
11230 22460
22816 45632
33613 67226
32390 16195
67139 33569
16971 33943
29410 14705
24932 12466
15732 7866
28473 56946
2167 4334
64268 32134
29742 59484
24496 48992
10860 5430
1312 2624
37412 18706
46372 23186
51593 25796
10472 20945
6923 3461
45101 22550
17401 8700
18907 37815
27198 13599
17875 35750
62342 31171
20738 41477
67862 33931
20923 41846
42705 21352
8292 16585
31371 15685
38582 19291
182 364
25725 51451
5151 10302
19024 38048
32592 16296
53548 26774
32636 16318
68803 34401
59764 29882
6288 12577
3857 1928
1479 739
38185 19092
13706 27412
24997 49995
27636 55272
31902 15951
26040 13020
12931 6465
33049 16524
31013 15506
14373 7186
30547 15273
6577 3288
23716 47432
9412 4706
25426 12713
34466 17233
15352 30705
14325 7162
11237 22475
1746 3493
29589 14794
9571 19142
11765 23530
2433 1216
11338 22677
64706 32353
14866 29733
689 1379
45705 22852
28712 14356
58752 29376
58297 29148
8114 16228
19040 38080
21568 10784
395 791
14000 28000
5691 11383
11120 22240
24670 49340
33372 16686
4821 9643
49858 24929
3633 7266
4588 2294
9766 19532
50099 25049
32980 16490
19246 9623
1280 640
7174 14348
16119 8059
12217 24434
19522 9761
11646 5823
1702 3405
12701 25403
20121 40242
9502 19004
18332 9166
14383 28766
20066 10033
10078 20156
539 1078
20385 40771
9975 19950
22739 11369
23285 46571
32776 65552
1394 697
16682 33364
12036 24073
32681 65362
15564 31128
24206 12103
16280 8140
8383 16766
56414 28207
63864 31932
2356 1178
20659 41319
36976 18488
4931 9862
8519 17038
26163 13081
68423 34211
29831 59662
11164 22329
27581 55162
6050 3025
17363 8681
8927 17855
60980 30490
2292 4585
54704 27352
15746 7873
32111 16055
39038 19519
23539 47078
31514 63028
33683 67367
55651 27825
13423 6711
15512 31025
17644 8822
60682 30341
742 371
64059 32029
18229 36458
24039 12019
41654 20827
45251 22625
10493 20987
25741 51483
3670 7341
32728 65456
8131 4065
32794 65588
17703 35406
19355 38710
17852 8926
14936 29872
55689 27844
30233 60467
20071 10035
40611 20305
18934 9467
32424 64848
2064 4128
3054 6108
17129 34259
15453 7726
14310 28620
20286 40572
28967 14483
18890 37781
4505 2252
22957 45914
13959 27918
65934 32967
35929 17964
23588 47177
17076 34153
34478 17239
23197 11598
10321 20642
2917 5835
27552 55105
7002 14005
67928 33964
30964 61928
22915 11457
18364 36729
30321 60643
20156 40312
37664 18832
31575 15787
20189 40378
69255 34627
55143 27571
2405 1202
31657 63314
341 170
9714 19429
44309 22154
46269 23134
4232 8465
32221 16110
6699 13398
15560 7780
56877 28438
5392 10785
25013 50026
24078 48156
69238 34619
5978 2989
27398 54796
24741 49482
62902 31451
15089 30178
68072 34036
29498 58997
33226 66453
6268 3134
6145 12291
51324 25662
16809 8404
28347 56694
58958 29479
19261 38522
3380 6761
37302 18651
3480 6960
11912 23824
26920 53840
35062 17531
30413 60827
30971 61942
25732 51464
25975 51951
9773 19547
22830 45660
3945 7891
14819 29638
62378 31189
5965 2982
15353 30706
18801 9400
12236 6118
17854 35708
53622 26811
2949 5898
21506 10753
25708 51417
31733 63466
27527 13763
26261 13130
34708 17354
65136 32568
6123 3061
6701 13403
21665 10832
15888 7944
24676 12338
15444 30888
12494 24988
47194 23597
39072 19536
69020 34510
38491 19245
27743 55486
20840 41680
32573 65147
3592 1796
33774 67549
11701 23402
49860 24930
590 295
25523 51047
9487 18974
9186 18373
16894 33788
1385 692
57813 28906
57572 28786
6222 12445
54681 27340
65291 32645
56559 28279
8340 4170
6936 13873
23602 11801
23330 46660
7573 3786
3057 6115
67617 33808
15915 7957
32187 16093
14655 7327
25290 12645
24125 48251
24677 49355
33875 67751
7059 3529
44230 22115
11340 22681
36857 18428
39748 19874
535 1070
13778 27557
3203 6406
31203 62407
18259 9129
43104 21552
5797 11594
27833 55666
2012 1006
45063 22531
30626 61252
390 781
9812 19624
18151 36302
19858 9929
11535 23070
27898 55796
68916 34458
29449 58899
22648 45297
1512 3025
27604 55209
12975 25950
42599 21299
53166 26583
3394 6788
35251 17625
52378 26189
20857 41715
34318 68636
49681 24840
20146 40293
22765 45530
18006 9003
64842 32421
14952 29904
52583 26291
8781 17563
34373 17186
7266 14533
8785 4392
3285 6571
20240 40480
2171 4342
13213 26426
35021 17510
16522 33045
68880 34440
11797 23595
295 591
62847 31423
54912 27456
3043 6086
51728 25864
19571 9785
7632 15265
24164 12082
37557 18778
38020 19010
46504 23252
39509 19754
7650 3825
8424 16848
31017 62035
14175 7087
65177 32588
19111 38223
21872 43744
11480 5740
18985 37970
56040 28020
139 69
23779 47558
64184 32092
16143 32286
10959 21919
1614 807
29133 14566
27763 55526
14709 29419
27468 54936
629 1258
20409 10204
32470 64940
219 439
4227 8455
2712 5425
32523 65046
27113 54227
23301 46602
13391 26782
38871 19435
29075 14537
10815 5407
11679 5839
18520 37041
34235 68470
46677 23338
30888 61777
19064 38129
10965 21931
65105 32552
23607 47214
14314 7157
66880 33440
4776 2388
8726 17453
34273 68547
30140 60280
45049 22524
15417 30834
15439 7719
11560 23120
31463 15731
1538 3077
27458 54916
41566 20783
26514 53029
27488 54977
47482 23741
27267 13633
12431 24863
1304 2608
66142 33071
11163 22326
8691 17383
28874 57748
11739 23479
5933 11867
18440 36880
2088 4176
23351 46703
4460 8920
22699 45399
24897 12448
5498 10997
12667 25335
63430 31715
29669 59339
19914 39829
51693 25846
19819 39638
23418 46837
2830 5660
38732 19366
14876 29752
45558 22779
53172 26586
693 1387
39446 19723
15275 30550
35759 17879
22817 11408
19280 38561
18948 37896
20829 41658
7179 3589
5405 10810
18979 37959
25951 51902
6225 12450
32905 16452
30797 15398
50514 25257
54672 27336
28812 57624
60917 30458
16977 8488
15348 30696
39623 19811
15491 30982
5906 2953
27840 55681
14638 29276
68875 34437
42382 21191
27931 13965
6523 13047
16106 8053
6991 3495
2685 5371
33244 66488
27715 13857
20053 10026
36519 18259
32884 65769
54918 27459
30999 61998
6851 3425
63569 31784
8576 4288
34043 68087
3705 1852
49188 24594
56230 28115
44959 22479
9857 4928
7801 3900
59060 29530
61768 30884
25833 51666
19951 39903
16613 33226
7279 14558
22034 11017
31925 15962
26616 13308
31596 63192
32050 16025
7403 14806
9937 19874
34086 17043
51118 25559
32611 65222
27060 13530
10396 20792
20821 41642
5809 11619
16076 8038
34027 68054
14070 7035
15686 31372
19348 9674
17340 34680
16950 8475
39611 19805
29440 58881
31866 63733
6312 12624
35433 17716
17018 34036
21218 10609
7090 14181
58097 29048
33464 16732
27749 13874
28514 57028
17218 8609
28224 14112
2845 5691
66055 33027
3849 7699
18669 37339
23195 11597
14599 29198
25866 51733
40362 20181
30646 61293
22469 44938
7362 3681
6807 13615
67192 33596
11325 5662
30107 60214
33304 66608
35657 17828
12888 6444
40528 20264
56039 28019
38045 19022
59919 29959
50371 25185
2728 5457
7382 14764
970 1941
20743 41486
5063 10126
12952 6476
34129 68259
22643 45286
19224 9612
7511 15022
13807 27615
21473 42946
52681 26340
3297 1648
63107 31553
35102 17551
2105 4210
23433 46867
17915 8957
22501 45003
41613 20806
1511 755
14825 29650
33217 66434
29973 59946
59647 29823
34080 68161
29383 14691
52105 26052
38569 19284
25186 50372
56484 28242
46939 23469
3014 6029
1417 2834
17015 8507
64340 32170
13765 27531
62939 31469
42284 21142
28219 14109
18332 36664
3286 6573
15087 30175
7661 15323
63237 31618
61018 30509
60135 30067
4989 9978
42931 21465
15336 30673
4302 8604
3120 1560
27761 55522
57481 28740
13518 27037
23940 11970
5997 11994
46792 23396
26906 13453
26256 52512
55198 27599
23622 47245
15697 7848
26643 53286
26054 52109
18571 37142
26032 52065
10852 21705
30120 15060
30753 61507
5652 11304
34361 68722
25334 50668
7101 14202
12569 25139
7299 3649
27471 13735
34488 68976
33871 67742
31034 15517
4699 9398
19045 38090
464 232
37420 18710
22369 11184
522 1044
18943 9471
33898 67797
5353 10707
33691 67383
22390 44781
51113 25556
15891 31783
19506 39012
41841 20920
11339 22678
27457 54914
46919 23459
12528 6264
43058 21529
47797 23898
58295 29147
17049 34099
6274 12548
36198 18099
15478 30956
67739 33869
27007 54014
17859 35719
24337 12168
6182 12365
25079 50158
64679 32339
1848 924
8412 4206
49831 24915
18779 37559
1562 3124
33641 67283
32022 64044
33432 16716
5351 10703
17908 35816
15175 30351
26159 52319
62996 31498
63802 31901
26249 13124
20724 10362
62215 31107
28106 56213
17210 34420
10094 20189
17924 35848
2212 4425
32133 64267
38763 19381
10089 5044
6180 3090
62263 31131
31466 15733
28970 57940
31129 15564
3284 6568
55365 27682
22596 45193
57625 28812
12776 25553
52398 26199
28442 56885
30816 61632
4402 8805
6963 13927
53081 26540
24662 49325
32949 65899
19264 9632
31954 63909
19610 39220
30796 61593
56460 28230
14918 7459
17643 35287
5354 10708
33970 67940
27859 55718
66194 33097
4533 2266
14781 29563
1010 2020
15511 31023
7571 15143
26520 53040
24928 12464
67110 33555
7258 14516
22156 44312
28173 56347
66732 33366
22347 44695
10842 21685
11842 5921
18483 9241
6781 13562
55146 27573
29665 14832
20082 40165
9455 18910
26980 53960
6217 3108
4771 9542
12929 25859
49520 24760
11103 22207
63159 31579
22873 11436
24331 48662
56124 28062
41511 20755
8160 4080
20931 10465
24771 12385
30415 60830
64835 32417
33095 16547
13173 26347
12129 6064
11027 22055
178 89
61877 30938
16037 8018
64533 32266
5595 2797
30487 60975
58794 29397
26110 52221
22117 44235
49172 24586
15948 31897
55944 27972
54352 27176
632 1265
48508 24254
1937 968
20514 10257
1283 641
26429 52859
25210 50421
10159 5079
21012 42025
2304 4608
3643 7287
31221 62442
10471 5235
24254 48509
16286 8143
22179 11089
19284 9642
68840 34420
25239 50478
33021 16510
67047 33523
11201 5600
31361 62723
5884 11768
36376 18188
13758 6879
15608 7804
54230 27115
21736 43472
23174 46348
12918 6459
12705 25411
3732 1866
23171 11585
32746 65493
23429 11714
63229 31614
28244 14122
14386 28773
31630 63260
20999 41998
45161 22580
47755 23877
29237 58475
47292 23646
33747 67495
38918 19459
15324 30648
15229 7614
6151 3075
33878 16939
10439 5219
41969 20984
29054 14527
61168 30584
34282 68565
20996 10498
25663 12831
32819 65639
21226 10613
34604 17302
21607 43214
31057 15528
24663 49326
33876 16938
5115 10231
65066 32533
20196 40393
8605 4302
65130 32565
32112 64225
7816 15632
26838 53677
7303 14607
22927 45855
63790 31895
12943 25886
22433 11216
21001 42002
1111 2223
19572 39145
19709 9854
5882 11764
67528 33764
15551 31102
30935 61870
18367 36734
33435 66870
28727 57455
53257 26628
10469 20939
57092 28546
22924 45848
7530 15060
34535 69071
30752 61504
15664 31329
62107 31053
21891 43782
10606 21213
18822 37645
8931 4465
52300 26150
5749 2874
10105 5052
16616 33233
33973 67947
51167 25583
28440 56881
26349 52699
25541 51082
22641 45283
33102 16551
28987 57974
241 482
26906 53813
32492 64984
21449 42898
33315 16657
37091 18545
63180 31590
3855 7711
14898 7449
4814 9628
20396 10198
7622 3811
1926 3853
21403 10701
24846 49693
39754 19877
35103 17551
61940 30970
28243 56486
53362 26681
41742 20871
63553 31776
51920 25960
22556 45113
20147 10073
23887 47774
8325 16650
24782 49564
39513 19756
8507 17014
19335 38670
43761 21880
26883 13441
68942 34471
61922 30961
33152 66304
30509 61019
19068 38136
10686 21372
41277 20638
15417 30835
9628 19257
9312 18624
22090 44180
23508 11754
13136 26273
22693 11346
15049 30099
4686 2343
68220 34110
9472 4736
51432 25716
43306 21653
33664 67329
39066 19533
8213 4106
32548 16274
23163 46327
4062 2031
50087 25043
28819 57638
39431 19715
8195 4097
25720 51440
30727 61455
11859 23719
33696 67393
15709 7854
29798 59597
4479 8959
39359 19679
3293 6586
43980 21990
27492 13746
7368 14737
27397 54795
23656 47313
26425 52850
16133 8066
53832 26916
21453 10726
16913 33827
13602 27204
47563 23781
1473 2947
30610 61220
54962 27481
25296 50592
27061 54122
16098 8049
57689 28844
59578 29789
29836 14918
29140 58281
45706 22853
14724 7362
13821 27643
26418 52837
1444 2888
11853 5926
15416 7708
41111 20555
16798 33596
23676 47352
8000 16000
44673 22336
14919 29838
62328 31164
2098 4197
10133 5066
14413 28826
3357 1678
9789 19578
44340 22170
20829 10414
23711 47423
9746 19492
10075 5037
42183 21091
5402 10805
30408 60817
51924 25962
13497 26995
47784 23892
21278 42556
12051 24102
21006 42013
20620 10310
32387 64775
23803 11901
30873 61747
21008 42016
28809 14404
45836 22918
25952 51904
65060 32530
44524 22262
57250 28625
16333 32666
13945 27890
13055 6527
24388 12194
7125 14251
44400 22200
52174 26087
7175 14351
14763 7381
58315 29157
17645 35290
27894 55789
4648 2324
416 833
28772 14386
27270 54541
2301 4603
16988 33976
33752 67505
22085 11042
51401 25700
54275 27137
52459 26229
3333 6667
9176 18353
61216 30608
10766 21533
43156 21578
18470 36940
55534 27767
4522 9044
22279 11139
14605 7302
13340 26680
29187 14593
19782 39564
45234 22617
5377 2688
13545 27091
24092 48184
8219 4109
54848 27424
2649 1324
56853 28426
34986 17493
20369 40739
9680 19360
8628 4314
40715 20357
9803 19606
13853 6926
25892 51784
37639 18819
30460 60920
34550 69100
53964 26982
33367 16683
5499 10999
19641 39282
40309 20154
1297 2594
1652 3304
35561 17780
27361 13680
42392 21196
7525 3762
960 480
28025 56050
29537 59075
61326 30663
16415 32831
10579 5289
11455 22910
24512 12256
7472 14944
8968 4484
48938 24469
30746 61493
9105 18210
5388 2694
16440 32881
10934 21869
825 412
16334 32669
30841 15420
32980 65960
17636 35273
33362 66725
59929 29964
67598 33799
1155 2311
16519 33039
8125 16251
9014 18029
17918 35836
42390 21195
6774 13548
32773 65546
3159 6318
58326 29163
5995 11991
50153 25076
25367 50734
22205 44411
35754 17877
64109 32054
22630 11315
47468 23734
18641 37282
33188 66376
2216 1108
1800 3601
6329 3164
28131 56262
7567 15134
26156 13078
55986 27993
29004 14502
1925 3850
24562 49125
59921 29960
21858 10929
56858 28429
18650 37301
61691 30845
56967 28483
27558 13779
30299 15149
1358 679
32962 16481
13512 6756
62357 31178
21176 42352
58045 29022
60336 30168
43937 21968
4706 2353
33389 16694
18086 36173
26167 52335
22085 44170
25191 50383
33047 16523
3293 1646
13359 6679
11477 5738
59660 29830
26552 53104
31485 62971
60877 30438
14222 28444
5073 10147
38222 19111
12087 6043
54554 27277
11379 5689
18935 9467
38140 19070
42044 21022
21516 43033
34182 68365
28767 57534
64658 32329
12626 25253
14675 7337
11500 23001
4484 2242
47783 23891
46005 23002
11792 23584
33881 16940
9491 4745
8813 17626
7868 15737
25738 51477
32842 16421
17288 34577
18575 37150
23311 46623
32272 64545
58999 29499
33212 16606
31797 63594
14787 29574
30089 60178
28099 14049
49785 24892
30543 61087
18090 9045
19337 38675
1084 542
42539 21269
44638 22319
28536 57072
32903 16451
1277 638
62737 31368
16360 32720
58914 29457
1125 2250
24456 48912
28124 14062
2559 1279
28457 56914
14681 29363
27230 13615
49887 24943
29544 59089
1621 810
25290 50580
11636 23272
64873 32436
4962 2481
14395 28790
14357 7178
4003 8007
5427 10855
10527 21054
12844 25689
11017 5508
7545 15090
7101 14203
61046 30523
7905 15810
6211 12422
56825 28412
40679 20339
28459 56918
12734 6367
23042 46084
18234 9117
32768 65536
32912 16456
20411 10205
21013 10506
9353 4676
17321 34643
56185 28092
35499 17749
31325 62650
52331 26165
25064 50129
56209 28104
29507 59014
708 1417
65988 32994
17736 8868
32542 65085
24354 12177
34302 17151
69 138
10597 21195
13234 26469
24714 12357
22340 44680
62581 31290
23588 47176
28225 14112
52870 26435
66604 33302
25758 12879
33746 16873
24612 49224
36088 18044
37273 18636
8945 4472
45980 22990
57573 28786
2060 1030
10581 5290
10713 21426
48968 24484
29517 59035
45070 22535
15904 7952
23007 11503
34441 17220
49308 24654
21349 42698
25001 50002
9549 4774
12545 6272
26813 13406
19104 38208
17645 35291
29768 14884
2678 5356
26073 13036
35990 17995
16463 32927
60887 30443
30604 61209
8718 17436
34555 69111
31061 62123
9705 4852
21906 43813
28378 56757
43670 21835
55514 27757
2267 4534
33536 67073
54290 27145
46831 23415
31734 63468
3543 7087
33196 16598
1887 943
32870 65741
29548 59096
56760 28380
1793 3587
32616 16308
43123 21561
35812 17906
31385 62771
17609 35219
32935 65870
56266 28133
29636 59272
60549 30274
38301 19150
21626 43253
8892 4446
6601 13203
177 355
48972 24486
15285 30570
18408 9204
11472 5736
1119 2238
7537 15075
22360 11180
11850 23701
5620 11240
29267 58534
18084 9042
16994 8497
33741 16870
42722 21361
49577 24788
44551 22275
739 369
12341 24683
9411 4705
68444 34222
8811 4405
22738 11369
21373 10686
1288 2576
50971 25485
60762 30381
18103 36206
1758 3517
36424 18212
29356 14678
44416 22208
10989 21978
32375 64751
39480 19740
33620 67240
61310 30655
19362 38724
30829 61658
24660 49321
3085 1542
33356 66713
11677 23354
49788 24894
9259 18518
49049 24524
40648 20324
61322 30661
66643 33321
22247 44494
30733 61466
25783 51566
29257 14628
5631 2815
50017 25008
18327 36655
54309 27154
43011 21505
7013 14027
20812 10406
54363 27181
21930 43860
26622 53244
26286 52573
34968 17484
64070 32035
9967 19935
392 196
55844 27922
4064 2032
33622 16811
33334 66668
13515 6757
41408 20704
3783 1891
41134 20567
61496 30748
50037 25018
14114 28228
31989 15994
6591 3295
19032 38064
42543 21271
9753 4876
69172 34586
48482 24241
16316 32633
21482 42964
10004 5002
62152 31076
48755 24377
68297 34148
19767 39534
1841 3682
14768 7384
55079 27539
12867 25735
65695 32847
38610 19305
24622 12311
28666 14333
44172 22086
22154 11077
12863 6431
28897 57795
8676 17353
5630 2815
56892 28446
32429 64858
28333 56666
8649 17299
8811 17622
2308 4616
32931 65862
30928 61856
32396 16198
22585 45171
12617 25234
27976 55953
46055 23027
22182 11091
63095 31547
37667 18833
30139 60278
8660 17321
23961 47922
7431 14862
65790 32895
1430 2860
4348 2174
32971 16485
4924 9849
28302 14151
244 489
32990 65981
7398 14796
38628 19314
49642 24821
29320 14660
67971 33985
69188 34594
11634 23269
428 857
29158 58316
28903 57806
18824 37648
7906 15812
11781 23562
23340 11670
12744 25488
18202 36405
1192 2385
21035 42070
54211 27105
5675 2837
68860 34430
13684 27369
5514 11029
23704 47408
5957 2978
4167 8334
13915 27830
11181 22362
16898 33797
9318 18637
56601 28300
21417 42834
21020 10510
32286 64572
66436 33218
65976 32988
23990 47981
29214 58428
843 1686
5036 10072
30158 60316
28940 57881
15976 7988
52307 26153
30805 61611
5935 11870
7740 3870
110 55
50476 25238
375 751
28252 14126
11443 5721
63025 31512
22990 11495
66615 33307
24874 49749
46808 23404
30732 61465
63689 31844
25909 12954
22067 11033
4528 9056
45084 22542
32918 65836
19608 39216
15804 31609
44562 22281
39553 19776
2817 5635
15745 31491
43652 21826
26379 13189
34750 17375
16263 8131
14678 29357
62724 31362
31459 62918
17571 35143
5891 2945
18944 37889
47019 23509
24274 48549
12441 24883
17591 35182
4840 2420
4909 2454
7739 15479
32239 64478
43500 21750
10698 21397
63599 31799
8610 17221
46199 23099
5119 2559
66529 33264
29574 59149
1139 2279
13037 26075
52963 26481
55972 27986
65915 32957
50878 25439
9298 4649
24046 48093
23143 46287
36020 18010
19522 39045
12049 24098
402 201
22180 44361
7551 15102
52826 26413
25151 50303
14680 29360
40604 20302
25195 50391
36704 18352
65196 32598
66295 33147
4532 9064
21418 10709
4366 8733
17962 35924
22691 11345
9418 18836
8386 16773
938 1877
20725 41450
27748 13874
64460 32230
123 246
61346 30673
17789 35578
39457 19728
8060 16120
319 638
32162 64325
622 1245
18642 9321
4898 9797
9593 19187
20842 10421
10175 20350
8294 4147
26051 13025
31456 62913
1607 3215
39701 19850
1090 2180
12553 25107
15075 30151
20714 41429
10249 20499
13159 6579
7108 3554
4342 8684
63659 31829
31676 15838
19438 9719
8120 16240
28928 14464
12987 6493
33865 67731
41407 20703
47723 23861
29839 14919
29757 14878
44304 22152
9092 4546
65931 32965
6996 13992
37836 18918
1291 2583
29038 58076
24075 12037
26399 52799
14760 29520
33091 16545
50524 25262
13271 6635
20842 41685
30181 15090
56436 28218
5761 11523
14540 29080
17018 34037
29472 58944
67501 33750
28667 14333
35950 17975
32012 64024
33990 16995
6738 3369
23384 11692
43840 21920
17183 34367
31647 63295
21019 10509
28248 56496
53153 26576
3897 7794
23966 47932
9134 18268
52274 26137
6812 13625
5799 11598
20773 10386
32471 16235
32440 64880
161 80
44796 22398
41578 20789
5041 2520
24628 49257
63850 31925
57594 28797
16518 33037
49905 24952
26107 52215
7231 14462
68603 34301
32753 16376
26439 52879
13740 27481
611 1223
21421 42843
21827 43655
20163 40327
2732 5464
31872 63744
23820 47640
44570 22285
6495 12990
19492 38985
68424 34212
22546 11273
24013 12006
22552 11276
39453 19726
30449 60899
31889 63778
24095 48190
28982 57965
16649 33299
63489 31744
7316 14633
31465 62930
24777 49554
22496 11248
20134 40268
15463 7731
52345 26172
37510 18755
19248 9624
8205 16410
10585 21171
52656 26328
24248 48497
16916 33833
19762 9881
8266 16533
29491 58982
59540 29770
59352 29676
9793 4896
21776 43552
3094 6189
44123 22061
19767 39535
6893 13787
54088 27044
5726 11453
27671 55343
12771 6385
6042 12084
30240 60480
32772 16386
21840 43680
10951 21903
53374 26687
62099 31049
8682 4341
8806 17612
15690 7845
12500 6250
20865 41730
11616 23232
32769 65539
24473 12236
29775 59551
30852 61704
13166 6583
13025 6512
7568 15136
19815 9907
4784 2392
28561 14280
5973 2986
27567 55135
3138 1569
31070 62141
56924 28462
14914 7457
4442 2221
7788 15576
66848 33424
2989 5979
21270 42540
65183 32591
21157 42314
22420 44840
42586 21293
5010 10020
14532 7266
11244 22488
5307 10615
65605 32802
8534 17069
1425 712
36792 18396
27897 55794
47339 23669
38508 19254
18807 37614
22349 44699
27697 55394
33946 16973
32369 64739
14410 28820
67941 33970
12401 24802
49553 24776
5506 2753
9290 4645
5519 11038
2498 4996
5894 2947
44449 22224
22518 45037
51871 25935
46265 23132
29725 14862
8391 4195
49384 24692
12024 24049
4209 8419
11404 22809
52339 26169
24103 48206
13028 6514
24063 48127
31697 63394
30292 60585
11711 5855
24555 49111
54866 27433
43562 21781
67735 33867
53058 26529
15923 31847
27075 54151
20246 10123
24669 12334
18971 37942
2607 5215
69266 34633
643 1286
15753 31506
43433 21716
27175 54350
36365 18182
27268 54536
14657 29315
31305 62611
19488 9744
9491 18983
15239 7619
35923 17961
34631 69262
25105 50210
7155 14311
14850 7425
7907 3953
22776 11388
25727 51455
10494 5247
25568 12784
31384 62769
4956 9912
30457 60914
46207 23103
20999 10499
27216 54433
24694 12347
24242 12121
46520 23260
6450 3225
9850 4925
33061 16530
26142 13071
42018 21009
15978 31957
28183 14091
64696 32348
4280 2140
26956 53913
18587 37174
43196 21598
31966 63932
25759 51519
15294 30589
31917 63834
23845 47690
20307 10153
7260 14521
51805 25902
24352 12176
35166 17583
11660 23320
31331 62662
7478 14956
26595 13297
58449 29224
20489 10244
24406 48813
14578 7289
29342 58685
29729 59458
29831 59663
56489 28244
24877 12438
3963 7927
53657 26828
29440 58880
61678 30839
27422 54844
33351 66703
4968 9936
5032 10064
23233 11616
67414 33707
13121 26243
733 366
45114 22557
20008 40017
1750 875
472 236
42288 21144
13535 6767
59327 29663
15513 31026
50036 25018
19804 39608
13308 26617
62857 31428
360 720
5474 2737
9454 18909
31478 62957
6683 13366
63783 31891
33633 67266
14108 28217
28105 56211
50307 25153
45804 22902
4340 8681
18482 36965
7723 15446
19143 38287
26502 53004
8614 17228
64603 32301
34232 68465
1976 3953
26960 53920
33310 16655
13805 6902
2659 5318
17542 35085
25524 51048
9427 18854
16935 33870
7585 3792
24741 12370
34618 69237
24602 49204
7902 15804
25271 50542
67688 33844
19280 38560
39833 19916
32432 64865
11073 22146
66868 33434
3667 1833
4353 8706
18528 37056
26865 53730
22537 45074
28488 56976
600 300
64774 32387
14016 7008
29320 58641
9004 18008
6150 12300
16400 32801
19788 39576
6751 13503
23608 47216
7431 14863
6802 13604
5728 11457
48687 24343
59561 29780
8928 17857
53474 26737
24277 48554
917 1834
23191 46382
15118 30237
13847 27695
6555 3277
66357 33178
62341 31170
1069 2139
37462 18731
58558 29279
30531 15265
15042 7521
20145 40290
56731 28365
4821 9642
20535 41071
60714 30357
25690 51381
3558 7117
29485 58971
5684 11369
14716 29432
18905 37811
4728 9456
24196 12098
2234 4468
35335 17667
33419 66839
57186 28593
8687 17374
34092 68184
65812 32906
18249 9124
19021 9510
62323 31161
15472 30945
15307 7653
14759 29518
41079 20539
7509 3754
11343 22687
29379 14689
11699 5849
27505 13752
14989 7494
28899 14449
56468 28234
13417 26835
27911 55822
34445 68890
49219 24609
22033 44067
34328 68657
44463 22231
7695 3847
13997 27994
27410 54820
28163 56326
7318 14637
20481 10240
31600 63201
6014 3007
56604 28302
32554 16277
9891 4945
23247 46495
9808 4904
12833 6416
36253 18126
7998 3999
10551 5275
38141 19070
40774 20387
21731 43462
7056 14112
5997 11995
69102 34551
20018 40036
6361 3180
4634 2317
15282 7641
21580 10790
67720 33860
19910 39821
20215 10107
21949 10974
33983 67966
54601 27300
21490 10745
50283 25141
6084 3042
33214 16607
1172 2345
124 62
9511 4755
32464 64929
26594 13297
19083 38166
27411 54823
54845 27422
49748 24874
11168 5584
23041 46082
6381 12762
30855 61711
20086 40173
15561 7780
7408 3704
2367 4735
33352 66704
20592 41185
13339 26679
3409 1704
66089 33044
10107 20214
267 133
33063 16531
2809 1404
23281 46562
15133 7566
59057 29528
33132 16566
39177 19588
14320 7160
23529 11764
15213 30426
2398 1199
65511 32755
13283 26566
2210 4420
54694 27347
15011 7505
32229 16114
15520 7760
51334 25667
35523 17761
60356 30178
43399 21699
13484 26968
26384 13192
16632 33264
54713 27356
4585 9170
37162 18581
7064 14129
18540 37080
33366 66733
51418 25709
8138 4069
59507 29753
29499 58998
18788 9394
9260 4630
18150 9075
29841 14920
2028 1014
22012 44025
1259 2518
26707 13353
55218 27609
4900 2450
65776 32888
48217 24108
4846 2423
9575 4787
3783 7566
38331 19165
23800 47600
1742 871
2922 5844
40588 20294
61674 30837
20638 10319
3125 6251
28206 56412
2357 4715
25003 12501
60390 30195
14889 29778
21803 43607
20781 41562
11689 5844
29700 14850
13817 27634
14527 29055
41187 20593
833 1666
13796 27593
14826 29652
29061 58123
12477 6238
2853 1426
23588 11794
31650 63301
3526 1763
10541 5270
33957 16978
24228 48456
6497 3248
42972 21486
24468 48936
10832 5416
16858 33717
9978 19957
13177 6588
10580 21161
29347 58694
3104 1552
5776 11553
12411 24823
31030 62060
20665 41330
21637 43274
10074 20148
11919 5959
22427 44854
4448 8896
16982 33965
6276 3138
33851 67702
4486 8972
23245 46490
29404 58808
13068 26137
27940 13970
14579 29159
5790 11580
18756 37512
5636 11273
54390 27195
59779 29889
11951 5975
46833 23416
5544 2772
13477 26955
2232 1116
50220 25110
12526 6263
19060 38121
5176 2588
32146 64293
49488 24744
44967 22483
5336 10673
19444 9722
13070 26141
39562 19781
37025 18512
35949 17974
25275 50551
32812 16406
30988 61977
25264 50528
24004 12002
58686 29343
26301 52602
28037 56075
17595 8797
39590 19795
5315 10630
33259 66519
19834 39668
34534 69068
19338 38677
49122 24561
31367 62735
6391 12782
26809 13404
66534 33267
24716 49433
23276 46552
9312 4656
1470 2941
64306 32153
5238 10476
30083 60167
3575 7151
20559 41119
8712 17425
29578 59157
16164 32329
17310 34620
48391 24195
30120 60241
23924 47848
1641 3283
39317 19658
56796 28398
22024 44048
28657 57315
23702 47404
31004 15502
35963 17981
8838 17677
1601 3203
3445 1722
19071 9535
27044 13522
184 369
5559 2779
5437 2718
2054 4108
60 30
19789 39578
11659 23318
32954 65908
27676 13838
3525 1762
8956 17912
23032 11516
22726 45452
27817 13908
27459 13729
62979 31489
21228 42457
15194 30388
13679 27359
32389 64778
48072 24036
45625 22812
9947 19895
20394 10197
50098 25049
26068 52136
4792 2396
87 175
399 799
57767 28883
39469 19734
21570 10785
1641 3282
23165 46330
25591 51182
14403 28806
27167 54334
34290 68580
29262 58524
2221 4443
23867 47735
18893 37787
25280 50560
14629 29258
59976 29988
1806 3612
66590 33295
62760 31380
58264 29132
56126 28063
32948 65897
31415 15707
11627 5813
6673 13347
10519 5259
38906 19453
52020 26010
8800 17601
8351 16703
6385 12770
33252 66504
3804 1902
24271 12135
8273 16547
6487 12975
21215 10607
31886 15943
53370 26685
32982 16491
17868 35736
23477 11738
4189 8378
26149 52299
14113 28226
56112 28056
7921 3960
59914 29957
35072 17536
45255 22627
63177 31588
7714 15428
16256 32513
6459 3229
6227 12455
19131 38263
48112 24056
12267 24535
2119 1059
67220 33610
5645 11291
56356 28178
32738 65476
13568 6784
8692 4346
47833 23916
24178 48356
2011 4023
12942 6471
33919 16959
47659 23829
25838 51676
19650 39301
29903 14951
15550 7775
18400 36801
12795 25590
10546 21092
8199 16399
18060 36121
30377 60754
10254 20509
22601 45202
66454 33227
51199 25599
33699 16849
8607 4303
58812 29406
13436 26872
66248 33124
21781 43563
32103 64206
67305 33652
20993 41986
38962 19481
31 62
29465 58931
22571 45142
36913 18456
54127 27063
52097 26048
21670 43340
28849 14424
1005 2011
16653 33306
3324 6648
28124 56248
29718 59437
29478 58956
65839 32919
15170 7585
67977 33988
2992 5985
66100 33050
69009 34504
5994 11988
24921 49842
67669 33834
24510 49020
5059 10118
33520 67040
33688 67377
65496 32748
36 72
13388 6694
28051 14025
45493 22746
511 255
52399 26199
65504 32752
25078 12539
32754 65508
19931 9965
66094 33047
26562 13281
5538 2769
61121 30560
11622 23245
19133 9566
67626 33813
25118 50237
20438 40877
38109 19054
22495 44991
18761 37522
22497 44995
23321 46643
12281 24563
853 1706
60223 30111
23029 46058
40487 20243
16185 32370
47233 23616
22952 11476
10573 5286
21480 10740
2549 1274
37978 18989
463 927
25336 50672
69232 34616
32359 64719
57620 28810
54171 27085
24864 49728
67936 33968
15536 31073
20001 40002
52385 26192
4063 8126
17716 35432
22258 11129
9564 4782
28258 56517
35306 17653
24819 49638
17707 8853
3893 7787
25873 51747
53 26
8071 4035
24984 49968
350 700
3035 6071
38269 19134
21997 43994
5836 2918
28650 14325
16803 8401
8473 16947
45934 22967
12507 25014
17356 8678
67630 33815
66638 33319
8371 16742
36144 18072
14396 7198
34112 68224
27972 13986
25927 12963
8396 16793
59893 29946
54732 27366
20304 40608
51327 25663
50517 25258
20522 10261
45973 22986
33531 67062
67503 33751
6074 12149
22548 45097
53516 26758
16466 32933
37208 18604
10371 5185
44589 22294
32102 64204
35045 17522
21639 43279
30515 61030
24809 12404
62900 31450
64023 32011
28338 56677
22456 44912
57201 28600
33385 66771
24177 48355
26765 13382
24811 49622
30714 61428
3906 7813
16908 33816
49739 24869
41306 20653
46678 23339
4383 8766
27161 54323
1121 2242
14915 29830
505 252
26567 13283
27696 55393
5873 11746
41010 20505
12408 24817
58827 29413
14444 7222
25863 51727
4917 2458
58071 29035
10060 5030
54042 27021
44848 22424
47979 23989
8023 16047
10283 20567
42221 21110
17921 8960
11336 22673
27984 13992
21725 43450
56349 28174
17660 35321
27626 55253
33202 66404
19617 9808
10278 5139
6298 3149
38069 19034
32927 65854
17087 34174
19024 38049
46016 23008
801 1602
46223 23111
28511 14255
26748 53497
30227 60454
4548 9096
27242 13621
13310 6655
20625 10312
24368 48736
40067 20033
2240 4480
48698 24349
5658 11317
46380 23190
56161 28080
66165 33082
11984 23968
2601 5202
40858 20429
4997 9995
2403 4806
15071 30143
7111 14223
34279 68559
16856 33712
24343 12171
59960 29980
53266 26633
10787 21575
49597 24798
55483 27741
7305 14611
31020 62040
48273 24136
16061 32123
7182 14364
4358 8716
9762 19525
6170 3085
67248 33624
13127 6563
49195 24597
3053 1526
29767 59535
502 251
439 878
55485 27742
9649 19299
20685 41371
23120 46240
23520 47040
28188 14094
10584 21168
54313 27156
22798 11399
34048 68097
23468 46937
34119 17059
3760 1880
24004 48009
17791 8895
32303 64607
13931 6965
19249 38498
65503 32751
20363 40727
17996 8998
29028 58056
9812 4906
13951 6975
31447 62894
12215 24430
20922 41844
48688 24344
25696 12848
30631 61263
7587 3793
388 777
7310 3655
19883 9941
44146 22073
3692 1846
31200 15600
60499 30249
11679 23358
10137 20275
10489 20979
6336 3168
2455 1227
12673 6336
15049 30098
55369 27684
17431 34862
47609 23804
42486 21243
13744 27488
18606 37213
23984 47969
66294 33147
32145 16072
12410 24821
43135 21567
62279 31139
42851 21425
42861 21430
20678 41357
31093 62187
28284 56569
42788 21394
37571 18785
4574 9149
13543 27086
1832 916
46995 23497
28114 56229
21172 42345
12960 6480
3497 1748
17103 34206
55199 27599
31005 15502
6466 12933
20396 40792
20624 41249
11348 22697
12186 24372
68839 34419
2197 1098
19958 39916
47805 23902
1894 3789
1271 635
22143 44287
13835 6917
24362 48725
31851 63702
4900 9801
14756 7378
2888 5777
14093 28187
23788 47576
12210 24420
1165 2330
51032 25516
29864 59728
15131 7565
5336 2668
21871 43742
26848 53697
64240 32120
20339 10169
37081 18540
10796 5398
21237 42475
39096 19548
20154 10077
26692 53384
4205 2102
23263 46527
20662 41324
51145 25572
5017 2508
44259 22129
44497 22248
33185 66370
1694 3389
630 315
4223 2111
16425 32851
17218 34436
57158 28579
62120 31060
62529 31264
17949 35899
31475 15737
14894 29788
47873 23936
13706 27413
32706 65413
33626 16813
46388 23194
4832 9664
559 1119
34002 68004
2804 1402
33423 16711
34856 17428
30790 61580
7942 15884
5545 2772
21711 43423
62019 31009
42839 21419
25276 50552
45849 22924
61734 30867
29037 14518
25944 51888
22752 11376
35790 17895
1889 3778
3680 1840
31225 62450
8532 17065
31704 63408
51607 25803
10069 20139
8051 16103
27027 13513
54412 27206
17726 8863
2041 4083
24694 49389
17419 34838
32603 16301
62559 31279
14717 7358
32184 64369
8805 17610
28490 14245
48555 24277
47046 23523
25609 51218
12326 6163
35434 17717
53295 26647
17469 34939
58563 29281
15815 31630
3993 1996
37401 18700
9896 19793
53387 26693
9323 18646
32466 64933
68162 34081
14152 28305
12455 24910
49846 24923
32338 64676
23883 47767
49916 24958
10026 5013
13126 26252
43471 21735
30441 60883
13288 26576
1397 2795
23390 46781
8056 16113
14697 29394
56718 28359
57103 28551
2500 1250
15421 30842
20073 40147
12536 25073
32904 65809
2057 4114
1912 3824
33595 16797
28632 57264
16901 33802
19518 39037
34010 68021
49767 24883
24184 48369
67288 33644
19206 9603
59529 29764
13911 27822
14396 28792
14939 29878
3589 7178
22544 45088
5303 10607
31364 15682
46915 23457
27996 55992
33772 16886
59156 29578
10638 21276
25826 51653
16660 8330
4909 9818
60955 30477
25991 51982
67983 33991
33317 66634
21705 43410
4801 9603
20416 10208
20908 41817
60513 30256
39773 19886
17228 34456
48668 24334
22370 11185
20301 10150
25276 12638
2350 4700
12605 6302
988 1976
54376 27188
27058 54117
12356 24712
15361 30722
18594 37189
2769 5539
47107 23553
6541 3270
25832 51665
28148 56297
13819 6909
14992 29985
24392 48785
17335 34670
29047 58094
45173 22586
24555 12277
27295 13647
5557 11114
42997 21498
6079 3039
24391 48783
12763 25527
11666 5833
39540 19770
66076 33038
32581 16290
36413 18206
12190 6095
2085 4171
38665 19332
9462 4731
26410 52820
17353 34707
36246 18123
6656 13313
12868 6434
43160 21580
9359 4679
9688 19377
8179 4089
29697 14848
5490 2745
8558 17116
9252 18505
15799 31598
7645 3822
46823 23411
42072 21036
14007 7003
20003 10001
25085 12542
51055 25527
50123 25061
10880 21761
14636 29273
3654 7308
1036 2072
27378 54757
67475 33737
9388 4694
17529 8764
43101 21550
5375 10751
11357 22714
20995 41990
2921 5842
6177 12355
28031 56062
21899 10949
2461 4923
11146 5573
62079 31039
2109 1054
5465 10931
48638 24319
14097 28194
32993 65986
6070 12141
23172 11586
7624 15248
3094 6188
25116 12558
15455 30910
13719 6859
63353 31676
24231 48463
703 1406
11374 22749
32486 64973
813 1626
24256 48512
25006 12503
2343 1171
17022 8511
9428 18856
64512 32256
8311 16622
9188 4594
31278 62556
36630 18315
28607 57214
53989 26994
10885 21770
13952 6976
12472 24944
17437 8718
20563 10281
1879 3759
3326 1663
14103 28206
17888 35777
26461 52922
24607 12303
68867 34433
4101 8202
14143 7071
33637 67275
48135 24067
9896 19792
19665 9832
24024 12012
52560 26280
21249 10624
63694 31847
46475 23237
12876 25752
19260 38521
19074 38148
24221 48443
47935 23967
33649 67299
18136 36272
13246 26492
36332 18166
31126 15563
10694 5347
40901 20450
5006 10013
61502 30751
68738 34369
21817 43634
5863 11727
57151 28575
18702 37405
22233 44467
33879 16939
963 481
28704 57408
4813 9627
1121 2243
36224 18112
2262 4525
52505 26252
43251 21625
26521 53042
25513 51027
11913 23826
58828 29414
19721 39443
12337 6168
30719 61438
31364 62729
37858 18929
62423 31211
29271 58543
62782 31391
6592 13184
34067 17033
7151 14302
36372 18186
10350 20701
8358 16717
26632 13316
9402 18805
67620 33810
22195 44390
12367 24734
54170 27085
25520 51041
1601 3202
20439 10219
5242 2621
2113 4226
12255 6127
14978 29956
3310 6620
7820 15641
20227 40455
18951 37903
13340 26681
22096 44192
5350 2675
17677 35355
36925 18462
37132 18566
30092 60185
16293 32586
14443 7221
40760 20380
10970 21940
762 1525
24810 12405
32867 16433
28530 14265
3287 6574
27282 13641
14719 7359
24131 48263
53937 26968
1696 3392
23974 47949
49876 24938
29875 59750
16330 32660
9114 4557
2733 5467
28496 56992
3056 1528
7651 15302
44937 22468
11926 5963
14855 29711
14905 29811
59968 29984
21050 42100
6728 13456
10334 5167
55569 27784
28913 57826
34019 68038
17803 35606
27969 13984
63209 31604
4157 2078
26148 52297
46023 23011
30456 15228
10284 20569
65219 32609
27006 54013
1749 3499
1562 781
5691 11382
24364 48729
33426 66853
13125 26250
34210 17105
11788 23576
28617 57235
639 1278
33716 67433
30571 61142
27752 55505
7464 3732
20492 40984
1885 3770
14283 28567
29744 59489
41864 20932
17299 34599
36471 18235
1596 798
45383 22691
28571 57142
29059 58119
11192 22385
30235 60471
30983 61966
6121 3060
6018 12037
33118 16559
41616 20808
21551 43103
13351 6675
14146 28292
33697 16848
8331 4165
18743 37486
55362 27681
28805 57610
68831 34415
33548 16774
25246 50492
59302 29651
30493 60987
13611 6805
12185 24371
28525 57051
37939 18969
32328 64656
7202 14404
19253 9626
36289 18144
15330 30661
41101 20550
2777 1388
51569 25784
23596 47192
4723 9447
35339 17669
10350 20700
39756 19878
38292 19146
7950 15900
27430 13715
4395 2197
9367 4683
13048 6524
40472 20236
29603 14801
12232 6116
67770 33885
29733 59467
9195 18390
1270 2540
21169 42339
54523 27261
16584 33169
7674 3837
23543 11771
11499 22998
28743 57487
33916 67833
43646 21823
54277 27138
8469 16939
1815 3630
24244 48488
52718 26359
19230 38460
63350 31675
3108 6216
7284 14568
121 60
8538 17076
2079 1039
47741 23870
28998 14499
6317 12634
27744 55489
7773 15547
43025 21512
32463 16231
34531 69063
28217 56435
69216 34608
1629 3259
16223 32446
66650 33325
22227 44454
17245 34491
30273 60547
13632 27264
686 1373
41326 20663
8613 4306
30157 60315
5605 2802
47548 23774
67427 33713
33482 66964
25908 51816
47377 23688
3533 7067
2587 5174
33308 66616
61181 30590
18204 36409
15358 7679
29798 14899
10238 5119
13430 26860
5882 2941
32878 65756
21871 43743
9581 4790
34571 17285
32357 16178
3238 1619
28512 57024
27117 13558
35101 17550
17377 34754
60680 30340
27192 54385
32952 16476
23745 47490
49101 24550
33420 16710
43686 21843
5771 11542
26008 52016
36363 18181
57769 28884
15824 31649
35534 17767
3305 1652
62715 31357
27655 55311
2871 5742
18255 9127
61188 30594
23613 47227
34505 17252
58979 29489
37650 18825
8221 16443
20001 10000
24714 49429
13832 27665
11250 5625
26397 13198
11751 23502
12078 24157
29381 14690
57575 28787
17640 8820
33462 66924
19107 9553
14432 7216
27078 13539
31802 15901
15332 7666
13101 6550
29192 14596
11562 23124
21133 42267
18347 36694
25919 12959
7146 14293
20159 40318
24907 12453
29255 14627
37417 18708
13365 6682
23355 11677
26900 53801
21072 42144
11271 5635
29148 58296
17657 35314
13705 27411
14394 28788
21562 10781
24417 48835
32929 16464
48361 24180
13709 27419
22582 45164
47256 23628
62759 31379
30360 15180
27775 13887
26217 13108
51033 25516
11406 22812
24421 48842
63437 31718
24282 48565
33666 16833
9577 19154
35164 17582
31047 62095
7035 3517
60362 30181
61016 30508
10419 5209
48283 24141
18001 36002
4786 9572
6657 3328
19846 39692
56922 28461
5183 10367
21052 10526
13872 27744
48114 24057
25920 51841
59073 29536
27316 54632
23691 47383
4615 2307
14838 29676
38446 19223
1474 2948
56021 28010
11070 22140
23785 47571
22078 44156
67196 33598
27615 55231
37168 18584
38363 19181
9408 18817
15873 31746
5190 10380
30062 60125
22180 44360
23188 46377
21891 43783
48409 24204
36283 18141
8611 4305
27114 54228
4566 9132
3222 6445
14296 28592
9347 18695
66899 33449
12475 24951
2700 5401
6546 13093
26006 52013
8591 4295
67370 33685
26081 13040
27753 13876
32914 16457
19993 39987
2919 1459
7609 3804
12582 6291
29009 58019
7573 15147
7168 3584
10369 20738
20612 41225
24232 12116
15681 31363
14475 28951
48447 24223
26836 53672
14927 29854
13872 6936
47504 23752
28468 14234
9763 19526
24327 48654
16059 32119
13960 27921
32603 65206
23287 46575
15655 31311
8014 4007
7362 14725
37954 18977
9652 19304
19780 39561
8228 16456
63190 31595
4467 2233
26237 52474
62881 31440
4014 8029
44662 22331
10083 20166
34545 69091
10163 20326
2119 4239
61280 30640
3382 6765
19365 38731
3449 6899
8139 16279
13278 26557
59725 29862
56651 28325
8133 4066
7211 14423
6592 13185
26267 52534
8053 16107
33109 16554
22785 45571
65531 32765
56210 28105
13468 26936
1673 3346
24331 48663
2180 4360
29484 58969
18966 37932
12013 24027
51687 25843
64043 32021
42248 21124
35535 17767
28175 56351
53968 26984
11778 5889
12229 6114
59288 29644
24328 48656
67448 33724
20132 10066
18526 37052
10205 20410
19544 39089
24285 48571
6438 12877
17487 34974
30619 15309
14487 7243
30978 61956
17639 35279
68304 34152
1887 3774
9792 19585
7514 15029
54197 27098
3282 6565
10522 5261
19913 39827
14516 29032
20095 40191
11961 23923
33838 16919
12303 24606
3929 1964
1556 778
54539 27269
18649 37299
5777 11555
7242 14485
2824 5648
10903 21807
10072 20144
8239 16478
22757 11378
22409 44818
4791 9582
8677 17355
50678 25339
21208 42417
16537 33075
40887 20443
27751 55503
29783 14891
23420 46840
12065 24131
41336 20668
45595 22797
4028 8057
20695 41390
3969 1984
33119 66239
34375 17187
34298 68597
23418 11709
31295 62591
7760 15521
27991 55983
21075 10537
23693 11846
30516 15258
18 9
27917 55834
12299 24599
19126 9563
47526 23763
28724 14362
19266 38532
14587 29175
19626 39252
48804 24402
49009 24504
45762 22881
27621 55242
18665 37330
9473 4736
39358 19679
45739 22869
2703 1351
16068 8034
12907 25814
4290 8581
14542 7271
5335 10670
17054 34108
13535 27070
10542 5271
52702 26351
21922 43844
23587 11793
60604 30302
21438 10719
31875 63750
62623 31311
28865 57731
7579 15159
12089 24178
24511 49022
66571 33285
16222 8111
15805 31611
19278 38557
9412 18824
22605 45211
31254 15627
21916 10958
34563 17281
5874 11748
23298 46597
25858 51717
28428 14214
18888 37776
39340 19670
4552 2276
41909 20954
49579 24789
21646 43292
45130 22565
64479 32239
799 1598
62366 31183
10821 21642
4511 2255
11272 22545
32525 16262
28122 56245
23550 11775
3930 7860
3339 1669
25676 12838
33452 16726
17142 34284
10758 21516
17136 34273
10451 20902
43152 21576
22048 44097
21812 43625
25037 12518
19088 9544
2360 1180
12531 25063
6128 12257
15591 7795
151 303
13248 6624
38756 19378
24383 48766
46946 23473
61347 30673
21117 42235
32342 16171
48826 24413
19861 39722
11042 5521
37436 18718
17381 8690
36769 18384
29144 14572
11175 22350
6614 3307
60346 30173
26779 13389
26639 13319
19056 9528
24326 48652
11617 5808
39342 19671
12854 6427
56165 28082
31765 15882
12595 25190
13503 27006
27107 54214
48291 24145
10075 20150
3657 7314
23421 46843
58092 29046
32901 65802
57760 28880
37944 18972
7864 15729
15393 7696
39445 19722
41657 20828
68767 34383
5934 11869
34220 68441
66979 33489
1923 3847
27619 55238
21499 42999
20951 41903
51554 25777
27878 13939
24046 48092
4280 8560
63150 31575
30832 61664
31667 15833
12749 25499
47265 23632
67980 33990
13907 27814
14473 28946
13988 6994
28454 56909
21727 43454
46204 23102
16507 33014
27186 54373
31191 62383
28296 14148
56115 28057
2128 4257
31849 63699
48465 24232
9374 4687
56933 28466
30287 15143
2739 1369
8820 4410
65788 32894
34742 17371
29223 14611
63040 31520
62136 31068
17946 35893
6069 3034
18114 36228
19194 38389
13110 26221
7643 15286
24202 48405
1153 2307
60224 30112
31855 63711
11905 5952
21322 10661
9557 4778
28126 56252
30868 15434
3820 7641
1970 3941
32271 64542
44408 22204
838 1677
56170 28085
30747 61494
46062 23031
29189 58378
14973 29947
629 1259
24433 48867
30159 60319
41104 20552
43190 21595
22055 44110
62395 31197
8 16
53088 26544
53904 26952
21700 43400
8308 4154
64757 32378
8741 17482
16398 32797
52661 26330
17184 8592
30405 60811
14248 7124
45422 22711
40942 20471
2473 4946
37332 18666
1660 3321
48438 24219
15279 7639
11759 5879
30659 61318
35302 17651
9727 19454
6976 13953
3045 6091
31149 15574
41375 20687
33101 66203
47174 23587
17122 8561
43976 21988
24121 12060
13598 6799
8130 16260
30671 15335
21940 43881
10218 5109
17561 8780
63265 31632
39080 19540
3331 6662
4066 2033
24493 48986
9424 18848
21254 42509
7227 3613
67165 33582
20571 41143
41773 20886
30415 15207
33376 66752
7589 15179
21943 43887
3889 1944
27828 55657
30962 61924
24353 12176
52956 26478
2570 1285
33075 66151
38930 19465
24185 12092
52471 26235
57322 28661
9184 4592
38072 19036
50563 25281
18808 37616
50731 25365
227 454
20190 40380
11945 5972
26019 52038
15957 7978
30663 15331
15198 30397
2788 5576
25325 50650
11429 5714
24526 49053
43187 21593
33730 16865
33781 16890
45328 22664
38188 19094
25875 51751
25219 12609
29329 58658
32179 64358
46053 23026
5205 10411
22646 45292
4610 9221
18344 9172
30036 60072
58702 29351
21555 43110
31446 62892
38172 19086
22546 45092
29397 14698
45582 22791
7667 15335
31007 62015
12936 25873
33273 66546
22546 45093
15110 30221
11260 22520
18913 9456
33337 66674
15907 31815
16853 8426
46243 23121
14132 28265
40058 20029
17736 35472
33784 67569
36288 18144
2718 1359
14051 28102
16246 8123
33789 16894
5185 10370
13805 27610
17259 34519
4687 9375
9039 18079
28829 57659
23703 11851
13521 27042
21261 42523
9185 18370
16442 32885
3194 6389
62659 31329
55900 27950
10733 5366
5467 10935
31483 62967
58525 29262
29844 59688
16967 33934
33993 67986
28771 14385
23180 11590
29 59
65810 32905
11034 22069
33425 16712
14261 28523
31269 62538
42841 21420
32002 64004
65063 32531
16029 8014
7192 3596
12396 24793
12635 25270
9186 18372
16627 33254
25766 51533
18354 9177
55683 27841
30931 61862
34578 69156
31982 63965
6458 3229
14830 29661
22749 45498
31956 15978
50923 25461
3223 6446
34201 17100
11577 23154
38368 19184
32346 16173
48530 24265
13109 6554
68296 34148
22446 11223
18697 37394
31689 63378
29975 14987
54718 27359
21660 43321
9689 19379
6999 3499
29593 59187
2311 4623
50340 25170
22392 44784
23231 46463
32052 64105
31614 15807
46894 23447
27321 54643
60372 30186
25433 50866
62283 31141
14789 7394
32333 64666
10401 20803
54162 27081
532 266
15941 31883
899 449
6852 3426
11750 23500
15848 31696
6933 3466
36659 18329
27335 13667
60193 30096
34396 17198
12096 24192
50886 25443
9521 19043
41505 20752
2812 5624
40110 20055
25360 50721
69105 34552
23567 11783
55191 27595
58065 29032
68731 34365
12399 24799
18073 36146
9466 4733
44397 22198
1591 795
51318 25659
31896 63793
28035 56070
13785 27570
27317 13658
17850 35701
21026 42053
10139 5069
5601 11203
50698 25349
18307 36615
20420 40840
26312 52624
56037 28018
20533 10266
44493 22246
47307 23653
23805 47611
33160 66320
64167 32083
68635 34317
24367 12183
13650 27301
32336 64672
52417 26208
14465 7232
600 1200
19996 39993
7755 15511
13257 26514
7355 3677
23822 47644
8633 17267
1787 3574
22029 44059
6812 13624
19235 38470
16806 33613
31576 63152
832 416
2019 4038
17852 35704
31653 15826
7673 3836
7678 3839
24955 49911
45908 22954
33544 16772
27639 55278
27912 55825
18568 37136
39033 19516
25706 12853
27671 55342
17099 34199
21484 42969
49959 24979
46938 23469
29671 59342
15855 7927
13941 6970
12629 25259
8033 4016
39760 19880
38315 19157
28745 14372
4099 8199
26630 53260
10232 5116
61178 30589
68329 34164
22225 44451
24672 49344
26691 53382
33550 67101
55341 27670
20204 10102
31548 63096
49270 24635
16455 8227
20084 40169
63749 31874
1301 2603
2287 4574
19527 39054
24302 12151
12030 24061
7191 14382
1812 3625
30480 60961
46662 23331
5063 10127
51090 25545
64768 32384
2597 5195
48991 24495
15655 31310
32021 64042
26183 13091
26064 13032
7615 3807
2370 1185
10978 21956
6977 13954
15455 7727
20 41
5056 10113
4811 9623
31360 62721
13066 6533
28778 14389
14280 28560
14677 29354
11874 5937
30828 15414
30187 15093
12286 24573
9961 19922
55655 27827
24310 48620
12502 25005
4909 9819
13230 26461
32078 64157
19122 38244
42468 21234
68948 34474
31830 63661
15072 30144
8873 17747
39418 19709
33795 67590
5798 11596
22661 45322
25092 50185
22840 45681
44873 22436
62666 31333
4425 8851
18386 9193
31491 62982
18603 37206
62498 31249
22519 45038
55512 27756
26766 13383
51590 25795
30058 15029
38953 19476
48502 24251
25785 12892
25389 50779
1734 867
55202 27601
23720 47441
7442 14885
7182 3591
59173 29586
11415 22831
52953 26476
32372 64745
16092 32185
53406 26703
2420 4841
22591 45182
29303 14651
19363 38726
16344 8172
32792 65585
25534 51069
25335 50670
32846 16423
8501 17003
3402 6805
25487 50975
9405 4702
15811 31622
10971 21943
31087 62175
30935 15467
377 754
15767 7883
25882 51765
31086 62172
23303 46606
159 319
8617 4308
32569 65139
7896 15792
16392 32785
58118 29059
31867 63735
15823 7911
28825 57651
8467 16934
10049 5024
30176 60353
4859 2429
2019 4039
56588 28294
14429 28858
29906 59812
45716 22858
67129 33564
8737 17474
65243 32621
1113 2227
18318 36637
22595 45190
43430 21715
47039 23519
13605 27210
58484 29242
34650 17325
1747 873
486 243
18211 36422
32898 65796
34530 69060
14407 7203
33082 66164
26019 13009
31939 15969
34252 68504
26181 52363
11226 22453
23009 46018
20989 41978
21515 43031
63116 31558
7814 15629
59731 29865
22490 44980
45476 22738
969 484
23469 11734
17839 35678
1932 3865
8907 4453
13901 6950
23395 46790
50988 25494
6140 12281
31767 63534
49166 24583
22493 11246
41537 20768
20052 40104
34500 69000
62988 31494
51188 25594
35903 17951
29382 58764
26009 13004
33038 66077
50344 25172
23126 46252
30231 60462
15476 7738
59198 29599
11801 5900
3170 6341
40211 20105
20752 41504
4013 2006
34288 68577
27762 13881
22890 45780
4707 9414
35042 17521
9610 19221
15658 31316
15997 7998
21937 43874
30202 15101
61605 30802
21597 10798
2859 5718
17962 8981
33397 16698
31795 15897
66238 33119
48947 24473
2826 5653
4221 8442
22935 45870
27046 54093
11186 22373
68996 34498
14019 7009
62075 31037
3373 1686
63336 31668
2807 1403
69104 34552
54938 27469
24850 12425
9366 18733
28171 56342
65867 32933
51514 25757
34399 68799
35967 17983
33416 16708
31583 63167
45618 22809
59795 29897
27885 13942
816 1632
16353 8176
31317 62635
10417 5208
22998 45997
9911 19822
61484 30742
353 176
35332 17666
26404 52809
30093 15046
33815 67631
26473 52947
25831 51663
55150 27575
64197 32098
9029 4514
4456 8913
10265 20531
22454 11227
1949 3899
10527 5263
11868 23736
23216 46432
30752 61505
9565 19131
3149 6299
4026 8052
4216 2108
61848 30924
8635 17270
13708 27416
34532 69064
43385 21692
13125 26251
4217 2108
32609 16304
22451 44902
413 206
15247 30495
20894 41788
38777 19388
26298 52597
32244 64489
53843 26921
27451 54902
8620 4310
48388 24194
19563 39127
37998 18999
62454 31227
15244 30489
67190 33595
60261 30130
6729 3364
4593 9187
59835 29917
25560 51121
5039 2519
18837 9418
25216 50432
31865 63730
23214 46429
1386 693
67483 33741
53378 26689
22827 11413
62732 31366
28001 56002
43672 21836
25130 50260
49747 24873
10539 21078
60569 30284
58435 29217
15176 30353
26896 13448
40198 20099
28997 14498
2082 4164
27694 55389
45245 22622
25894 12947
63794 31897
20895 41791
6669 13338
1800 3600
4995 9991
28166 56332
11763 23527
50120 25060
26619 13309
9090 18181
20177 40355
61119 30559
28340 14170
64536 32268
22941 11470
1977 3954
18875 37750
28841 57682
28484 56969
31388 62776
30205 15102
4425 8850
30574 61148
24987 49975
46875 23437
3770 7541
9720 19441
9420 4710
63673 31836
14704 7352
28482 56964
28948 14474
10142 5071
13327 26655
19224 38449
56148 28074
2329 4659
64131 32065
2857 5714
19135 38271
22489 11244
25120 50241
56566 28283
17555 35111
4940 2470
29994 59988
32800 65601
32399 64799
12241 6120
53420 26710
26283 13141
12591 25182
29972 59944
31257 15628
46379 23189
27129 54259
34147 68295
9585 4792
10349 20699
9026 18052
32403 16201
14094 7047
25806 51613
5024 10048
55663 27831
19192 38385
15895 31790
3412 6825
58012 29006
23419 46838
51882 25941
5406 10812
22801 45602
17786 8893
24340 48681
32114 64228
34220 17110
61792 30896
57535 28767
4882 2441
3825 7651
8181 4090
9416 18832
1305 2610
9450 4725
11693 5846
15092 7546
15080 30160
29856 59712
53722 26861
27849 13924
1629 3258
47315 23657
24927 49855
18067 36134
17594 35188
16556 8278
7593 15187
37796 18898
67202 33601
10144 20289
10541 21083
1959 3918
2329 1164
39516 19758
42341 21170
11419 22838
19598 9799
34016 68033
31053 15526
12853 6426
20704 41409
31004 62009
32429 16214
626 1252
32322 16161
22866 45733
58842 29421
8504 17009
60868 30434
129 258
33977 67955
58120 29060
21912 10956
8103 16206
11275 22551
13354 26708
8115 16231
25763 51527
26166 52332
2641 5282
4525 9050
33874 67748
66362 33181
6944 13888
25453 50907
32077 16038
4332 8664
30808 15404
12580 6290
15918 7959
18125 9062
9944 19889
27846 55692
26141 52282
60879 30439
62835 31417
14625 29251
440 880
62048 31024
37629 18814
11774 23549
26615 53230
39726 19863
25751 51502
32755 16377
18954 37909
15311 7655
27229 54459
29051 58103
27944 55889
22006 44013
24807 49614
2929 1464
58079 29039
16555 33111
2891 5782
27555 55111
29871 14935
25038 12519
11487 22974
14776 7388
28334 14167
61070 30535
2942 1471
1750 3501
7882 15764
19370 38741
57817 28908
9772 19545
34524 69049
17393 8696
26476 13238
41889 20944
176 352
3432 6865
37011 18505
19063 38127
22485 11242
11248 22497
21442 42885
15801 31602
17040 34081
54036 27018
31291 62583
23512 47024
39388 19694
17926 8963
20907 10453
25571 51143
62477 31238
23294 46589
18812 37624
24936 49873
2459 4918
26900 13450
18089 36179
411 822
8405 16811
66721 33360
9261 18523
5762 2881
54156 27078
48993 24496
9263 18527
22472 44945
13783 27567
31270 62541
59718 29859
23721 11860
22553 11276
11957 23914
35981 17990
34563 69127
764 382
32332 64664
7262 3631
59174 29587
60677 30338
19906 9953
29167 14583
27232 13616
30510 61020
37362 18681
4243 8487
24436 48872
29545 59091
9214 18428
22327 44655
34515 69030
25249 50498
15784 31569
26487 13243
15360 7680
60771 30385
31457 15728
14596 7298
36223 18111
4161 8323
55019 27509
2663 5326
56600 28300
30739 15369
3034 1517
10128 20256
8259 16519
12930 25861
37163 18581
15756 7878
100 50
707 353
53679 26839
19027 9513
3543 1771
35040 17520
12825 25651
13867 27735
24209 48419
12059 6029
37580 18790
18773 37547
4508 9017
41597 20798
19954 39908
47892 23946
32285 64570
768 1537
15129 7564
7257 14515
26827 13413
48339 24169
54223 27111
37219 18609
50614 25307
12296 24592
8254 16508
15294 7647
18823 37647
12091 24183
21322 42644
25980 12990
17399 34798
34030 68061
23589 47178
59381 29690
59321 29660
19351 9675
26138 13069
39165 19582
1369 2738
280 561
59422 29711
32088 16044
30637 61275
25654 51309
4436 8873
10361 20723
62976 31488
730 1461
19207 38414
20412 10206
21271 42542
18375 36751
19554 9777
61520 30760
7838 15677
31173 62346
35154 17577
63476 31738
59686 29843
53748 26874
20015 40031
1954 977
53307 26653
24900 12450
40581 20290
5210 10421
35311 17655
19423 9711
50661 25330
1499 749
29713 59427
21365 10682
47237 23618
4943 2471
29573 59146
24475 48951
5824 11648
35962 17981
16250 32501
57385 28692
30343 60687
29575 14787
68891 34445
66677 33338
17635 35271
26842 53685
27879 13939
17821 35642
10555 21111
34087 17043
35713 17856
31941 63882
69007 34503
38988 19494
34494 17247
38549 19274
33406 66812
2872 1436
36937 18468
9652 4826
34195 68391
27068 54137
378 756
8717 4358
5990 11981
34198 17099
5177 10354
17339 34678
13438 6719
26102 52204
45986 22993
48964 24482
9103 4551
41799 20899
7312 14625
4665 9331
60510 30255
1679 839
24322 48645
18264 36529
7936 15873
27224 54449
2133 1066
1796 898
26123 52247
61284 30642
9049 18098
3735 7470
12431 24862
9892 19784
31715 15857
67325 33662
67259 33629
6019 3009
18433 36867
20747 41494
12275 24551
40215 20107
32024 64049
29814 59629
68446 34223
17302 34605
69120 34560
16300 8150
64128 32064
49956 24978
36631 18315
23911 47822
20871 10435
14446 28893
37238 18619
47050 23525
31055 15527
17578 35156
6211 12423
9427 18855
38942 19471
21872 43745
48387 24193
25146 12573
2632 5265
31928 15964
60631 30315
25474 50949
27253 13626
47286 23643
27240 54481
25229 50458
36155 18077
63206 31603
5799 11599
58546 29273
4766 2383
46349 23174
15595 31190
25411 50823
43459 21729
25258 50516
12547 25095
2555 5110
33191 66382
25301 50603
20925 41850
6942 3471
27769 55539
25345 50691
57681 28840
50846 25423
19151 38303
44635 22317
26725 53450
36528 18264
5609 2804
68480 34240
16193 32387
6147 12294
11741 23483
69158 34579
52117 26058
65754 32877
3161 1580
27420 54841
16765 33530
3449 6898
19265 9632
46940 23470
36512 18256
21472 42945
28547 57095
61396 30698
62176 31088
54709 27354
14509 29018
6061 12123
48470 24235
30316 60632
62302 31151
5223 10446
2516 1258
13095 26190
27434 13717
21201 42402
6031 12063
9632 4816
20167 10083
44671 22335
33904 16952
32929 65859
13087 6543
56898 28449
530 265
7265 14531
19210 9605
32981 65962
12653 25306
20351 40703
28190 56381
9883 19767
50799 25399
54852 27426
5224 10448
29475 14737
29797 59594
46277 23138
4160 8320
65655 32827
27269 13634
32245 16122
20745 10372
54419 27209
31528 63057
14599 29199
68865 34432
43008 21504
1092 2184
66651 33325
13349 26698
19385 38771
37268 18634
36622 18311
34854 17427
16076 32152
7235 14471
16310 8155
10149 20298
9068 4534
15519 31038
12964 25929
27158 54317
42778 21389
5386 10772
9723 4861
9019 18038
17568 35137
49359 24679
12327 24655
23060 46120
46576 23288
6897 13795
17711 8855
45631 22815
6861 3430
10802 5401
8909 4454
13784 27568
58802 29401
37450 18725
37000 18500
38494 19247
3376 1688
13426 26852
46526 23263
39514 19757
8359 16718
17060 34121
54726 27363
12716 25432
36199 18099
30664 15332
20696 10348
16771 33542
4002 8005
27063 54126
40832 20416
48054 24027
22126 44252
3568 1784
53311 26655
11346 22692
18358 36717
29036 14518
30867 15433
34312 17156
17576 35152
35833 17916
29485 58970
37676 18838
15765 31531
7674 15348
837 1674
56411 28205
62356 31178
3093 6186
1150 2300
37369 18684
29708 14854
35404 17702
24329 12164
28431 14215
33401 66803
2619 5238
27269 54538
11753 23506
30339 60678
8227 4113
19532 39065
27224 13612
44807 22403
27579 55159
3218 6436
17543 35086
11590 23181
14696 7348
16175 32350
584 1168
20064 40128
40747 20373
29912 59824
23767 11883
20104 10052
4780 9561
33096 66193
32796 65592
69311 34655
7021 14042
37428 18714
30399 15199
836 1672
9767 4883
4603 9207
34353 68706
34408 17204
6311 12622
26791 53582
67379 33689
67135 33567
29897 59794
4271 8542
3885 7771
33758 67516
958 1916
28363 56727
9289 18578
22511 45023
6088 12176
6737 13474
44583 22291
9574 19149
3601 7202
2160 1080
18072 36145
28520 14260
13598 27197
7348 3674
28563 57126
68800 34400
3255 6510
12689 25378
45083 22541
65917 32958
16290 8145
582 291
15458 7729
65491 32745
27752 13876
43002 21501
1328 2657
6285 12571
19086 38173
6392 12785
18916 37832
2701 1350
36235 18117
52404 26202
31110 62221
16015 8007
8449 16899
13914 27829
55950 27975
39709 19854
28873 57746
31803 63606
27645 55290
47325 23662
12041 24082
4286 8573
27455 13727
23599 11799
11122 22244
27293 13646
32698 65397
35800 17900
65107 32553
5260 10520
59105 29552
59872 29936
30132 60265
28493 56987
29204 58408
14337 28674
57702 28851
18850 37700
29346 58693
3816 7633
47141 23570
27188 54377
18673 37346
30485 60971
9948 19897
22649 45299
46517 23258
57163 28581
15722 31445
41569 20784
6613 13227
27217 54434
18336 9168
39073 19536
34982 17491
23826 47652
19139 38278
51507 25753
23475 11737
7076 3538
27443 54887
8490 4245
63113 31556
1633 3266
29308 58617
33417 66835
28977 57955
6518 13036
4845 9690
13198 6599
36250 18125
65923 32961
6406 12812
21272 42544
10006 5003
13485 26971
10296 5148
23076 11538
14475 28950
42963 21481
5316 10633
41655 20827
10186 20373
32813 65627
22238 11119
20263 40527
53215 26607
17714 8857
19232 38464
25830 12915
61725 30862
47380 23690
22555 45111
7965 15931
41142 20571
44298 22149
31206 62412
51599 25799
15473 30947
27522 55044
11632 23265
40631 20315
54890 27445
52219 26109
21215 42431
12397 6198
22794 45589
52987 26493
27280 54560
16226 32453
1861 3723
1659 3319
68956 34478
5622 11245
40139 20069
28713 14356
30035 60070
21908 43817
3639 7278
25679 51358
31701 15850
13390 26781
26938 53877
12363 24726
47838 23919
34236 68472
44683 22341
37902 18951
20837 41675
15771 31543
31859 15929
20975 41951
22562 45124
33442 66884
57459 28729
41202 20601
2640 5281
11388 5694
12262 24524
22718 11359
60104 30052
23627 47254
9364 18728
8955 4477
30596 61192
13452 6726
13104 26209
10228 20457
28345 56691
37735 18867
2021 1010
2557 5115
16780 8390
4423 8847
28623 14311
12489 24979
31533 63067
26533 13266
7183 3591
27797 55594
23274 46548
26935 53870
28420 56840
20217 40434
41580 20790
7745 15490
48458 24229
1578 3156
11373 22746
2898 1449
54011 27005
3842 1921
2807 5615
2776 5553
2131 4262
9351 18702
25912 51825
44529 22264
53883 26941
54209 27104
66654 33327
31681 15840
19411 9705
19034 9517
27032 54064
41024 20512
22839 11419
59723 29861
4048 2024
12240 6120
21477 10738
21070 42141
17722 8861
7589 3794
7012 14024
19523 39047
12815 25630
15208 30416
130 260
30556 15278
31160 62321
31073 62147
6806 3403
14806 29613
61651 30825
22819 45639
15509 31018
52083 26041
12659 25319
5829 11659
44353 22176
30044 60088
66405 33202
18183 36366
27120 54241
20473 40947
11937 23875
20366 40733
51711 25855
17001 34002
16166 32333
22692 45384
20157 40314
32723 16361
32156 64313
13169 26339
13034 26069
32489 16244
58074 29037
30832 61665
40429 20214
2707 5415
214 429
55062 27531
2132 4265
38512 19256
42927 21463
34482 68964
30966 61933
33817 67634
9275 4637
40260 20130
13060 6530
50475 25237
25892 51785
52716 26358
65625 32812
7107 14214
44129 22064
3639 7279
22533 45067
16568 8284
7828 15657
26837 13418
20582 41165
3175 1587
22778 11389
17386 34772
23311 46622
42466 21233
48569 24284
8909 17818
2140 1070
6223 12446
40043 20021
15351 30702
16910 8455
16343 32686
3456 6913
14305 28611
14222 7111
23381 46762
6128 3064
12306 24612
22200 44401
37194 18597
56874 28437
34494 68989
58337 29168
14981 29962
21079 42159
67421 33710
14710 29421
15226 7613
16115 32230
34360 68721
34320 17160
17021 8510
26878 53757
12487 24975
15313 7656
39159 19579
29211 58422
12307 6153
25883 51767
13641 6820
7577 3788
12277 24554
18020 36041
55908 27954
42224 21112
12264 24528
21412 42824
466 233
16548 33097
28368 56737
32456 64912
20340 10170
28213 56427
55872 27936
34189 68378
4359 2179
1475 2950
25032 50065
33607 16803
6770 13540
3069 6138
8632 17264
48978 24489
2339 1169
22765 45531
22158 11079
22089 11044
35773 17886
8118 4059
21328 42656
7891 15783
41056 20528
25098 50196
10446 20893
24594 49189
717 358
3224 6449
10768 5384
24442 48884
18475 9237
3242 1621
5778 11556
12444 6222
27727 55454
7351 14703
23518 47037
7650 15301
11057 5528
31444 62888
10627 21254
740 1480
27727 13863
7236 14472
61960 30980
3052 6104
13180 26360
32915 65831
46639 23319
8588 17176
22397 44795
30738 61476
25173 12586
3387 6775
5829 2914
32948 65896
18937 37874
53728 26864
5894 11788
33115 66230
14674 29349
32146 64292
23472 46945
30929 15464
23155 46311
53620 26810
1537 3074
5302 10604
9671 4835
5763 11527
28643 14321
32837 16418
10300 5150
34923 17461
42276 21138
17840 35681
8166 16333
53702 26851
59871 29935
21565 10782
19698 39397
13522 6761
43921 21960
6420 12840
67662 33831
28609 57218
12314 24628
35255 17627
3617 7235
37779 18889
32619 65239
14141 28282
22551 45103
9740 19480
8908 17816
23972 47945
12018 24036
41543 20771
8859 4429
58821 29410
3517 7034
5259 10518
4082 8165
68503 34251
7073 3536
36625 18312
26663 53326
62684 31342
1755 3510
23188 46376
8573 17146
27303 54606
8898 17797
5914 11828
1071 2143
28029 14014
18959 37919
55051 27525
37063 18531
28643 57286
40582 20291
17707 35414
28026 56053
20034 40068
7717 3858
3718 1859
9742 19484
28258 14129
24163 48326
5565 2782
30600 15300
27768 55536
743 1486
55607 27803
61684 30842
19443 9721
18308 36616
3193 6387
50707 25353
13314 26629
4769 9538
5949 2974
31936 63873
24923 49847
5632 11265
17028 8514
3999 7999
62410 31205
18907 9453
64785 32392
56661 28330
5193 10387
5043 10087
17109 34218
22953 45906
26898 53796
26305 52611
10794 5397
51799 25899
33066 16533
24135 48271
59708 29854
16414 32828
12219 24438
52730 26365
5935 2967
4510 2255
1969 3939
7014 14029
24824 49649
11401 22802
13462 6731
68402 34201
14663 29327
33850 67701
19340 38681
68853 34426
28534 57068
43713 21856
7888 3944
27898 55797
13726 27452
8569 17139
24919 12459
1228 2457
17640 35280
22908 45817
27057 54114
28694 14347
33478 66956
3307 1653
39241 19620
11744 5872
21805 43611
22180 11090
26364 52729
29390 58780
57604 28802
4194 2097
2490 4981
26698 53397
4242 8485
399 199
16991 33983
4374 2187
31724 63449
31972 63945
48608 24304
34613 69226
11293 22587
52425 26212
32626 16313
1136 568
34297 68595
1794 3588
10335 5167
8751 4375
66789 33394
42915 21457
8084 16168
66351 33175
51536 25768
26481 52962
45954 22977
13774 27548
10062 20124
3206 6412
23769 47538
35956 17978
25944 12972
14206 28413
28997 57995
40342 20171
13565 6782
10946 21893
25202 50405
12196 6098
14409 28819
40170 20085
19506 39013
6792 3396
30641 15320
26794 53589
19566 9783
24188 48377
13750 6875
5036 2518
65554 32777
39897 19948
25484 50968
24544 49089
23074 46149
50978 25489
6423 12846
16350 32700
27277 54555
19956 39913
5182 10365
60592 30296
14329 7164
22971 11485
29627 14813
11673 23347
17724 8862
2454 1227
15322 30644
11353 5676
3664 7328
12613 25227
17915 35830
58720 29360
15496 7748
51631 25815
26634 53269
2005 4011
27915 55831
61824 30912
15149 7574
30824 15412
67013 33506
69119 34559
64705 32352
32344 64689
52979 26489
239 479
22217 44435
61247 30623
11713 5856
42342 21171
68796 34398
46363 23181
60375 30187
40222 20111
53503 26751
66561 33280
23701 47403
26053 52107
3760 7520
62307 31153
14266 28532
18381 9190
48408 24204
28810 14405
15896 31793
125 62
24616 12308
31882 15941
29930 14965
26470 52941
52420 26210
42871 21435
35276 17638
30238 60476
2730 1365
6333 12666
28278 14139
5027 2513
41561 20780
21988 43977
4624 2312
17298 34596
28162 56324
50969 25484
7708 3854
60306 30153
31597 15798
35106 17553
37612 18806
40322 20161
408 817
10859 21718
12710 25420
31473 15736
8667 17334
16948 33897
15577 31154
22669 45339
16475 32951
23729 11864
16966 33933
24726 49453
46152 23076
2042 4084
21017 42034
20834 41668
13792 27584
28978 14489
9703 19407
16360 32721
54413 27206
9238 4619
38112 19056
2241 4482
29034 58068
19867 39734
29888 59776
68512 34256
29090 58180
34130 68260
45484 22742
16706 33413
18031 36062
8880 17761
9174 18348
7564 3782
12070 24140
33235 16617
15618 31236
25782 12891
9055 18110
20860 41721
42206 21103
17535 8767
25735 51470
4478 8956
66520 33260
23692 47385
2914 1457
32277 64554
3000 6001
34753 17376
18052 36105
21383 42766
66475 33237
5331 10662
19229 38459
51877 25938
5185 2592
50739 25369
30506 15253
34154 68309
20202 40405
26272 13136
13347 26694
5100 10201
18028 36057
45069 22534
23773 47546
30698 61397
23119 11559
24507 49015
32371 64742
49889 24944
25277 12638
14064 28128
64566 32283
9287 18575
46366 23183
47109 23554
8621 4310
31246 62493
52563 26281
12219 24439
17907 35814
27542 55085
17137 34274
23454 11727
12544 25088
34241 17120
47092 23546
32230 64461
20419 40839
8172 4086
40716 20358
34829 17414
5294 10589
22188 44376
23476 11738
26908 13454
5789 11578
9614 19229
6148 12296
37840 18920
51837 25918
28023 56046
33022 66045
2875 1437
24366 48733
10804 21609
2756 5513
12226 24453
13238 6619
68929 34464
65384 32692
16897 33795
44144 22072
45895 22947
15118 30236
20181 40363
68324 34162
14304 28609
19927 9963
4249 8499
3977 7955
68968 34484
36793 18396
11971 23942
10027 5013
11481 22963
34551 69103
16363 32726
11180 22361
32722 65444
51317 25658
30221 60443
18053 36107
15118 7559
17801 8900
60132 30066
36507 18253
59088 29544
41603 20801
14911 29822
10169 20338
52558 26279
56748 28374
18735 37470
53237 26618
13614 27229
23581 11790
60849 30424
68490 34245
40344 20172
5096 10192
17709 35419
24105 48211
4732 9465
23564 47128
53749 26874
2400 4800
34029 17014
13311 26623
29551 59103
24763 12381
56916 28458
4068 2034
18643 37287
28837 14418
23261 46522
3595 7190
21181 42362
52193 26096
38938 19469
3464 6928
559 279
732 1464
12773 25547
6540 13080
33152 16576
52713 26356
26285 52571
48200 24100
26118 52237
32820 65641
47959 23979
16820 8410
16884 33768
16918 33837
12254 24509
15504 7752
18635 37270
24545 12272
54107 27053
27309 54619
29369 58738
673 336
32288 64576
1904 3809
3616 7232
22107 11053
4603 9206
27271 13635
35400 17700
28340 56680
10910 21820
39428 19714
26778 13389
24427 48855
15311 30623
10117 20235
31677 15838
67176 33588
41144 20572
45247 22623
14 28
30831 61663
21773 43546
6428 3214
29978 14989
2212 4424
16202 32404
7921 15842
66682 33341
46435 23217
1584 792
21476 42952
11809 23618
8739 4369
24628 49256
67585 33792
68102 34051
28000 56000
55857 27928
28760 57520
16815 33630
36273 18136
25948 51897
11139 5569
31158 15579
27479 13739
17831 35663
35149 17574
40079 20039
16423 32847
1418 709
18407 9203
14619 7309
2094 4189
34805 17402
841 1682
71 35
64482 32241
3032 6065
18130 9065
26192 52384
38286 19143
4995 9990
27272 54545
6184 3092
31210 62421
7194 14389
25066 50132
21659 43319
750 375
17040 8520
62780 31390
7355 14711
25654 51308
65807 32903
24847 49694
34628 69257
52333 26166
17956 8978
20941 10470
4550 2275
24941 12470
20074 40149
6567 13134
24351 48703
32909 16454
31520 15760
15304 7652
3020 1510
29349 58698
248 124
16368 8184
3950 7901
20675 10337
54744 27372
31919 15959
36561 18280
67215 33607
25429 12714
8950 4475
20350 40700
34216 68432
18420 36840
22656 11328
28272 14136
22196 44392
10132 5066
32490 64981
26686 53373
15372 7686
45478 22739
65804 32902
10909 21819
804 1608
26496 13248
3909 1954
27962 55925
9789 19579
21227 42455
12625 6312
22228 44457
3975 7951
33576 67152
23727 11863
11365 22731
18945 9472
6440 3220
18175 9087
17404 34809
66265 33132
56887 28443
14210 28421
10578 21157
22635 11317
59527 29763
7822 15644
16416 32833
66286 33143
21546 43093
32648 65297
11238 22476
21511 43022
32585 65171
24284 48568
65874 32937
57697 28848
4096 8192
34073 68146
20706 41412
32943 65886
17587 8793
46770 23385
14922 7461
17182 34364
23577 47154
430 861
32600 65200
65072 32536
20608 41217
13998 6999
42158 21079
17739 35478
58975 29487
57355 28677
4060 2030
61081 30540
25219 50438
63974 31987
50537 25268
8723 17446
10109 5054
19426 9713
32569 65138
17107 34215
28441 56883
12883 25767
40028 20014
29497 14748
9601 4800
5910 11820
17927 35854
12665 25330
23621 47242
40417 20208
12143 6071
17189 8594
17195 34391
46408 23204
16352 32704
27031 54062
65467 32733
46375 23187
10744 5372
17687 35374
59022 29511
33684 67368
25807 12903
60090 30045
51364 25682
16743 33486
49456 24728
15407 30814
6913 13826
14955 7477
61112 30556
67492 33746
11212 22424
66033 33016
20853 41706
25534 12767
7044 3522
28047 56094
29771 14885
23820 47641
4293 8587
68529 34264
19188 38376
33060 16530
30354 15177
25999 51999
35282 17641
25449 12724
34173 68346
36059 18029
37541 18770
42394 21197
51039 25519
13575 27151
23124 46249
7763 3881
4005 2002
1178 589
26350 52701
15555 31110
19127 9563
54883 27441
14072 7036
60458 30229
61578 30789
26995 53990
27038 54076
31681 63363
16881 8440
55076 27538
5418 10836
12995 6497
19075 38150
59160 29580
27273 13636
30921 61843
22321 44643
23683 11841
32340 64680
15660 31321
36779 18389
32357 64714
27545 55091
21362 10681
3809 7618
3884 7768
1408 704
34975 17487
6981 13962
48702 24351
30637 61274
7450 14900
17599 35198
33156 16578
48452 24226
1789 3578
7052 14105
36732 18366
442 885
31831 15915
33386 66772
34366 68732
17941 35883
29231 14615
65529 32764
15250 30501
8725 17451
12564 6282
61141 30570
6992 13985
7924 15848
53006 26503
53812 26906
26394 52788
20633 41266
6105 12210
4538 2269
67586 33793
33539 16769
20464 40929
21938 43877
54544 27272
7212 3606
9546 19092
58144 29072
10742 5371
25316 50633
57001 28500
13912 6956
64590 32295
30869 61738
3080 6160
34391 68783
1090 2181
15545 7772
27995 55991
3922 7844
32495 64991
6276 12552
28883 14441
6663 3331
12799 25599
22648 11324
27174 13587
9002 18004
40931 20465
4762 9524
66952 33476
68757 34378
1742 3484
7768 15536
36031 18015
6752 3376
7246 3623
25139 50279
30115 60231
3911 1955
11070 5535
16792 8396
29486 58973
25832 12916
30555 61110
22678 45357
51650 25825
4851 9703
60003 30001
67484 33742
23045 46091
29986 59973
16052 32105
6995 13990
12998 6499
4318 2159
26929 53859
25326 50652
14665 29330
16673 33346
25009 50018
17143 34286
21729 10864
8942 17884
23958 47917
13987 27975
13553 27106
19985 9992
3030 6060
9035 18071
31803 63607
31453 62907
16401 8200
28044 14022
17759 35518
22676 45353
56143 28071
16259 32519
12842 6421
31985 63971
24799 49599
42679 21339
3163 6326
45166 22583
8939 17878
2748 5496
29970 14985
25103 50206
6424 3212
44339 22169
11879 23759
45441 22720
5034 2517
47647 23823
64200 32100
33722 16861
42856 21428
50461 25230
5669 2834
27691 55382
2098 4196
25085 50171
61527 30763
28531 57063
158 316
11848 23697
19040 38081
24659 49319
11326 22652
30805 61610
14196 7098
32702 65405
10953 21907
389 194
9793 19587
49566 24783
7104 14208
21586 10793
2144 4288
53670 26835
22666 45332
328 657
48037 24018
22886 45773
55398 27699
20205 40410
12302 6151
12213 24427
14634 7317
9140 18281
65312 32656
2673 5347
16948 8474
40620 20310
10806 21613
5276 2638
17214 34428
5531 11063
61285 30642
18206 9103
55862 27931
6502 3251
16127 32254
1504 752
5900 2950
25961 12980
18662 37325
62312 31156
24430 48860
14868 7434
8745 17490
18224 36448
2435 4870
15833 7916
20733 41466
32491 16245
2355 4710
34335 68670
25963 51927
61743 30871
50820 25410
33422 16711
24443 48886
14510 29020
34154 68308
18820 37641
40913 20456
7199 14398
13668 27336
476 953
7984 3992
235 117
65248 32624
25810 51620
19725 39451
27709 55418
27390 54781
21537 10768
34396 68792
19905 39810
59343 29671
6656 13312
30261 15130
3706 7412
16450 32900
2293 4587
19580 39161
2956 1478
17982 8991
42691 21345
51692 25846
23372 46744
11205 5602
56947 28473
18004 36008
29289 58578
14859 7429
24577 12288
65527 32763
43561 21780
1033 516
15057 7528
42000 21000
5931 11862
10227 20454
29119 14559
1984 992
38149 19074
35751 17875
55107 27553
2352 4704
27384 13692
22569 11284
25605 51210
25646 12823
51050 25525
26450 13225
11763 23526
31479 62958
46841 23420
24905 12452
20395 10197
54462 27231
12732 6366
13787 27574
31306 62612
11172 22344
32857 65715
3263 1631
20379 10189
13157 26315
58257 29128
21601 10800
9239 18479
49017 24508
21945 43890
8549 17098
25128 50257
17652 35304
10705 21411
61564 30782
55475 27737
31249 62499
18840 9420
43545 21772
64394 32197
28219 56439
52639 26319
9425 18850
30161 15080
58283 29141
37539 18769
25819 51639
21613 43227
19316 38633
1229 614
31053 62106
1115 2230
6710 13420
7366 14733
50639 25319
21753 43506
22181 44362
23564 47129
21172 10586
3052 6105
53329 26664
30949 61898
5287 10574
9015 4507
30679 61358
40857 20428
2647 5295
49462 24731
67357 33678
51139 25569
4413 8827
12120 24240
33508 67017
15183 30367
27594 13797
47601 23800
9589 19178
14456 7228
10204 20408
25031 12515
1628 3257
8859 17719
58856 29428
25703 51406
21581 10790
27220 54441
49129 24564
31939 63879
17152 34304
5792 11585
25629 51259
30729 61458
1266 2532
26931 53863
24091 12045
18894 37789
9043 18086
33173 16586
13538 6769
28596 14298
5057 10114
24097 48194
23180 46360
14111 28222
15467 7733
32848 65696
31843 63687
44855 22427
32195 16097
22428 44856
13223 6611
16606 8303
32936 65873
16518 33036
30519 61038
12838 6419
27258 54517
37381 18690
52313 26156
32643 16321
42052 21026
20263 10131
26737 53475
59970 29985
41796 20898
2396 1198
19242 9621
36467 18233
7608 15217
13005 26011
14138 28276
54723 27361
5698 11396
30164 60328
66452 33226
12035 24071
33451 16725
53547 26773
29460 14730
16916 8458
20288 40576
65293 32646
2161 4323
29927 14963
39384 19692
29047 58095
48495 24247
50539 25269
31915 63831
27320 13660
54549 27274
7911 3955
11124 22249
65009 32504
29509 14754
25416 12708
66267 33133
59389 29694
3612 7224
62542 31271
8436 16872
53041 26520
28432 56864
8057 16115
6697 13395
1516 3032
52480 26240
5277 2638
2530 5061
2824 5649
29024 58048
25388 12694
10977 21954
10770 21540
10126 20252
62486 31243
28030 56061
18982 37964
37770 18885
20570 10285
33945 16972
2483 4967
32478 64956
55021 27510
445 890
57566 28783
64125 32062
52527 26263
8030 16060
30603 61207
1371 2743
67208 33604
49284 24642
69315 34657
30513 61027
14812 29625
5411 2705
2633 5266
7122 14244
68364 34182
6809 13619
15880 31761
34088 68176
26758 13379
64918 32459
21277 42554
32253 64506
34287 17143
33381 16690
5240 2620
18321 36642
26320 13160
32747 16373
4772 9544
47828 23914
65438 32719
8692 17384
24032 12016
864 1729
33592 16796
4670 2335
21347 42694
20354 10177
19967 9983
26768 53537
4086 2043
45490 22745
43729 21864
55016 27508
54768 27384
66679 33339
42642 21321
33084 66169
30217 60435
1038 2076
31544 15772
31730 15865
14888 7444
27408 54817
11718 23437
19910 39820
27255 54511
34256 17128
21756 43512
23228 11614
57335 28667
33237 66474
61414 30707
30177 60354
38026 19013
49620 24810
18665 9332
729 1458
25819 51638
25222 12611
12747 25495
31142 62284
11522 23045
13573 6786
9631 19262
34246 68493
23864 11932
56534 28267
30053 15026
622 1244
26130 52261
25552 12776
31670 15835
1360 680
4784 9568
5264 10529
27970 55940
52549 26274
22516 11258
58839 29419
13871 27743
27794 13897
9272 18545
25487 12743
54051 27025
8494 4247
24101 12050
23019 46039
2244 4489
6096 12192
27914 13957
15938 7969
51275 25637
373 186
24002 12001
4578 9157
9001 4500
7092 3546
16199 32399
26909 13454
15737 31474
6307 3153
29760 59520
11357 22715
35056 17528
17439 8719
25360 50720
25419 50839
19521 39042
22242 44484
21385 42771
20490 10245
25935 51870
34239 17119
50826 25413
10507 5253
9192 18385
31102 62204
66692 33346
7638 3819
19717 39435
36786 18393
5875 2937
6037 12075
3352 1676
30827 61655
15936 7968
52182 26091
10976 21952
21352 10676
4657 9314
14819 7409
1299 649
11254 5627
3554 7109
10224 5112
29009 14504
26726 53453
9815 19630
38147 19073
26439 13219
30077 15038
12751 25502
14381 28763
6583 3291
9041 18083
28658 14329
2758 5517
22102 44204
55349 27674
32362 64724
19439 38879
35170 17585
19967 39935
68280 34140
46654 23327
24573 49146
8198 16397
61868 30934
4269 2134
18480 36961
13088 6544
1184 2368
13532 27065
59019 29509
2635 1317
28355 14177
14444 28889
37300 18650
18205 36411
27367 54734
32174 64348
18851 37702
56440 28220
2452 1226
10480 20960
495 990
56810 28405
20711 41422
31390 62781
14455 28911
64098 32049
50238 25119
29309 58619
23098 11549
23357 11678
33403 66806
55850 27925
10549 21099
23346 11673
21762 43524
26266 52532
8348 4174
33645 67290
6408 12817
11806 23612
6595 13190
6687 13374
6965 3482
16014 32028
30368 15184
2419 4839
22821 45643
32301 16150
923 461
52462 26231
31398 15699
26511 13255
33821 67643
25465 12732
27745 55490
18953 9476
39234 19617
11621 23243
62644 31322
6470 12941
21915 10957
19179 38358
24805 49610
23853 47706
47705 23852
6119 3059
26745 53491
65973 32986
445 222
48278 24139
60035 30017
5274 10549
14909 29818
32996 65992
60557 30278
17500 35000
37102 18551
16892 33784
14505 29011
25969 51938
26375 52751
35017 17508
29915 59830
16572 8286
13896 27793
35095 17547
13501 27003
2096 1048
33029 66058
55063 27531
21921 10960
18707 9353
22783 45567
52983 26491
18971 9485
8814 17628
23830 11915
33349 66698
35809 17904
12541 25083
27758 55516
2153 1076
63173 31586
65437 32718
29580 59161
26003 13001
55301 27650
19451 38902
45228 22614
66223 33111
33543 16771
17774 8887
6528 13056
24689 12344
63859 31929
24267 12133
35190 17595
48437 24218
25318 50636
30847 15423
62148 31074
3606 7213
551 1102
32300 16150
1767 3535
19733 9866
26430 13215
21653 10826
13957 27915
54325 27162
9093 18187
62039 31019
55600 27800
1861 3722
919 459
6435 3217
26733 13366
49572 24786
6393 12787
63123 31561
14339 7169
32640 65280
19625 39250
22753 45507
20862 10431
24336 48673
26760 53520
33299 66599
62074 31037
29280 14640
25320 50640
6717 13435
33640 67281
63617 31808
25247 12623
44738 22369
42252 21126
2091 1045
11629 23259
4957 2478
25401 50802
31703 63406
21777 10888
12377 24755
37496 18748
31968 63937
20864 41728
23625 47251
36987 18493
47666 23833
32606 65213
19146 38293
5424 2712
20129 40259
48788 24394
19531 39062
30047 15023
64690 32345
57531 28765
2656 5312
22164 11082
1162 2325
5804 2902
14234 7117
44427 22213
20055 10027
4636 9273
40871 20435
58237 29118
26552 13276
28317 56634
31710 63420
27836 13918
2658 5317
3819 1909
23099 11549
9879 19759
15238 30477
3137 6275
26645 53290
32624 16312
14281 28563
52904 26452
10358 20716
14764 29528
10324 20648
2352 4705
16579 33159
54988 27494
6557 13115
55874 27937
30081 60162
53389 26694
30160 60320
7801 15603
23552 11776
25867 51735
59953 29976
30389 15194
2841 5683
1625 812
50593 25296
44956 22478
4275 8550
40425 20212
43314 21657
23530 47060
5491 10982
47958 23979
26513 13256
5715 11431
50960 25480
24266 48532
57915 28957
67312 33656
22024 11012
4782 9565
44997 22498
21374 10687
8492 4246
10542 21084
12794 25588
16092 8046
3337 1668
22602 45205
62234 31117
10707 21414
35857 17928
49430 24715
27797 55595
19715 9857
19305 38611
62832 31416
42687 21343
6067 12134
535 267
14035 7017
31865 15932
49279 24639
18527 37054
8402 4201
1400 2800
13558 27116
50464 25232
12172 24345
9838 19677
1702 3404
26022 52045
6565 13130
22228 11114
8048 16096
9393 4696
56438 28219
11280 22561
27887 55775
4653 9307
27029 54059
27930 55861
45863 22931
54495 27247
25308 50617
57346 28673
14361 28722
30488 60977
51194 25597
34775 17387
63916 31958
21399 10699
27386 54773
59301 29650
66432 33216
33603 16801
9517 19035
2642 1321
60042 30021
31753 63507
23156 46313
20349 40698
24685 12342
11700 23400
3188 6377
5263 2631
12320 24641
11453 22907
26574 13287
17813 35627
3826 7653
30004 60009
36492 18246
59737 29868
60862 30431
63393 31696
13170 26340
22372 11186
22617 45235
20867 41735
9809 19619
927 1854
714 357
31795 63591
1153 2306
28132 56265
22654 11327
27243 13621
51170 25585
28498 14249
61991 30995
43326 21663
2859 5719
45196 22598
15744 7872
27492 54984
1226 613
39766 19883
13003 26006
32395 16197
12791 25583
22105 44211
64391 32195
15300 30601
29972 14986
35328 17664
35626 17813
25233 50467
33655 67311
52340 26170
27258 54516
4872 9745
21645 43291
21600 10800
16956 33912
23233 46466
17612 35225
88 177
10128 20257
31125 62251
9655 4827
25390 50780
10216 5108
26089 52179
62647 31323
15650 7825
50853 25426
13250 26501
24636 49273
25805 51611
60709 30354
2130 1065
35577 17788
34223 68447
2257 4515
24778 49556
17744 35489
19344 9672
57337 28668
4609 2304
21178 42356
21480 42961
41137 20568
11572 23144
27001 13500
59 119
12487 24974
6335 3167
56984 28492
63921 31960
12817 25635
22626 45253
20523 41047
1687 3375
49539 24769
16249 32499
47725 23862
11841 23682
29044 58088
21263 42526
9669 19339
17721 35443
60666 30333
18976 9488
29410 58820
24051 12025
23371 11685
19533 39067
12493 24986
13222 6611
1496 2992
26657 53314
35179 17589
61822 30911
12473 24947
53848 26924
7371 3685
25327 50654
38206 19103
26708 53416
7292 14584
26982 53965
21780 43560
40847 20423
22647 45294
13925 27850
18458 36916
27647 55294
11162 22324
40326 20163
15263 7631
53340 26670
30498 60997
1896 3793
33227 66455
47193 23596
42557 21278
17757 35515
18450 9225
10318 5159
42637 21318
11030 22060
34529 17264
22351 44703
56703 28351
18902 37804
10283 20566
32953 16476
34621 69242
33838 67677
4228 8456
15505 31010
29237 14618
29322 58644
33641 67282
14086 28172
24961 49922
8222 4111
32213 64426
16201 8100
60092 30046
39014 19507
68445 34222
35380 17690
19099 9549
64521 32260
30746 61492
24106 12053
5786 2893
5857 11715
37835 18917
29221 58442
26974 53949
20965 41930
29483 14741
45068 22534
940 1881
32639 65279
20282 40564
412 824
32185 64371
30184 60368
29480 14740
33896 67793
14815 29630
7788 3894
45396 22698
26469 52938
41017 20508
30505 15252
30679 15339
19662 39324
9545 19090
31260 15630
6562 3281
13309 6654
52529 26264
47493 23746
29301 58603
34211 68422
34334 68668
26254 52508
29643 14821
30464 60929
11515 5757
22319 11159
27964 55929
25097 50195
7679 3839
29631 14815
30247 15123
45150 22575
22960 45921
23990 47980
55728 27864
24469 12234
13396 26792
41070 20535
43788 21894
3636 7272
888 1776
26488 52976
23017 11508
21014 10507
7251 14503
9354 18708
6194 12388
64365 32182
7902 15805
30390 60781
22273 11136
60175 30087
57780 28890
12425 6212
21273 42546
22449 44899
10967 5483
20212 10106
17479 34959
62959 31479
31511 63023
5805 2902
13250 26500
14930 29860
12467 24934
20111 10055
11752 23504
14941 7470
50850 25425
18638 37277
26260 52520
54336 27168
1629 814
20597 41194
9204 18409
3120 6240
4396 8792
25236 12618
38346 19173
28789 57578
11702 23405
19654 9827
17683 8841
21068 10534
19076 9538
12673 25347
30363 60726
20571 10285
11537 5768
22275 11137
14184 28369
46142 23071
7568 3784
16856 8428
16623 33246
20693 41387
32810 65621
46037 23018
13882 6941
33443 66887
3070 1535
24040 12020
13020 26041
3318 1659
19921 9960
26990 53980
24743 49487
39360 19680
46519 23259
12258 6129
22358 44717
59364 29682
30639 61279
11921 23842
66624 33312
5034 10069
23011 46022
26575 53150
10054 20109
8970 4485
8398 4199
14637 29275
15861 31722
14309 7154
35063 17531
9927 19855
4674 9348
2345 4691
24904 12452
49814 24907
5453 10906
9552 19104
55080 27540
18913 37826
24286 48573
51005 25502
27738 55477
6862 13725
3664 7329
13788 27577
43982 21991
675 1350
7677 15355
24608 49217
10577 21154
43263 21631
16752 33505
54865 27432
32736 16368
2502 5004
36355 18177
18834 37668
31800 15900
31986 63972
24442 48885
30042 60085
11537 23074
21747 43495
28748 14374
56597 28298
33185 16592
11465 22931
5804 11609
5556 11112
38383 19191
5011 2505
1495 2990
16804 33609
2198 4397
9911 4955
3593 7187
7636 15273
12047 24095
25621 12810
30499 60998
24623 12311
21695 43390
22984 45968
29929 59858
22162 44324
5808 11616
2798 1399
7129 14259
14684 29369
38047 19023
64397 32198
29508 59017
31855 63710
3758 1879
49557 24778
43623 21811
39198 19599
24961 49923
46970 23485
6398 12796
31801 15900
9197 4598
6388 12777
12268 24536
31059 62118
25327 12663
24247 48494
22417 44834
25780 51561
14717 29435
43749 21874
12004 6002
10898 21796
9865 19730
8078 4039
27300 54600
6798 13596
1761 3523
18057 36114
45970 22985
9900 19800
19328 9664
25006 50012
34280 68560
14323 7161
60334 30167
12008 6004
26500 53000
29443 58886
41400 20700
17265 8632
3986 1993
18217 36435
10929 5464
13502 27004
4375 2187
27799 13899
24390 48781
43370 21685
30064 60129
46111 23055
33778 67557
26933 53867
66233 33116
26187 52374
41373 20686
24329 48658
48659 24329
30526 61053
17307 34615
2011 4022
10209 20419
29303 58606
5324 10648
25057 12528
42048 21024
4635 2317
27252 13626
6849 13698
22767 11383
9625 4812
52158 26079
16564 8282
47551 23775
34943 17471
29442 58884
32086 16043
5243 10486
21452 42905
58745 29372
60728 30364
44893 22446
12361 24722
47579 23789
60000 30000
25395 50791
20512 41025
20045 10022
27714 13857
28319 14159
54986 27493
51987 25993
25967 51934
12040 24080
7097 14195
46350 23175
61712 30856
65211 32605
33067 66135
61612 30806
523 1047
7223 3611
52849 26424
37730 18865
22993 45987
54765 27382
7018 14036
64282 32141
52622 26311
31809 63618
18535 9267
40316 20158
7309 14618
6279 12559
44330 22165
28946 57893
31973 63946
28122 14061
57287 28643
43183 21591
29860 59721
31051 62102
27135 13567
61479 30739
1814 3628
28292 56585
63344 31672
54240 27120
2178 4356
24503 49006
19175 38351
4002 8004
57677 28838
30645 61290
20061 10030
25010 50021
6766 3383
21703 10851
28724 57448
20541 41082
1457 2915
29348 14674
68781 34390
28896 57793
16930 33861
41089 20544
5074 10149
29405 58811
11268 5634
33892 67784
41870 20935
31396 62792
53628 26814
14571 29142
27257 54515
6760 13520
61799 30899
5465 10930
24875 12437
24179 12089
9508 19016
19475 9737
25254 12627
14350 7175
34278 17139
24932 49864
5794 11588
14449 7224
55171 27585
10614 21228
2370 4741
5261 2630
10567 5283
19837 9918
29353 58706
28228 56457
45287 22643
64586 32293
12378 6189
22365 44731
57950 28975
11558 23117
28872 57744
11554 23109
4421 8843
6518 13037
26031 13015
22147 44294
23167 46335
3211 6422
33955 67911
30321 15160
3252 6505
27618 13809
16085 32171
19934 9967
61450 30725
10211 5105
3447 6894
31373 62747
38195 19097
39279 19639
52559 26279
29537 59074
18680 37360
20896 41792
13059 26119
15286 30573
18802 9401
1242 2484
13332 6666
49138 24569
54199 27099
52001 26000
14227 28455
28177 56354
30828 61657
8183 16366
18666 9333
3901 7803
44220 22110
58741 29370
32225 16112
22499 44998
40689 20344
4311 2155
26939 13469
38542 19271
30009 15004
10724 5362
55882 27941
11085 22170
18683 37367
11702 5851
10792 5396
19729 9864
14048 7024
65631 32815
27804 13902
26822 53644
51355 25677
19549 9774
12266 6133
50607 25303
29648 59297
59645 29822
47720 23860
5956 11913
18310 36621
34593 17296
51201 25600
20346 40693
25986 51973
68690 34345
12592 6296
14292 28585
49562 24781
51386 25693
13428 26856
1946 3893
6010 3005
31664 63328
8207 16415
9405 18810
9118 18237
22772 11386
28232 56464
14030 28061
3026 6052
50987 25493
68819 34409
26186 52373
17905 35810
47029 23514
16141 32283
7123 14246
22164 44329
16328 8164
5358 10717
29439 58878
33375 16687
20394 40788
32395 64790
6978 13957
42524 21262
46024 23012
12584 25168
3154 6309
2214 1107
2397 1198
15984 7992
15229 30458
67005 33502
13071 26143
59062 29531
9626 19252
41794 20897
13879 27758
3689 1844
8213 16426
42762 21381
5912 2956
25608 51217
43483 21741
69002 34501
50693 25346
585 1171
39074 19537
57314 28657
51499 25749
22381 44763
7404 14809
39679 19839
2208 1104
25084 50169
5526 2763
5319 10638
29965 59931
2095 4190
912 1824
14200 7100
29680 59361
45427 22713
16909 33818
32580 65161
55966 27983
26514 53028
29664 59329
12449 6224
67965 33982
14083 7041
39345 19672
34561 17280
32792 65584
8948 4474
12222 24445
31583 63166
14060 28121
48753 24376
11074 22148
2409 1204
30293 60586
58587 29293
61774 30887
56173 28086
30624 15312
30566 61133
57690 28845
59486 29743
63809 31904
12555 25111
31542 63084
15251 30503
64154 32077
20031 10015
16204 8102
4222 8444
33919 67838
44810 22405
17688 35376
27730 13865
39704 19852
52281 26140
59048 29524
3434 6869
26983 53966
33529 16764
45416 22708
32012 16006
9391 18782
67326 33663
57217 28608
68007 34003
11310 22621
2564 5128
3913 1956
7451 14902
55701 27850
15301 30603
4054 8109
6322 3161
46585 23292
32425 16212
29209 58418
1376 2753
40138 20069
25111 50222
30501 61002
64344 32172
28395 56791
43616 21808
23090 46181
12589 25179
31087 62174
14177 7088
20643 41286
19515 9757
20898 41797
59212 29606
31068 15534
1165 582
26554 53108
58319 29159
11781 5890
6348 12697
1821 3643
16230 32460
28646 57292
32381 16190
29180 14590
15001 30002
25313 12656
11469 22939
50395 25197
28651 14325
18027 36054
722 1445
46587 23293
14641 29283
23708 47417
12118 24237
68035 34017
18755 9377
49148 24574
286 143
179 359
2719 5438
30263 15131
48621 24310
36472 18236
24533 49066
3838 7677
5869 11739
1935 967
8411 16822
10997 21995
36956 18478
64294 32147
13519 27039
63734 31867
66006 33003
59833 29916
27046 54092
3269 1634
41567 20783
11202 22405
32797 65595
24449 48899
4823 9647
39492 19746
19209 9604
13387 26774
32190 64381
30701 61402
33354 66708
41500 20750
10053 5026
24608 49216
21287 42575
46830 23415
11991 23983
52721 26360
11849 23698
65898 32949
10426 5213
2282 4564
1705 3410
12680 25360
23807 11903
21963 43926
9361 4680
28470 14235
39125 19562
33179 66358
54943 27471
45966 22983
15337 30674
54222 27111
28522 57045
32924 65849
29602 14801
43285 21642
40844 20422
4319 8638
16986 8493
10456 5228
52129 26064
17000 8500
7108 14216
23906 47812
15007 30015
20912 10456
16470 32940
34619 69239
38596 19298
67036 33518
24191 48382
22980 11490
24741 49483
36081 18040
26773 13386
4613 9227
8868 4434
17445 8722
20806 41612
52315 26157
1209 2419
12207 24415
17720 35441
7378 3689
25514 51028
21099 42198
26715 53431
15588 7794
9819 19639
4841 9682
40348 20174
18785 37570
8196 16393
7797 15594
14591 29183
6255 12511
17488 8744
3737 7475
24624 49249
31751 63503
26380 52760
20600 10300
5438 10876
47089 23544
30478 15239
46040 23020
469 939
32434 64868
41241 20620
23345 11672
18155 9077
12932 25864
36853 18426
49434 24717
4512 2256
67146 33573
17074 8537
30006 60013
4433 8866
31355 15677
26383 13191
19369 38739
68630 34315
48309 24154
47602 23801
16188 8094
8750 4375
29494 58988
31505 15752
30528 61057
24288 12144
2786 5572
17189 34379
55644 27822
64782 32391
4879 2439
9848 19697
5814 2907
31066 62132
28805 14402
14772 7386
526 1052
4440 8880
25965 51930
2579 1289
6083 12167
29688 59376
33154 66309
6651 3325
16520 33040
19601 39202
12218 6109
60048 30024
16196 8098
6299 12599
17793 8896
39007 19503
52090 26045
25122 12561
30487 15243
4583 2291
13296 26592
3768 7537
44681 22340
68044 34022
32578 65157
7176 14352
45890 22945
53798 26899
2907 5815
18746 37492
6778 13557
15184 7592
66406 33203
16459 32919
28671 57342
56608 28304
59195 29597
28901 57803
8269 16539
29997 14998
30880 61761
63031 31515
1187 2375
44698 22349
2933 5866
37854 18927
41983 20991
29107 58215
39522 19761
45177 22588
62552 31276
31132 62264
19360 38721
40095 20047
9576 19153
34156 68313
1093 2186
11126 5563
26214 13107
33434 66869
28964 57928
54557 27278
16728 33456
12845 25691
38332 19166
33400 66800
40277 20138
66411 33205
20940 10470
29033 58067
16325 32650
15661 7830
44566 22283
31983 63966
18739 9369
2589 5178
22377 44754
28389 56778
47515 23757
29505 14752
21301 42603
31217 62434
27572 13786
19453 38907
54856 27428
23487 46975
21730 43460
32313 64627
62345 31172
24718 49437
12785 25570
18497 9248
2159 1079
60979 30489
1958 979
25882 12941
29137 14568
6403 12807
26335 13167
1969 3938
7326 3663
20337 40675
34242 68485
7444 3722
29566 59132
27663 13831
24982 49965
30473 60946
21567 10783
16411 8205
5623 11246
50436 25218
6304 12609
15205 7602
10636 5318
64266 32133
8919 17838
53640 26820
15559 31118
62405 31202
4214 8429
32957 16478
27791 55582
27251 54503
29278 58556
29754 59508
15816 7908
7951 15902
30787 15393
60861 30430
20332 40665
11867 23735
52578 26289
30521 61042
44905 22452
2833 5666
26640 13320
17447 8723
17338 8669
26407 52815
29641 59282
42412 21206
8946 17892
6174 12349
18964 37929
18809 37618
28699 57398
29358 14679
32425 64850
43861 21930
111 222
54348 27174
34042 68085
3801 7602
8128 16256
8393 4196
8278 4139
19524 39049
1432 2864
14589 29178
4458 8917
33826 67652
8743 17487
3774 7549
31721 15860
24472 48944
14188 7094
7785 3892
5643 11286
11418 22836
7636 3818
33105 16552
25569 51138
18671 9335
22141 11070
7390 3695
48640 24320
6823 13647
17734 8867
16295 32591
33016 66032
34242 17121
23808 47616
16053 32107
19046 38093
4215 8431
15754 7877
58572 29286
4341 2170
58611 29305
62195 31097
68591 34295
10394 20789
13933 27866
9860 4930
18766 9383
61805 30902
11916 23833
19580 9790
26518 53037
33276 66553
16030 32060
62109 31054
30919 61838
28956 57913
52556 26278
8387 4193
20449 40899
26814 13407
14783 7391
18027 9013
19047 9523
21658 43317
25373 50746
19176 9588
21836 43673
64718 32359
6980 13961
25809 12904
59350 29675
61557 30778
35346 17673
67807 33903
23419 11709
19282 38565
1015 507
1621 3243
24052 48104
53802 26901
28240 56480
66547 33273
11742 23484
28818 14409
7192 14385
298 597
38967 19483
28644 14322
38103 19051
12888 25776
28702 14351
24090 48180
25862 51724
4443 8887
19763 39526
1250 625
11091 22183
59664 29832
15407 30815
3726 7452
14221 7110
38728 19364
23212 46425
15366 30732
9437 4718
68521 34260
32643 65287
29918 14959
18089 9044
27090 54180
15542 7771
46013 23006
7137 14274
44862 22431
29229 14614
27687 55374
25890 51780
9204 4602
13773 6886
1979 3958
64833 32416
26648 53296
42700 21350
4906 2453
5770 2885
10654 21309
62255 31127
5329 2664
52005 26002
16688 33377
30101 60203
32173 64347
22223 44447
9739 19478
8350 4175
61918 30959
27463 54926
5125 10251
33411 66823
15630 31261
34241 68483
5396 2698
8674 4337
4194 8389
17500 8750
21764 10882
45463 22731
68167 34083
10732 21464
27648 55296
9486 4743
12607 6303
16192 8096
22182 44364
3666 1833
400 200
64377 32188
46052 23026
52548 26274
6866 13733
12343 24687
67029 33514
29535 59071
647 1295
15064 30129
49630 24815
15229 30459
3950 7900
6752 13504
29114 58229
33576 16788
2382 4765
14480 28961
60345 30172
21984 43968
62790 31395
14376 7188
51313 25656
29738 59476
32390 64781
28159 56318
40041 20020
27679 55359
48300 24150
29867 59735
17607 35215
50397 25198
68388 34194
1534 767
61641 30820
17448 34897
49634 24817
7616 3808
26220 52440
26855 53711
28819 57639
60074 30037
55164 27582
33179 66359
3583 7167
21478 42957
12765 25530
3840 7680
15518 31037
62716 31358
18966 9483
27778 55557
25543 51086
23739 47479
18859 37719
24003 48006
32215 16107
25675 51351
8737 4368
32939 65878
36397 18198
20713 10356
34035 68071
14884 29769
1595 3191
19955 39910
68974 34487
19012 38024
26061 52122
216 108
32269 64539
59340 29670
27166 54332
34142 68285
55593 27796
30812 15406
17193 8596
19 9
3392 6785
51108 25554
5736 11473
4273 8546
4943 9887
21707 43414
44458 22229
52533 26266
15043 30086
27254 54508
5468 2734
23049 46099
50848 25424
29731 14865
41309 20654
40284 20142
20586 41172
27901 13950
28792 57584
64771 32385
839 419
5922 11844
23637 47275
17718 8859
61701 30850
49419 24709
18592 9296
13111 26222
26529 53059
10309 5154
58132 29066
62788 31394
14036 28073
9137 18275
22155 44311
15867 31735
33674 67349
65486 32743
54054 27027
2240 1120
62906 31453
18504 37009
36842 18421
29636 14818
17080 8540
1322 661
22730 11365
8072 16145
12357 6178
53957 26978
59917 29958
28207 56415
12959 25918
64337 32168
17985 35971
27391 54782
1766 3532
52895 26447
2659 5319
51908 25954
59248 29624
2314 1157
3023 1511
20180 10090
28584 57169
31412 62825
20881 10440
6400 12800
37684 18842
114 228
40613 20306
31495 62990
10192 20385
55586 27793
9214 4607
30979 15489
15085 30171
50796 25398
8525 17051
59016 29508
19323 38647
35171 17585
19156 38312
11183 5591
57034 28517
32136 16068
1319 659
30282 15141
6133 3066
54850 27425
16522 33044
8787 4393
28670 57340
25642 51284
64036 32018
57311 28655
32700 65400
60264 30132
29792 59584
55700 27850
55402 27701
26230 13115
51232 25616
57302 28651
19168 9584
26167 13083
17458 8729
25813 12906
2226 4453
16511 8255
29324 14662
30307 15153
51832 25916
22590 11295
55751 27875
22861 45722
26555 13277
66333 33166
1225 612
5440 10880
51102 25551
6416 12832
23529 47059
29510 59020
60252 30126
24759 49518
5747 11494
5187 10374
60589 30294
33059 66118
31790 63580
62949 31474
62599 31299
7605 3802
25227 50455
6513 3256
50090 25045
8086 16173
27283 54567
35720 17860
53239 26619
60723 30361
63005 31502
15577 7788
3204 6408
27387 54774
5850 11700
29362 14681
6952 13904
972 1945
7737 15474
33570 16785
9569 19138
8535 4267
7554 15108
51843 25921
39962 19981
65844 32922
64048 32024
15290 7645
23313 46626
29105 14552
4103 8206
9951 4975
62031 31015
27944 13972
23408 46816
26349 13174
7464 14928
26054 13027
11776 5888
15804 31608
25598 12799
27256 13628
28624 57248
11151 22302
26834 53668
34067 68135
2248 4496
1484 2969
31628 15814
47816 23908
23444 46888
11746 23493
9018 4509
38832 19416
22395 44790
32722 65445
15202 30404
51123 25561
18048 9024
20087 40175
10623 21246
23745 47491
22191 11095
51240 25620
26901 53803
32423 64846
33554 16777
19960 39921
59465 29732
8756 17512
32499 64998
13869 6934
56527 28263
24081 12040
41224 20612
19490 9745
23779 47559
16017 32035
33318 66636
50008 25004
30854 15427
17295 34591
14024 28048
16785 33571
27966 55932
3222 1611
28146 56293
20867 10433
16790 8395
39137 19568
68534 34267
22735 45471
58588 29294
35041 17520
29841 59683
212 425
22955 45911
58184 29092
39951 19975
69019 34509
5186 10373
2250 4500
18072 9036
37709 18854
6548 13096
36123 18061
48507 24253
31649 63299
15498 30996
30954 61908
26395 52791
55639 27819
1114 557
11773 23546
50363 25181
33840 67680
34166 68332
10021 5010
5657 11315
28824 14412
37859 18929
45300 22650
6025 12050
61565 30782
42440 21220
18736 37473
45302 22651
24355 48711
25031 50062
19658 9829
50882 25441
64906 32453
47425 23712
24729 49459
13084 26169
10616 21232
22490 44981
27366 54733
39398 19699
30957 15478
23858 11929
13244 6622
3477 6955
61751 30875
17023 34047
6617 3308
13690 6845
1650 825
20059 40119
47232 23616
33315 66630
10471 20943
47874 23937
3752 7505
9684 4842
12294 24588
20770 10385
3130 1565
9129 4564
50608 25304
26470 52940
5863 11726
21616 10808
32641 16320
24661 12330
68937 34468
19250 38501
35832 17916
14624 29249
50401 25200
67258 33629
8528 17056
11041 22083
52312 26156
8165 16331
18248 36496
32130 16065
8708 4354
10467 5233
15430 7715
69284 34642
6632 3316
23507 47014
17330 34661
2345 4690
1203 2407
63898 31949
22225 44450
53953 26976
57510 28755
17508 35016
7712 3856
11025 5512
44486 22243
21057 42115
29335 58671
17568 8784
43804 21902
5335 10671
46564 23282
60532 30266
48959 24479
29997 59995
14272 28544
27364 13682
20229 40459
26276 52552
43708 21854
10813 21627
28141 56283
10120 20240
28693 57387
52680 26340
25249 12624
28593 57187
13917 6958
33602 67205
11735 23471
31562 63125
1995 3991
55133 27566
55058 27529
68140 34070
33430 16715
167 334
30129 60259
22382 44764
9162 4581
23881 47762
1913 3827
33304 16652
26213 52426
31725 63450
26608 13304
11738 5869
38297 19148
25906 12953
29496 58993
7627 15255
12000 24001
16354 8177
24207 12103
9630 19260
4719 2359
13967 27935
3453 1726
1801 900
59094 29547
22695 45390
19351 38703
41424 20712
15859 31719
4999 9999
68882 34441
24884 49768
12716 6358
4485 2242
55842 27921
22987 11493
38007 19003
29590 59180
40824 20412
34379 68759
15254 30509
2359 4718
3284 6569
28631 57262
24718 12359
53010 26505
60024 30012
31684 63368
41937 20968
4986 9973
34912 17456
26824 53648
22578 45157
15297 30594
23821 47643
10659 21318
49899 24949
4749 2374
8341 4170
1417 2835
50366 25183
14428 28857
14232 28465
35993 17996
13956 27912
21618 43237
14749 7374
6575 13150
33550 16775
1527 763
61036 30518
34289 68578
19609 39219
9376 18752
22624 11312
8104 16209
29820 14910
30130 15065
45651 22825
13027 26055
15001 30003
33186 16593
28703 14351
42197 21098
17733 35467
53481 26740
35592 17796
52361 26180
33631 16815
50623 25311
13438 26876
24752 49505
18604 9302
59051 29525
11272 22544
39844 19922
25459 50918
54987 27493
13034 6517
23983 47966
14538 7269
12616 25232
9479 18959
49130 24565
26000 52000
2987 1493
23389 11694
24275 12137
9384 18768
31296 62592
65656 32828
10920 21841
49757 24878
31071 15535
10487 20975
7522 15044
34568 69136
3019 1509
25704 51409
16672 33344
11152 22304
18732 9366
6421 3210
63509 31754
31129 62258
22870 45741
66140 33070
27904 55809
36111 18055
11401 5700
11133 5566
43827 21913
36469 18234
19766 9883
68141 34070
10577 5288
19272 9636
31177 62355
14875 29750
11157 22314
22473 44947
4048 8096
56180 28090
17702 8851
18119 9059
3121 1560
38764 19382
50258 25129
8594 4297
409 818
14867 29734
4493 8987
15048 7524
1824 3648
10800 5400
1105 552
32818 16409
23470 11735
42914 21457
69005 34502
14479 28959
9241 4620
17455 34910
31607 15803
13847 6923
132 264
29565 14782
61778 30889
26372 13186
62750 31375
3625 7251
15072 30145
55161 27580
11004 22008
34097 68195
30746 15373
28360 56721
2276 1138
7795 3897
11014 5507
6966 13933
28075 56150
6880 13760
3386 1693
20113 40226
20865 10432
25099 50199
50718 25359
30414 60829
36725 18362
14648 29296
32979 65959
25683 12841
42506 21253
34527 69054
32355 64710
18450 36900
67262 33631
7278 14556
65501 32750
32534 16267
1212 2424
65763 32881
13369 26738
17973 35947
34650 69301
8489 16979
58287 29143
19450 9725
30448 15224
78 39
2754 5508
65984 32992
29682 14841
11472 22945
5433 10867
47363 23681
43061 21530
13893 27787
5316 10632
38291 19145
53827 26913
27776 13888
57268 28634
46534 23267
21853 43707
28049 14024
39458 19729
56732 28366
30505 61011
25225 50451
46473 23236
18600 37201
1122 2244
55727 27863
2858 1429
23030 46061
44977 22488
13914 27828
31817 63634
21730 43461
3214 6429
27665 55330
13543 27087
33957 67915
18010 36021
2887 5775
377 188
12565 6282
2286 4573
3003 1501
7367 14735
29905 59810
24221 48442
21159 10579
1011 2022
5840 11681
38237 19118
30232 15116
18923 37846
26362 13181
33716 67432
67102 33551
14360 28721
15871 31743
83 41
31372 62744
23641 47282
40088 20044
51258 25629
4148 8296
11437 5718
14525 29050
22182 44365
27956 13978
10493 5246
1715 857
29937 59875
27517 13758
17014 34028
22774 45548
32334 64668
53636 26818
14565 7282
32617 16308
67403 33701
20800 41601
53009 26504
6841 13683
2464 1232
19718 39437
14660 29321
20192 10096
6221 3110
15380 30761
64437 32218
40424 20212
32464 64928
13751 27503
31858 63717
21340 10670
579 289
1278 2556
32156 16078
9447 18894
12107 24215
17273 34547
27340 13670
6457 3228
2425 1212
33172 66345
11701 5850
10911 21823
32501 65002
34991 17495
56420 28210
2633 1316
16344 32688
30738 15369
53571 26785
2857 5715
12574 25148
185 370
9858 4929
10 20
15107 30214
20482 40965
17234 8617
39463 19731
33380 16690
22306 44613
10121 20242
13393 26786
27363 54727
17741 35483
19154 38309
30034 60068
7354 3677
53195 26597
7159 14319
17672 35345
40941 20470
14259 28518
2066 1033
9541 4770
43823 21911
6485 3242
64013 32006
23577 11788
1808 3616
27166 54333
32486 16243
32767 65534
22413 44826
5825 2912
24825 12412
31400 62800
10671 21343
22606 45213
3008 6016
16391 8195
21557 43115
61944 30972
3006 6012
20051 10025
7593 15186
10397 20795
10584 5292
49598 24799
20702 41404
67392 33696
25904 12952
1086 2173
67011 33505
2730 5461
56278 28139
3934 7868
19187 38374
43145 21572
21663 10831
13391 26783
1061 2123
12923 25846
26869 13434
826 1652
1268 634
26057 52114
60051 30025
8093 16187
7991 3995
26367 52734
10393 20786
21724 43449
3267 6535
18744 37488
11820 23641
8183 16367
22433 44866
12506 6253
1297 648
29176 58353
56282 28141
20847 41694
3377 6754
34332 17166
60333 30166
8570 17141
5890 2945
19295 38590
61366 30683
26536 13268
44185 22092
17536 35073
10590 21181
48446 24223
18272 36545
26113 52226
15867 31734
15538 31077
28412 14206
17559 35119
40896 20448
17430 34861
25855 51710
42372 21186
8257 16515
2074 1037
20836 41672
7443 14887
10486 20973
15142 7571
3519 7039
5474 10948
15762 31524
22089 44178
13721 27443
53963 26981
29364 58728
68258 34129
12242 24485
17224 34449
30592 61184
18589 37179
23969 47938
63857 31928
58383 29191
3507 1753
5489 10978
37594 18797
24172 12086
5935 11871
4231 8463
7162 3581
17089 8544
28989 57979
51853 25926
20492 40985
16544 8272
26895 13447
12143 24287
6716 13432
60579 30289
64021 32010
3545 1772
27200 54400
29848 14924
27564 55129
15276 7638
18075 36150
29749 14874
29900 14950
2661 5323
408 204
20408 40817
33151 66302
4556 9113
8495 16991
17949 8974
63828 31914
17287 34574
2288 4577
65787 32893
23879 11939
62108 31054
38101 19050
40791 20395
2465 1232
14204 28408
11644 23289
9494 18988
17462 34925
32734 65469
27413 54827
27403 54806
29414 14707
3209 6418
5586 11173
51753 25876
29585 14792
30894 61788
28862 14431
56642 28321
21031 42062
3359 6718
6676 13353
52243 26121
10676 21353
9410 4705
30554 15277
692 1384
44677 22338
5318 10637
10540 5270
42106 21053
21888 43776
8064 16129
43614 21807
50103 25051
418 837
18827 37654
3841 7683
51890 25945
30155 60310
11229 22458
7481 14962
49155 24577
9421 4710
24292 48585
29376 14688
56925 28462
12392 6196
6986 13972
11655 23310
13656 27313
14241 28482
21969 10984
32824 65648
28485 56970
27198 54397
642 1284
46590 23295
17267 34535
4831 9662
4024 8048
33300 66601
14613 29226
26002 52004
20374 40748
15051 30103
66330 33165
11881 23762
1231 2463
34920 17460
38241 19120
21786 43573
61859 30929
22927 11463
2072 4145
3790 1895
39570 19785
23399 46798
38170 19085
65249 32624
4913 9826
1511 3022
1795 3591
65515 32757
3079 6158
55684 27842
11567 23134
13861 27722
50288 25144
6370 12740
49352 24676
33096 16548
22251 11125
6723 13447
25701 12850
37897 18948
50947 25473
16 33
41377 20688
13361 26723
15633 31267
34339 68678
11675 23351
32743 16371
18813 9406
29005 58010
20560 10280
10553 21106
3123 1561
1381 2763
32206 16103
29553 59107
36620 18310
34494 68988
30322 60644
28506 57013
15779 31559
40695 20347
27032 54065
13773 27546
42211 21105
54262 27131
12906 6453
42375 21187
20928 10464
53455 26727
68651 34325
65088 32544
41156 20578
12538 6269
12966 6483
22566 45132
3618 1809
51046 25523
12278 24557
59599 29799
21452 42904
51716 25858
40248 20124
52125 26062
46258 23129
46496 23248
3710 1855
18314 36628
33510 67020
29153 14576
34486 17243
17492 34985
12415 24830
10353 5176
7112 3556
30718 61437
15483 30967
54913 27456
53724 26862
1429 714
28871 57742
4877 9754
28319 56639
1011 2023
2264 1132
43091 21545
38371 19185
57360 28680
24060 12030
21838 43677
15270 30540
68756 34378
2001 4002
19184 38369
4042 8084
3105 1552
22216 11108
31199 15599
33307 66614
68806 34403
66318 33159
49656 24828
34183 17091
19220 38440
8812 17625
10089 20178
66296 33148
67623 33811
22863 45727
1808 904
2617 5235
211 105
21189 42378
27628 13814
29093 14546
42032 21016
42080 21040
15284 30569
29216 58433
18704 9352
23988 11994
48828 24414
5109 2554
14752 7376
11334 22668
43587 21793
16122 32244
17125 34251
12034 24069
5061 10123
12829 6414
8171 16343
15095 30190
5026 2513
8369 4184
25469 12734
14500 7250
17786 35572
4485 8971
7413 3706
16514 33029
34353 68707
15483 7741
10781 5390
30036 60073
23101 46202
30932 61864
69109 34554
6465 3232
37335 18667
51921 25960
3655 1827
15874 31748
1900 950
19760 39521
10119 20239
48189 24094
25102 12551
2663 1331
32111 64223
4214 8428
12173 6086
22658 11329
25196 50392
11283 5641
58381 29190
55637 27818
48176 24088
7175 3587
3623 7247
84 42
26518 13259
23229 46459
8197 16395
56003 28001
37155 18577
13669 27338
13374 26749
16468 8234
31947 63895
1799 3598
59148 29574
15670 31340
1440 720
56169 28084
48777 24388
25686 51373
24224 12112
28888 14444
37563 18781
48895 24447
21444 42889
17464 34929
6166 12332
23170 46340
6342 3171
5827 11654
1202 2404
28754 57509
15464 7732
10635 21271
10076 5038
16034 32069
25647 51295
46793 23396
1857 3714
47773 23886
39232 19616
11794 23589
22400 11200
1533 3067
16062 8031
3695 7391
50198 25099
38240 19120
53880 26940
21866 10933
24036 48073
27398 13699
38282 19141
3208 1604
54463 27231
58697 29348
26118 52236
8731 17463
15191 7595
17342 34684
33575 16787
8441 4220
49349 24674
22861 45723
19376 9688
22690 45380
38615 19307
23309 46619
67087 33543
32108 64216
46411 23205
26090 52181
18949 9474
53055 26527
39254 19627
332 664
56799 28399
35646 17823
12745 25490
17871 35743
16283 32566
28384 56769
65448 32724
68323 34161
879 439
8552 4276
32296 16148
455 910
19879 39758
24581 12290
7474 14948
40678 20339
37679 18839
12278 24556
997 498
25154 50308
17538 35076
21697 43394
23068 46137
26647 53294
10470 5235
25797 12898
25801 12900
2719 1359
16567 8283
13785 6892
28099 56199
11959 23919
18965 37931
44591 22295
29105 58211
61371 30685
13009 26018
10796 21592
14523 29047
40332 20166
27642 55284
40470 20235
5444 10888
62837 31418
52322 26161
12682 25364
42580 21290
57258 28629
20288 10144
19009 38018
12371 24743
2249 4498
17249 34499
18200 9100
39512 19756
21914 43829
2547 1273
33317 66635
1366 683
24725 49450
25847 51695
23772 47544
3783 7567
23720 11860
10627 5313
65033 32516
33914 16957
19867 39735
28956 57912
53766 26883
20462 40925
21238 42477
38538 19269
28029 56058
31318 15659
24489 12244
21859 10929
6387 12775
48389 24194
48170 24085
28645 57291
53035 26517
40891 20445
14643 29287
16189 32379
26835 53671
43228 21614
9987 19974
2913 1456
35885 17942
66767 33383
34518 17259
16827 8413
22426 44852
32245 64490
27200 54401
6365 12731
15886 7943
25476 50952
24144 48289
34983 17491
13762 27524
36593 18296
26454 13227
33951 67902
18849 37698
29791 14895
48593 24296
44604 22302
29456 58912
17652 35305
34866 17433
26368 52736
5510 2755
19537 9768
48198 24099
13444 6722
20912 41825
6479 3239
28541 57082
8498 4249
14456 28913
18633 37266
10560 21121
13815 27630
13976 6988
3401 6802
6544 3272
21010 10505
8256 16513
35189 17594
22229 11114
43181 21590
33907 67814
16735 33471
61008 30504
30494 60988
66944 33472
26961 53923
67497 33748
30081 15040
33396 66792
10347 20694
23296 46592
32573 65146
28758 57517
23713 11856
8555 17110
23224 11612
8527 4263
6467 12934
37298 18649
15230 30460
66511 33255
65564 32782
323 161
5190 10381
22851 45703
20723 41447
18295 9147
23053 11526
31176 62352
24871 49742
1683 3367
26390 52780
22933 45867
28842 57685
11671 23343
16393 32787
23557 11778
25052 12526
5989 11978
28653 57307
25730 51461
36480 18240
26350 52700
3747 1873
23483 46966
36943 18471
36410 18205
24721 12360
49663 24831
32226 64452
26948 53896
52227 26113
330 660
24392 48784
10264 20529
32249 64498
8052 16104
28111 56223
19224 38448
11787 23575
25167 50335
23501 47002
20199 40398
18367 36735
53096 26548
39393 19696
40200 20100
5569 11138
2868 5736
49176 24588
5324 10649
29575 59150
29281 14640
4594 2297
60752 30376
717 1435
24763 49526
20795 41591
52918 26459
49237 24618
20558 10279
20859 41718
12512 6256
61244 30622
12189 24379
65881 32940
65837 32918
30486 60972
14367 28734
21822 43644
45712 22856
14529 29058
25628 12814
61421 30710
13347 26695
22878 45756
43770 21885
4798 9596
44534 22267
10308 20617
62093 31046
38765 19382
3084 6169
27462 54925
7370 14741
55543 27771
36090 18045
33193 66386
9156 4578
2139 4278
30031 15015
52391 26195
40204 20102
28297 56595
5563 2781
54735 27367
45473 22736
1133 2266
31567 15783
25491 50982
22422 11211
10008 20016
33930 67860
10872 21745
47603 23801
27755 13877
37276 18638
28779 57559
33858 67717
28732 57464
27011 54022
16730 33461
21629 43258
52279 26139
69184 34592
47751 23875
8543 17086
22727 11363
44403 22201
19254 38509
31910 63821
23391 11695
29316 58633
58855 29427
16843 33686
14851 29702
895 1790
28286 56573
52454 26227
19142 38285
58717 29358
30844 15422
13860 27721
8502 17004
4781 9562
25327 50655
44976 22488
175 351
30180 60360
3015 1507
6729 13459
41068 20534
62658 31329
30075 60150
33256 16628
58178 29089
5502 11004
50604 25302
6742 13484
40836 20418
52051 26025
13388 26776
27675 55350
19168 38336
1441 2882
37842 18921
54964 27482
9026 18053
28785 57571
53646 26823
6603 3301
14524 29049
1201 2403
7790 3895
26700 13350
27461 13730
37940 18970
18403 36806
67646 33823
30476 60952
8985 17970
31717 63434
28751 14375
30271 60543
67752 33876
16458 32916
34372 68744
19105 9552
58241 29120
14585 7292
1482 741
21005 10502
25211 50422
27763 55527
12560 25121
28514 57029
34459 68919
24771 49542
51983 25991
22170 44341
5042 10085
59432 29716
6278 3139
8568 17136
483 241
526 263
67778 33889
3994 7988
57209 28604
62634 31317
24426 48852
53145 26572
41415 20707
48802 24401
20090 40180
33970 16985
24086 12043
1478 2957
6672 13344
6669 13339
17340 34681
54521 27260
21445 10722
18730 37461
40682 20341
17238 34477
30963 61926
42757 21378
11432 5716
12048 24096
7363 14726
17556 35112
20492 10246
67179 33589
1918 959
27564 13782
18076 36152
3497 6994
51901 25950
6972 3486
21782 43564
22592 11296
47764 23882
36495 18247
25650 12825
50845 25422
27029 54058
30892 61784
51216 25608
26 52
30836 61672
17543 8771
24186 48372
13395 26790
12911 25823
27678 13839
36582 18291
68078 34039
18036 9018
26822 13411
23030 46060
17472 8736
5861 11722
65947 32973
7234 14469
17858 35717
15683 31367
775 1550
49958 24979
13649 27299
415 830
33046 66093
31204 62409
40350 20175
34057 68114
64502 32251
16186 32372
23698 47397
24596 49192
25473 50946
35539 17769
16747 33495
14336 28672
52519 26259
5955 11910
16830 33660
47221 23610
9395 18791
22911 45822
18238 9119
12594 25189
31555 15777
45377 22688
16579 33158
4852 2426
11364 22728
18329 36658
2430 1215
6797 3398
34970 17485
56159 28079
69231 34615
28686 14343
2125 4250
68325 34162
6162 12324
16943 33886
22037 11018
55431 27715
27620 13810
20021 10010
45487 22743
3886 7773
42110 21055
2449 4898
26027 52054
28622 14311
23463 46926
7515 15031
32882 65764
34077 68155
43288 21644
61022 30511
1616 3233
22426 44853
2989 1494
56802 28401
12155 24311
24621 12310
27321 54642
20029 40059
21516 43032
7314 14629
5641 11282
21732 10866
6438 12876
12078 6039
10484 20969
64189 32094
42678 21339
4106 8212
38016 19008
45227 22613
7126 14252
11003 22007
12169 24339
14220 7110
32426 64852
5752 11505
33065 66131
21475 42951
50954 25477
13148 26296
68959 34479
14661 29323
60825 30412
24212 48425
28695 57391
24362 12181
6226 3113
15817 7908
54849 27424
27544 55088
63649 31824
561 1122
40776 20388
15785 31571
6182 12364
27314 54628
28681 57362
64287 32143
7154 3577
25492 12746
6937 13874
12158 24316
20817 10408
20139 40278
26288 52577
8503 4251
13247 26494
7055 14111
4615 9231
2581 5162
22478 11239
31831 63662
53823 26911
27311 54622
46286 23143
35932 17966
30320 60640
26336 52672
14192 28385
29347 14673
25662 12831
5816 11632
47714 23857
3718 7436
15935 31871
67562 33781
14714 29428
60297 30148
34264 68528
26074 52148
18243 36487
24568 49136
28134 56269
29706 59413
3721 7443
26295 52590
67285 33642
30386 60773
37860 18930
24235 12117
32959 16479
32020 64041
59861 29930
11787 5893
44919 22459
4872 2436
24610 12305
8334 16669
25644 12822
5644 2822
32476 64952
21560 10780
29436 58872
2672 1336
8166 16332
44882 22441
5621 2810
23836 47673
28130 56261
29358 58716
18235 36470
43599 21799
26400 52800
4117 8234
14627 7313
24972 49944
3500 1750
22270 44541
18555 37111
62703 31351
6774 13549
11368 22736
21347 10673
19215 38430
40220 20110
62157 31078
17731 35463
928 1856
52958 26479
57167 28583
10786 21572
46498 23249
67761 33880
60262 30131
20098 10049
40358 20179
32784 16392
11637 23274
57930 28965
12562 25124
28960 57920
29790 59580
56235 28117
26640 53281
21896 43793
29005 58011
14644 7322
14688 29377
52347 26173
1220 2440
17746 35492
62249 31124
54804 27402
22686 45372
30337 15168
7577 15154
20980 41961
18169 36339
67684 33842
54281 27140
4228 8457
20615 41231
51960 25980
36993 18496
64587 32293
34174 68348
34845 17422
32222 64445
27939 55878
33343 66686
38003 19001
58711 29355
4553 9106
11959 23918
12156 6078
9229 18459
451 225
23151 46302
25446 50893
27642 13821
182 91
19834 39669
34207 68414
14147 28294
9930 19861
28403 56807
15862 31725
9156 18312
15282 30564
13085 26171
16477 32954
10879 5439
414 207
107 214
8789 4394
41563 20781
104 209
35714 17857
2901 5802
5527 2763
131 65
21156 10578
28601 14300
18141 36282
47592 23796
48559 24279
6696 13392
8867 4433
1550 3101
11104 22208
23924 47849
68172 34086
231 463
29569 14784
3092 6185
38495 19247
4561 2280
58788 29394
3674 7349
50386 25193
407 814
63628 31814
27043 54087
17249 8624
12542 25084
35921 17960
47252 23626
31026 62052
2039 1019
11296 5648
24497 48995
34114 68228
22854 11427
8944 4472
44219 22109
4503 2251
4675 9350
49153 24576
12754 25508
30150 60301
4163 8327
31270 62540
30553 61106
55979 27989
11195 22391
3705 7411
57966 28983
29982 59965
30008 60016
28891 14445
1544 3089
56208 28104
66881 33440
18911 9455
15723 31447
33989 16994
34887 17443
35392 17696
8559 4279
1340 2680
7048 14096
37659 18829
24912 49824
32228 64457
28131 14065
28691 57383
27172 54344
6786 13572
51411 25705
65737 32868
30160 60321
13209 26418
59330 29665
34244 68489
62505 31252
43468 21734
34354 68709
26317 13158
17228 34457
39825 19912
10140 20280
20650 41301
11840 5920
30919 61839
28860 14430
26243 52486
52367 26183
27695 55391
1033 2067
16333 32667
1718 859
7392 3696
23482 46964
58437 29218
28438 56876
20853 41707
40155 20077
41281 20640
22116 44232
7926 3963
42422 21211
43626 21813
49666 24833
55098 27549
17322 34645
42600 21300
66755 33377
3288 1644
39926 19963
26362 52725
34148 17074
62110 31055
26962 53924
14406 28812
33251 16625
66381 33190
16610 8305
67705 33852
29096 58192
10455 5227
24033 48067
12234 6117
8612 4306
23043 46086
37693 18846
32898 65797
16043 8021
15186 30372
20526 41053
60047 30023
11848 23696
11769 23538
18260 36520
17036 34072
46419 23209
11038 22077
32252 64504
44542 22271
38 77
37928 18964
29218 14609
21504 43009
50570 25285
12175 6087
7951 15903
20506 10253
31099 62198
35324 17662
8634 4317
23710 47421
11456 5728
19962 9981
28742 57485
33394 66788
20400 10200
31282 15641
773 386
13698 27396
8147 4073
27415 54830
27366 13683
32142 16071
47291 23645
13612 6806
11675 5837
28641 57283
22570 45140
39779 19889
63128 31564
33847 67694
3158 6316
24792 49584
15045 30091
18968 9484
27673 13836
6748 13497
3880 7760
22018 11009
16027 8013
48962 24481
14398 28796
24592 49185
18590 37180
61379 30689
21573 10786
25616 12808
35370 17685
38690 19345
2041 4082
30526 15263
34198 68397
1135 2271
10190 20380
10466 20933
1319 2638
8373 16747
33213 66427
30495 60990
17889 8944
37202 18601
5481 10962
2679 5359
65970 32985
24475 48950
15310 30621
53391 26695
40245 20122
30232 60464
14324 28648
9379 18759
34270 68540
30143 60287
17732 35465
27986 13993
9088 4544
27185 54371
24127 48255
31224 15612
14433 7216
35721 17860
3214 1607
18337 9168
22980 45961
29915 14957
34458 68917
10948 21896
22966 45932
16511 33022
53193 26596
4530 9060
7467 14934
58191 29095
59891 29945
18354 36709
68067 34033
1859 929
33487 66975
37249 18624
2889 5778
12691 25382
12807 25614
49672 24836
36700 18350
39242 19621
5642 11284
21532 43064
10458 20917
30365 15182
62041 31020
31770 15885
29453 14726
27345 54690
59418 29709
17974 35948
20071 40143
66401 33200
29703 59407
22754 45509
22636 45272
17115 8557
13642 6821
28538 14269
2725 5450
15057 30115
18049 36098
48742 24371
15365 7682
4195 2097
6074 3037
31162 62325
13766 27533
29326 58653
13635 6817
21281 42563
37267 18633
386 772
19202 38404
15292 30585
21813 10906
7004 3502
34235 68471
29794 14897
31963 63926
32807 65615
1541 3082
24022 12011
64951 32475
19263 9631
56478 28239
53293 26646
32085 64171
58570 29285
53683 26841
40911 20455
8903 17806
19933 39867
32181 64362
42883 21441
25994 51988
2612 1306
66863 33431
30903 61807
10539 21079
58541 29270
46445 23222
26896 53792
3317 6635
9674 19349
33164 66328
66047 33023
23933 47867
25815 12907
9994 19988
8242 16484
53600 26800
31237 15618
18906 9453
16612 33225
22860 11430
33311 66622
23797 47594
10710 21421
13796 27592
45280 22640
46545 23272
43363 21681
17273 34546
7177 14355
3748 7497
15806 7903
34338 68676
31880 15940
24780 49561
5519 2759
32936 65872
23846 47693
26449 52898
28233 56467
58025 29012
823 1646
24321 48642
8663 4331
59996 29998
27713 55427
61460 30730
10675 5337
17718 35436
20258 40517
25555 51111
30100 15050
16329 8164
498 996
56752 28376
29842 59685
66456 33228
29658 59317
27760 55520
19576 39152
38944 19472
64359 32179
36923 18461
60490 30245
33216 66433
2376 1188
56224 28112
5593 2796
10817 5408
32180 64361
62371 31185
24924 49848
53950 26975
30984 61969
13820 27640
55283 27641
45977 22988
28101 56202
25567 12783
16458 8229
31208 62416
31624 63248
53478 26739
7681 15362
8995 17991
3641 7282
30044 15022
9409 4704
27895 55790
56338 28169
18228 36456
48010 24005
67294 33647
58925 29462
26162 13081
36795 18397
67515 33757
30904 15452
18758 37517
13113 6556
43229 21614
16432 8216
33622 67244
19418 9709
28155 56311
6285 3142
28107 56214
20858 41716
6003 3001
30632 15316
48136 24068
17377 34755
23533 47066
23378 46757
14843 29687
1030 515
2813 5627
34144 17072
25815 51630
60978 30489
29806 14903
45556 22778
41278 20639
36004 18002
2080 1040
13117 6558
19973 9986
46934 23467
21923 43847
50944 25472
5839 11678
30154 15077
31005 62011
42801 21400
22848 45697
34398 17199
34311 68622
34068 68136
8014 16028
8453 16906
19609 39218
19624 39249
37242 18621
9668 4834
32962 65925
22183 44366
34162 17081
11641 23282
30580 61161
32518 65036
7074 3537
45418 22709
25261 50522
524 1048
54205 27102
20680 41360
26807 53615
9365 18730
68284 34142
37609 18804
20141 40283
26559 53118
2220 4440
14664 29329
33150 16575
24686 12343
5289 10578
33679 16839
61861 30930
34506 69012
14353 7176
33610 16805
12672 6336
25037 50075
23975 47950
16756 8378
7341 14683
41673 20836
64234 32117
30269 15134
27371 13685
10038 20077
22497 44994
20486 40972
8143 16287
13809 6904
18495 9247
23375 11687
1221 2443
1547 773
35634 17817
12474 24949
2814 1407
7046 14093
56434 28217
18058 9029
67551 33775
32858 16429
3504 1752
57814 28907
28589 57178
18043 36086
29062 58125
15221 30443
25393 12696
30116 15058
18499 9249
34094 17047
4736 2368
52356 26178
43531 21765
59122 29561
3404 6809
4049 8099
10232 20465
30857 15428
2004 1002
5365 2682
27340 54680
35238 17619
28065 56131
23524 11762
2951 5903
64053 32026
19505 39010
13579 6789
12786 25573
33701 16850
29171 14585
31912 63825
3955 7910
4121 8242
65820 32910
7944 15889
28464 56928
58682 29341
14517 7258
28471 14235
24094 48188
12788 25577
7543 3771
55523 27761
21315 42630
36538 18269
5327 10654
28738 57477
1505 3011
28135 14067
33263 66526
59053 29526
22494 44988
18059 36118
25964 51928
39155 19577
19209 38418
26726 13363
65998 32999
31690 63380
55288 27644
17817 8908
29806 59613
17866 35733
30462 60924
20191 40383
26181 13090
9758 19516
26774 53549
26936 53873
4973 9947
40092 20046
18138 9069
35278 17639
9860 19720
53399 26699
62233 31116
4521 9042
22547 45094
6841 3420
59274 29637
31927 15963
24035 12017
44888 22444
58767 29383
67270 33635
58583 29291
26909 53818
10260 20521
12667 25334
13754 27509
47153 23576
4266 2133
23834 11917
2537 5074
14465 28930
6921 13843
12617 6308
44024 22012
29905 59811
21154 42309
38687 19343
29948 14974
13734 27468
35945 17972
6180 12361
4437 8875
34313 17156
19236 9618
66066 33033
5050 2525
2505 1252
21175 42350
15967 7983
8084 16169
13577 27155
42690 21345
47101 23550
33733 67467
48758 24379
10823 21647
36023 18011
52588 26294
21081 42163
7357 3678
34226 68452
36671 18335
57770 28885
9011 18022
1275 2551
214 428
29268 58536
68548 34274
59162 29581
13710 6855
27774 55548
8753 4376
29015 14507
11084 5542
67943 33971
23644 47289
34394 68789
28209 14104
38079 19039
1840 920
29824 14912
8479 16959
31986 15993
17443 8721
15074 30149
11958 5979
15972 7986
1482 2965
53182 26591
68977 34488
13334 26669
26864 53729
20260 40520
33838 67676
50059 25029
11024 5512
4426 2213
21660 10830
18013 9006
13268 26537
11325 22650
24610 49221
8825 17651
23842 47684
27710 13855
54035 27017
21044 10522
56997 28498
48259 24129
65889 32944
14802 29604
45950 22975
61867 30933
25322 12661
2369 4739
1491 745
34493 68987
21032 42065
22972 45944
47131 23565
24546 49093
6274 3137
7881 15762
25239 50479
8139 16278
11730 23461
46157 23078
42636 21318
2027 4054
27658 55317
17540 8770
1947 3894
30168 60337
35015 17507
31152 15576
41632 20816
15654 7827
32523 65047
34144 68288
1200 2401
5324 2662
10614 21229
14623 29246
665 1330
3480 1740
25107 50214
25531 51062
63407 31703
18203 9101
16283 8141
26997 53995
13092 6546
40339 20169
34176 68352
7082 14165
737 1474
35783 17891
68049 34024
25672 12836
30488 60976
30159 60318
40872 20436
20031 40062
22825 11412
18266 36532
67435 33717
28364 14182
48847 24423
29804 59609
25408 12704
9058 4529
18321 36643
21925 43851
3192 6385
3270 1635
16899 33799
17385 34770
5862 11724
29515 14757
5385 10771
22991 45983
15820 31641
27722 55445
58394 29197
21954 43909
12592 25184
21874 10937
18051 36103
13566 27132
31704 63409
2278 4557
10125 20250
33680 16840
30494 60989
11106 22213
2480 4961
37908 18954
15953 7976
31304 15652
269 539
14178 28357
55518 27759
11160 5580
127 255
3844 7689
14105 28211
22383 44766
4984 9968
13472 6736
16805 8402
24244 12122
1519 3039
67787 33893
38128 19064
29564 14782
46112 23056
1783 3567
31181 62363
5729 11459
23882 11941
31876 63753
2521 1260
14152 28304
28256 14128
21992 43984
1485 2970
21222 10611
20635 41271
19705 39411
59277 29638
62855 31427
53377 26688
8456 16913
27480 54960
25003 50007
13884 27769
31512 63024
13098 26196
2975 5951
54335 27167
30182 60365
22250 44500
61685 30842
3247 6495
5859 11719
38658 19329
39228 19614
3390 1695
22701 45402
16298 8149
66391 33195
10958 21917
40535 20267
53737 26868
9968 19937
50615 25307
21882 10941
14497 28994
11600 5800
23391 46783
20375 40750
38836 19418
60007 30003
12128 24257
50998 25499
100 200
17538 35077
19069 38139
11466 5733
52012 26006
25745 12872
36050 18025
44133 22066
29550 59100
14879 29759
59711 29855
31711 15855
11740 23481
18955 37911
61781 30890
48296 24148
40468 20234
4368 8736
2810 1405
10569 21138
42186 21093
21367 10683
31613 63227
18597 9298
57416 28708
32865 65731
36029 18014
27015 13507
2268 1134
53044 26522
26059 52118
387 193
28478 56956
22095 44190
36278 18139
20548 41097
18229 9114
30955 61910
12047 6023
21503 43007
2894 5789
29278 14639
15722 31444
30551 15275
7215 14430
31192 62385
64492 32246
69035 34517
5827 11655
16551 33103
30131 60263
30071 15035
5234 2617
60618 30309
11362 22724
30794 61588
13601 27203
28551 57102
34631 69263
16342 32684
32676 16338
6723 3361
31383 62767
29721 59443
26524 13262
23163 46326
65494 32747
20858 10429
1201 2402
62472 31236
7658 15317
4058 8117
294 588
24261 12130
59574 29787
68695 34347
47547 23773
11802 5901
36977 18488
3848 7696
24354 48709
29106 58212
61708 30854
30167 15083
15980 31960
11965 23931
54634 27317
30172 60344
18250 36500
27923 55846
37797 18898
26764 13382
26776 53553
465 232
7621 15243
8401 16802
21622 43244
18945 37891
9873 19746
24138 12069
18613 37227
42154 21077
54175 27087
13181 26363
25112 50225
15935 31870
66987 33493
7821 15642
7276 14552
33248 16624
1994 3989
10414 5207
25660 51320
13209 6604
9025 4512
39645 19822
14378 28757
8316 4158
62994 31497
20002 40004
8251 16503
28326 14163
33040 66081
42123 21061
50573 25286
14891 29782
20559 10279
32440 16220
2288 1144
24537 49074
1267 2535
33088 16544
40448 20224
6953 3476
30983 61967
14769 7384
26244 52489
32414 16207
26478 13239
1360 2721
40640 20320
2273 1136
27139 13569
11634 23268
18525 9262
13460 6730
16631 8315
6714 13428
67480 33740
26642 53284
8146 16292
25189 50379
1655 3310
29750 59501
19733 39466
13245 26490
46109 23054
21592 43184
18463 36926
8934 4467
18153 36306
26659 53318
5170 10340
33211 66422
39572 19786
4049 8098
52184 26092
21117 42234
21307 42615
34206 68412
33280 66560
42326 21163
58934 29467
325 651
33486 66972
31280 62560
19790 39580
14395 7197
68158 34079
19853 39707
63470 31735
8241 16482
52402 26201
61149 30574
40927 20463
12673 25346
27008 13504
55314 27657
34947 17473
20285 10142
2217 4434
66554 33277
1599 3199
32430 64860
23309 46618
33956 67912
25652 51305
999 1998
7446 14893
28049 56098
46550 23275
21510 43020
59994 29997
42536 21268
30815 61631
32600 65201
35385 17692
12020 6010
68321 34160
55640 27820
27578 55157
2991 5983
28251 56502
15413 30827
56219 28109
17782 8891
5118 2559
51438 25719
15732 31465
13816 6908
1321 660
19590 39181
57588 28794
50187 25093
7113 14226
22264 11132
16109 32219
13219 26438
8640 17281
41437 20718
2341 1170
49723 24861
9654 4827
12636 25272
27057 13528
47709 23854
6595 3297
55599 27799
33844 16922
34696 17348
44877 22438
3190 1595
16211 8105
18340 36680
245 491
52323 26161
21564 43128
37215 18607
43668 21834
61111 30555
14634 29268
6636 13273
14268 28537
30265 60530
25115 12557
24983 49966
568 1137
8782 17565
40387 20193
4637 9274
37193 18596
27196 54392
20581 41162
25662 51325
54686 27343
37128 18564
51442 25721
28521 57043
26299 52599
7155 3577
33808 16904
28191 56382
21969 43938
7781 3890
28963 57927
26047 52095
5810 11621
17094 34188
38823 19411
30537 61074
28794 57589
28942 14471
11710 23420
1281 640
2041 1020
6171 12343
1388 2776
4318 8637
18810 37621
3251 6503
29955 14977
51156 25578
52555 26277
7849 15699
18999 9499
20616 41233
13149 26299
65124 32562
63977 31988
24815 49631
37501 18750
20022 10011
2819 5639
21746 10873
10466 20932
1440 2880
16684 33369
25106 12553
34101 17050
4760 9520
20176 40353
6080 12161
22853 11426
30568 15284
65158 32579
49062 24531
13123 26246
14898 29796
61302 30651
31307 62615
41664 20832
25431 50863
5462 10925
25114 12557
59906 29953
15110 30220
7007 14014
11031 22063
15644 31288
54284 27142
17877 35755
38457 19228
11913 23827
60533 30266
28408 56817
7230 14461
14027 28055
17042 8521
17893 8946
6834 3417
4938 9877
24448 48896
28472 14236
57157 28578
16484 32969
25203 50406
6049 12098
37615 18807
41362 20681
32433 16216
33925 16962
56197 28098
5143 10287
23560 11780
31041 62083
33353 66706
22041 44082
27052 13526
13603 27206
12322 24644
8563 4281
37456 18728
68793 34396
25862 51725
31633 63266
67916 33958
44889 22444
20328 40656
62368 31184
18734 9367
26029 52058
10525 21050
58450 29225
18718 37437
65011 32505
12351 24703
22506 45013
9155 18310
35150 17575
29635 59271
9158 18316
24406 12203
28007 56015
227 113
68368 34184
24422 12211
37275 18637
3197 6394
47575 23787
33827 67655
19760 39520
24484 48969
21045 10522
46164 23082
54330 27165
21908 43816
4255 2127
48543 24271
36766 18383
31906 63812
10088 20176
1068 534
7218 14437
20983 41967
31846 63692
40825 20412
17747 35495
595 1190
10935 21870
32623 16311
62568 31284
24939 12469
54754 27377
66420 33210
29138 58277
39380 19690
4926 9853
33550 67100
52621 26310
21495 42991
30189 60378
39740 19870
16299 32598
13785 27571
28024 56049
35245 17622
58429 29214
31159 62319
20088 40177
31049 15524
54033 27016
27440 13720
26862 13431
26849 13424
32598 65197
29344 14672
5099 2549
65993 32996
4694 2347
63987 31993
19164 38328
29752 59504
1856 3713
25622 12811
24038 48076
32505 65010
2088 4177
33213 66426
59780 29890
23620 11810
2472 1236
22578 45156
42208 21104
29726 14863
5135 2567
42869 21434
29289 58579
63464 31732
36640 18320
45293 22646
21021 42043
10167 20334
23053 46107
67783 33891
2597 1298
31585 63171
52518 26259
41859 20929
16779 8389
18919 37838
23479 46958
26300 52600
15994 7997
21462 42925
63360 31680
44895 22447
27779 13889
33184 16592
40797 20398
25942 51884
20923 41847
23736 47472
10100 20200
26703 13351
63104 31552
22605 11302
1606 3212
9128 18256
18026 9013
44337 22168
46679 23339
52997 26498
10784 21569
23373 46746
16856 33713
3189 6378
30764 61528
8666 17333
3964 1982
16008 8004
23568 11784
10070 20140
25739 51479
5404 10808
2739 5479
16349 32699
22790 45580
26097 13048
6802 13605
62841 31420
59239 29619
38302 19151
14431 7215
30694 15347
43752 21876
25544 12772
4878 9757
39588 19794
24135 12067
33191 16595
44187 22093
14388 28776
53334 26667
15955 31911
20151 10075
40697 20348
24539 12269
42492 21246
57990 28995
22084 11042
4301 2150
967 1934
11633 23267
27877 13938
1413 706
18028 9014
25867 12933
30598 61197
5291 10582
30032 60064
44560 22280
19925 39850
1607 803
51071 25535
16077 32155
53715 26857
14253 28507
32908 65816
16897 33794
20605 41211
24652 49304
13738 6869
59902 29951
26135 13067
30228 60456
2063 4127
33428 66857
23593 47186
26278 13139
20318 40637
23162 46325
57497 28748
19613 39227
12328 24656
17800 35601
63638 31819
7545 3772
16611 33223
32616 65233
4067 2033
19437 38874
39032 19516
26998 53996
9823 19647
26378 52757
67309 33654
35005 17502
3301 6602
27091 54183
44438 22219
45256 22628
55866 27933
24109 48219
17234 34468
3520 1760
3382 6764
13061 26123
12458 24917
22462 44924
66564 33282
19860 39720
33059 66119
11207 22415
8066 4033
41640 20820
44545 22272
6297 3148
29119 58238
4176 8352
31604 15802
21604 43209
21939 10969
17243 8621
23061 46123
4759 9518
15487 7743
16131 32262
18567 37134
58176 29088
31495 62991
47619 23809
16618 33236
26084 52169
33873 67746
54276 27138
27754 13877
12382 24765
19999 39999
10865 5432
14660 7330
21253 10626
25784 12892
29454 14727
61361 30680
15474 30948
60172 30086
19979 39959
10435 20870
3458 1729
34259 68519
39708 19854
4865 9731
36177 18088
13024 26049
15729 31459
11228 5614
5041 10083
1415 2831
14453 7226
5552 2776
25989 51979
13185 26371
12039 24079
67359 33679
20207 10103
31410 62820
456 913
14100 28200
31359 62719
33817 16908
42667 21333
14217 7108
47318 23659
6665 13331
17199 8599
6576 3288
5402 2701
24309 48619
63382 31691
3287 6575
12648 25297
18047 9023
54929 27464
44615 22307
22601 45203
30533 61067
8021 16042
28677 14338
33618 67236
29822 59644
67436 33718
30843 15421
65817 32908
8614 17229
55267 27633
31863 63727
63501 31750
40473 20236
12158 24317
4958 9917
12039 6019
39430 19715
17217 34435
30125 60251
46125 23062
30770 61541
35859 17929
27355 54710
27101 13550
28461 56923
25632 12816
30300 60601
30047 60094
12249 24499
13867 27734
34330 68660
54946 27473
28429 56859
2689 5379
17373 34746
20054 10027
11116 5558
9417 4708
5051 10103
15803 31606
19987 39975
21651 10825
26604 53208
15794 7897
28034 56068
56400 28200
13798 27596
24627 49255
15071 7535
26652 13326
43767 21883
48875 24437
59798 29899
42737 21368
31907 63814
19869 39739
12407 24814
20248 40496
2862 5724
22296 44593
20809 41618
16225 8112
1410 2821
13274 6637
13916 27832
15556 7778
62129 31064
28066 56132
11407 5703
9330 18660
27484 54969
16074 32148
59565 29782
6824 3412
44639 22319
29830 59661
1197 2395
43484 21742
6899 13799
8797 17594
41883 20941
56896 28448
32699 65399
24497 12248
10071 5035
7379 14759
46095 23047
47854 23927
55578 27789
6493 3246
1164 582
4788 9576
28189 56379
35373 17686
28593 14296
9819 19638
2829 5658
62259 31129
17813 8906
19336 38672
2754 5509
38746 19373
627 313
55980 27990
15781 31563
15121 30243
15658 31317
29444 58888
10647 5323
30790 61581
36182 18091
13877 6938
11352 5676
3691 1845
7186 3593
33706 67412
44491 22245
29137 58275
12465 24931
7249 14498
35877 17938
9897 4948
26822 53645
29921 14960
18727 9363
5406 10813
48728 24364
58232 29116
32298 16149
25695 12847
31298 62596
10907 21814
20826 10413
10817 21635
7724 15449
20954 41908
97 48
5093 10187
1324 2648
16408 32817
17634 35268
907 1815
14954 29909
44782 22391
7811 15622
49073 24536
29157 14578
3375 6751
8613 17227
36058 18029
9123 4561
10374 20749
59451 29725
26189 13094
3608 7217
58531 29265
28303 14151
29202 58405
13248 26497
68576 34288
19249 9624
30549 61099
748 1496
2340 4681
22440 11220
19619 39239
12663 6331
44176 22088
28052 56104
22457 11228
3420 1710
25385 12692
64874 32437
20962 10481
32236 64472
8130 4065
11044 5522
25383 50766
7737 15475
25641 12820
9480 4740
17596 35192
10611 21223
66024 33012
25455 50910
11568 23136
14185 7092
27036 13518
150 300
16314 8157
22694 45388
32772 65544
44063 22031
31565 15782
8439 16879
43493 21746
16040 32081
32118 64237
23384 46768
46771 23385
9968 19936
55144 27572
29514 59029
28982 57964
24761 12380
61533 30766
12664 6332
7937 15874
8546 17092
13253 6626
20345 10172
1134 567
5793 2896
19834 9917
19423 38847
31244 15622
8915 4457
26795 53591
16304 8152
18272 36544
9691 19383
26558 53116
14557 29114
19235 9617
76 38
27108 54216
27362 54724
45796 22898
61849 30924
44701 22350
22054 44108
43310 21655
12945 25890
68339 34169
50674 25337
66486 33243
24603 49207
50594 25297
11039 5519
15219 7609
14360 28720
17087 8543
15742 31485
30113 15056
46738 23369
40628 20314
58816 29408
19010 9505
27406 13703
51186 25593
23793 47586
30106 15053
51670 25835
2050 4100
22663 45326
61670 30835
13300 26600
23526 47052
34580 17290
21938 10969
43631 21815
12484 24969
48907 24453
27349 54698
23827 47655
14960 29920
14586 7293
41960 20980
7956 15912
32645 65290
987 1974
27904 55808
13189 6594
62751 31375
37605 18802
7120 3560
12797 6398
6677 13354
30362 60724
28232 56465
4346 8693
17863 35726
24716 49432
27903 55807
4570 9140
25447 50895
37157 18578
53331 26665
5284 10569
15819 7909
24289 48579
22360 44721
31695 63390
13521 27043
5131 10262
23403 11701
723 361
7929 15859
29600 59201
51009 25504
5506 11012
66141 33070
21032 10516
19765 39531
5564 2782
7525 15050
47582 23791
22970 45940
61333 30666
2924 5849
1591 3183
3026 6053
23069 11534
31534 63068
2616 5232
36047 18023
11985 23970
25142 12571
7757 15514
12419 6209
23702 47405
33008 16504
61202 30601
3126 6253
43388 21694
24544 12272
66109 33054
32109 64219
9831 4915
15864 31729
30418 60837
25986 12993
10148 20296
11569 23138
24277 12138
20027 40055
12007 24015
37156 18578
12565 25131
15239 30479
26549 13274
9592 4796
2767 5535
28761 14380
25089 50179
12500 25001
66183 33091
15299 30598
42001 21000
64218 32109
2988 1494
3762 1881
30381 60763
30331 60663
60729 30364
1732 3464
16862 8431
27290 54580
43013 21506
15619 31239
58684 29342
20457 40915
35053 17526
63858 31929
21766 43532
20763 41526
10816 5408
10034 20068
9532 19065
5581 11162
4611 9222
31967 15983
7587 15174
61377 30688
5977 11955
64818 32409
11997 23994
4393 2196
25288 50576
8547 4273
28347 56695
15354 30709
20866 41733
33587 67174
25145 50291
10650 21301
66567 33283
25710 51421
7415 14831
570 1140
24445 48890
14496 28993
20876 10438
35621 17810
13671 27343
10315 20631
15918 31836
2124 4249
30349 60699
69236 34618
25303 50606
3635 7271
22619 11309
10202 20404
63411 31705
43266 21633
21638 43277
39201 19600
2958 5917
3369 1684
67512 33756
56272 28136
23596 11798
56296 28148
331 165
20475 40951
20388 10194
26853 53707
58642 29321
11374 5687
5364 10728
8810 4405
56662 28331
58388 29194
30192 15096
58128 29064
1401 2802
7010 14021
54905 27452
21206 10603
29010 14505
16425 32850
1945 3891
16878 33756
7029 3514
59176 29588
31301 15650
21718 43437
18732 37465
66450 33225
50481 25240
48051 24025
10640 21280
13437 6718
11428 22857
54234 27117
6805 13610
12439 6219
32656 65313
11909 23819
11509 23019
61599 30799
28349 14174
14858 29716
21505 43010
4264 8528
55956 27978
51508 25754
8630 17261
6437 12874
12209 24419
35763 17881
38444 19222
13669 6834
1097 2195
49154 24577
10140 5070
1752 3505
21416 10708
27096 54193
16799 8399
14340 7170
9980 19961
2406 4813
1737 868
10745 21491
58594 29297
21893 43787
7358 3679
40590 20295
11971 5985
65006 32503
32306 64612
53300 26650
6835 13670
8464 16928
66212 33106
28041 14020
58521 29260
9449 18899
24225 48451
19368 38736
40271 20135
20265 40531
17104 8552
17597 35195
17832 35664
37327 18663
55219 27609
31464 62929
24245 48491
27344 54689
13083 26166
37127 18563
27896 55792
51896 25948
12131 24263
1420 2840
24656 49312
40593 20296
5083 10167
7516 15032
30992 61985
56416 28208
26265 52530
31458 62916
10903 5451
63001 31500
23387 11693
14090 28180
64379 32189
34279 68558
12956 25913
11578 23157
4888 9777
21564 10782
3137 1568
5454 10909
7208 14417
68442 34221
38338 19169
8321 16642
14602 7301
3295 1647
18882 37765
20848 10424
41479 20739
19419 9709
12021 24043
6728 13457
10483 5241
32743 65487
68741 34370
36119 18059
4950 9900
31407 62814
14842 7421
24606 49212
51749 25874
34404 17202
28621 57242
16404 8202
318 159
48109 24054
26338 52676
20093 10046
1748 3496
26534 13267
31212 62424
25486 50972
59673 29836
2116 4233
385 770
56636 28318
44693 22346
26060 52121
55896 27948
66627 33313
27632 55265
13846 6923
43387 21693
55186 27593
24507 49014
29349 58699
11873 23746
5682 11364
51798 25899
18331 36663
61757 30878
53972 26986
40395 20197
34725 17362
21583 43166
26055 52110
54595 27297
34417 68835
36237 18118
4796 9593
841 1683
64262 32131
19693 39386
17596 8798
26411 13205
17450 34901
32084 16042
34649 17324
19285 9642
13702 6851
11658 23317
62819 31409
20200 40400
18716 37432
33255 16627
21715 10857
60387 30193
29693 59386
21736 43473
23246 11623
23693 47387
18133 9066
54829 27414
3273 1636
10171 20343
68261 34130
22015 11007
25788 12894
59102 29551
27204 54409
16330 32661
41384 20692
1697 848
36902 18451
39831 19915
23490 11745
32182 64364
6470 3235
59384 29692
7500 3750
10287 20574
2045 4091
18217 36434
4164 8328
7265 3632
42962 21481
68281 34140
726 1452
16723 33447
20466 40932
52671 26335
16407 32814
12986 25973
24754 49509
41851 20925
4444 8888
7453 14907
45125 22562
11471 22942
16541 33083
25739 51478
17331 34663
42463 21231
39503 19751
19711 39422
23434 46869
2346 4693
55855 27927
6405 12810
11732 23464
28634 57269
30404 60809
17779 8889
12731 25462
6080 3040
61166 30583
5 10
8555 17111
2196 1098
24182 48365
22374 44749
11544 23088
41295 20647
25430 50861
34422 17211
12374 6187
31948 63897
50495 25247
46815 23407
67813 33906
64953 32476
33258 16629
13862 27724
43088 21544
33169 66339
23316 46632
20143 40287
2051 4102
6340 3170
7684 15368
15820 7910
61079 30539
26971 53942
32611 65223
6588 3294
54608 27304
23371 46743
22186 11093
35019 17509
29403 14701
26632 53265
56556 28278
560 1120
26024 52048
18147 36294
25889 51778
41666 20833
62928 31464
12245 24490
49835 24917
18877 37754
12373 24746
62196 31098
57657 28828
32268 64537
713 356
9095 18190
64422 32211
14864 29729
7037 3518
57468 28734
378 757
34811 17405
20987 41975
17330 8665
64146 32073
17909 35819
19838 39677
27667 55335
55316 27658
3443 1721
66996 33498
24715 12357
6866 13732
13224 26449
3393 6787
26696 13348
24174 48348
9305 4652
25623 12811
34436 68872
7978 15956
2863 5727
5642 11285
18524 37049
4025 2012
25267 50535
23210 46421
16132 8066
17635 35270
22129 11064
21840 10920
7093 14187
48166 24083
23698 47396
31219 15609
9112 18224
39600 19800
13583 27167
17869 35738
47323 23661
12928 25856
26307 13153
30692 61385
2109 4219
28330 14165
20019 40039
8160 16321
34499 68999
31283 62567
11512 23024
7135 14271
15553 31106
30684 61368
31020 15510
8705 4352
9232 18464
22885 45771
31281 15640
34072 68144
29746 59493
26792 53585
11599 23199
57981 28990
22330 11165
27190 54380
24126 12063
12905 25811
19356 38713
29126 14563
45303 22651
20117 40235
240 480
62605 31302
48311 24155
23450 46901
11876 23752
6498 3249
32342 64685
19251 9625
15475 30951
6972 13944
14477 28955
15400 30801
27326 54653
24385 48770
5449 2724
21854 10927
28948 57896
13661 27323
15886 31772
66368 33184
3397 6795
3048 6097
985 1970
7383 14766
24470 48940
32920 65840
34250 17125
19814 39629
10032 20065
32377 64754
17745 35490
32620 65241
8064 4032
8194 4097
21335 10667
16951 33902
11902 23804
6639 13278
24377 48754
22966 11483
10130 20260
31613 63226
12028 24056
67302 33651
21134 42269
29693 14846
57811 28905
4422 8845
1762 3524
9918 4959
12111 6055
6099 12198
67473 33736
5525 11051
10815 21631
25981 12990
12859 25719
54875 27437
7000 3500
9712 19424
63455 31727
22306 11153
21086 42172
15511 31022
6626 3313
26731 13365
20691 41383
329 658
52120 26060
18861 9430
9676 4838
20956 41913
674 1349
58605 29302
53388 26694
61744 30872
17364 34729
48318 24159
29713 14856
58115 29057
28054 14027
3586 7172
22297 11148
24504 49008
3834 1917
17748 35496
26584 13292
25761 12880
30614 61228
5959 11918
14437 28874
22157 11078
51398 25699
60054 30027
68763 34381
26468 52937
40246 20123
9608 19217
12860 25721
35907 17953
25893 51787
12870 6435
57606 28803
31905 15952
33141 66283
40902 20451
14795 29591
51242 25621
52477 26238
64935 32467
1174 587
54480 27240
20108 10054
2693 5387
21509 43019
7260 14520
62523 31261
5321 10642
1199 2399
9844 19688
6598 3299
31145 62291
4596 9193
2000 1000
24692 12346
63418 31709
22138 44276
5441 10882
25442 12721
42802 21401
26342 52684
17159 8579
21285 42571
17409 34818
2646 1323
22407 44815
66978 33489
62692 31346
9364 4682
20383 40766
24575 49151
49838 24919
24777 49555
39967 19983
5143 10286
21056 42113
10757 21514
13364 6682
34081 68163
69312 34656
63398 31699
7339 3669
32374 16187
43 86
13681 27363
9724 19448
33640 16820
3979 1989
28771 57543
13470 26940
32447 64894
6659 13318
11153 22307
22336 44672
31233 62467
29129 14564
66541 33270
27038 13519
6399 12799
19801 39603
50590 25295
16514 33028
1801 3602
17795 35590
13768 27536
27163 54326
61232 30616
20444 40889
43658 21829
17836 35673
444 222
30765 61531
8975 4487
57141 28570
8741 17483
6410 3205
48222 24111
9555 4777
24025 48050
9528 19057
30469 60939
33791 16895
34351 68703
34735 17367
5250 2625
15596 7798
540 1081
7076 14152
19667 9833
57960 28980
41057 20528
21695 43391
31872 63745
1045 522
3255 6511
6552 3276
310 620
31480 62960
4491 2245
31157 62314
1121 560
38396 19198
2655 5310
47780 23890
6644 3322
58073 29036
18385 36770
21976 43952
28247 56495
34741 17370
18617 9308
48982 24491
19642 39284
271 542
62585 31292
1953 3907
8142 16285
55604 27802
14009 7004
3131 1565
507 253
66766 33383
30225 60450
31334 62669
17349 34699
62085 31042
34035 68070
897 448
44647 22323
61659 30829
62833 31416
49238 24619
2229 1114
47304 23652
51647 25823
58867 29433
24432 48864
15836 31673
12059 24118
4099 8198
22375 11187
26727 13363
30424 15212
53517 26758
19865 39730
18020 9010
33609 67218
2980 5961
1828 914
61779 30889
15536 31072
4629 9258
42996 21498
37289 18644
28374 56749
3197 6395
50842 25421
4100 8201
7779 15559
1152 2305
25999 12999
30840 61681
4925 2462
14161 28322
4593 9186
29487 58974
15209 30419
24691 49383
22172 44345
28294 56589
3043 6087
6122 12245
31963 15981
34342 68684
42225 21112
9872 19744
26153 52306
14866 7433
9801 19602
7664 3832
14199 7099
445 891
23178 46357
65217 32608
24701 49402
25289 50579
46977 23488
22933 45866
29976 59952
25339 12669
11320 22640
26830 53660
52858 26429
66551 33275
15476 30952
16423 8211
12876 25753
5737 2868
11034 22068
20618 41236
151 75
55958 27979
11335 5667
42467 21233
14685 7342
2606 5212
55410 27705
2153 4307
31569 63139
28584 57168
33388 66777
16898 33796
42606 21303
59987 29993
66753 33376
2854 5708
15896 31792
9203 4601
56803 28401
19972 9986
49187 24593
25450 50901
18917 37834
57801 28900
1468 2937
17579 8789
13886 27772
10608 5304
10939 5469
10955 21911
830 1661
36634 18317
9694 19389
31720 63441
65821 32910
26912 53824
8602 17205
15111 30222
38120 19060
145 290
53419 26709
41181 20590
5459 2729
57875 28937
49444 24722
7427 14854
23534 11767
28953 14476
22711 11355
17398 8699
33508 67016
18331 9165
34304 68608
25895 51791
7564 15128
30622 61245
18515 37030
20336 10168
827 1654
33072 66144
28963 14481
66473 33236
823 411
64029 32014
63 127
28562 14281
25783 12891
12835 6417
9237 18474
60650 30325
16095 32190
8975 17950
47454 23727
656 1313
44374 22187
20845 41690
6435 12871
13307 26615
19970 39941
49661 24830
13013 26027
3104 6209
32679 65359
36240 18120
4151 8302
11842 23685
4689 9378
29438 14719
34105 68211
5905 11811
11199 22398
33524 67049
1992 3985
31872 15936
6299 12598
27630 55261
32003 64006
9257 18515
16653 33307
11308 22617
31214 62428
32556 65113
876 438
19542 9771
1830 3661
64711 32355
41431 20715
21183 42366
14284 7142
860 1721
4535 9070
6142 3071
41714 20857
14767 29534
44375 22187
23407 11703
14224 28448
42298 21149
57121 28560
42132 21066
33326 66653
23888 47777
50541 25270
27592 55184
5001 10003
51260 25630
9415 18831
20304 10152
33257 66515
19327 9663
34663 69327
196 98
15890 7945
7753 15506
34000 68001
59582 29791
26770 53541
24045 48090
1175 2350
51773 25886
11818 5909
14431 28863
4539 2269
23246 46493
6667 13334
23253 11626
57128 28564
67362 33681
1114 2228
35297 17648
15188 30377
17559 35118
28365 56730
17312 8656
66266 33133
53993 26996
61780 30890
50124 25062
21067 42134
31601 15800
47148 23574
64176 32088
16390 32781
23998 47997
61023 30511
32330 16165
17637 35275
68116 34058
58301 29150
27136 54272
5824 11649
30369 60738
9464 4732
64938 32469
11321 5660
688 344
2925 1462
30515 61031
65599 32799
54497 27248
14748 7374
5271 2635
3671 7343
33073 66147
1340 2681
62384 31192
25480 50961
3571 7143
1940 970
20178 40357
41091 20545
59158 29579
26473 52946
60894 30447
13151 6575
61720 30860
45728 22864
56023 28011
64067 32033
24621 49242
13314 6657
31449 15724
30348 60696
17773 35546
4818 9637
3806 7613
16054 8027
6095 12191
6949 13898
60049 30024
29123 58247
9810 19620
4893 9787
25537 12768
22094 44189
8590 4295
22018 44036
17781 8890
65059 32529
59478 29739
6496 3248
42030 21015
67864 33932
12216 24433
3797 7594
63716 31858
23000 46001
27591 55183
10385 5192
15711 31422
9145 4572
31426 15713
60598 30299
27739 55479
23454 46908
17789 35579
20915 10457
7083 3541
8380 16761
28638 14319
13664 27328
31886 63772
48464 24232
9622 19244
191 95
18047 36094
9729 19459
19162 9581
10721 21442
29908 14954
2575 1287
17017 34035
33110 16555
23448 46896
34533 69066
14606 29212
53001 26500
34652 17326
28445 56890
2937 5874
11708 23417
3924 7849
13276 26553
35435 17717
64949 32474
42618 21309
41498 20749
58978 29489
65749 32874
31596 15798
45116 22558
22816 11408
54624 27312
47887 23943
13411 26823
20410 40821
3674 1837
10084 20168
2399 4799
54356 27178
42494 21247
2332 1166
28810 57621
7997 3998
880 1761
34042 17021
43378 21689
10604 21209
6002 3001
13681 6840
21744 43488
22040 44081
33117 66235
14172 28345
6535 13070
12019 24038
28538 57077
61254 30627
19772 39544
8659 17318
40237 20118
62098 31049
28072 14036
13800 27601
22044 44088
22369 44739
23395 46791
14035 28070
24853 49706
22963 45926
6833 13666
28750 57500
4401 2200
21287 10643
61441 30720
26929 53858
19361 38723
18171 36343
24493 12246
22724 45448
23456 46912
22581 11290
1233 2466
18209 9104
24300 48600
15235 7617
28338 56676
667 1334
26924 53849
6431 3215
24859 12429
23080 11540
24720 49440
39589 19794
2516 5032
27902 13951
43256 21628
10674 21348
52502 26251
7835 15670
47789 23894
12461 6230
7436 14872
15674 31349
18536 37073
25299 12649
20206 40413
41118 20559
62046 31023
59314 29657
14081 28163
21956 43912
13423 26846
23066 46133
19069 9534
68708 34354
18233 9116
5480 10961
5604 11209
5980 2990
27425 13712
24185 48371
6653 3326
27225 54451
51491 25745
262 524
20066 40132
14856 7428
32237 64474
3593 1796
20372 40745
37610 18805
21552 10776
14880 29760
63451 31725
27054 54109
21095 10547
3146 1573
20709 41418
10105 20211
28047 56095
20940 41881
3936 7872
14175 28350
19258 9629
23607 11803
30632 61264
11416 22832
38577 19288
34516 69033
10222 20445
1573 786
27715 55430
28090 14045
16630 33260
38766 19383
11069 5534
28988 57977
16246 32493
45485 22742
6348 3174
35145 17572
16005 32011
5597 2798
7438 14876
22326 44652
31714 15857
8140 4070
37228 18614
69272 34636
34000 17000
45468 22734
65803 32901
34128 68256
9218 18437
10536 5268
32386 64772
2016 4033
1324 662
24894 12447
13449 26899
6177 3088
7973 15946
22689 45378
14469 28938
8815 17631
14928 29857
33871 16935
6397 3198
28681 57363
30782 15391
58806 29403
64613 32306
18256 36513
20050 40101
33525 67051
21691 43383
49616 24808
6730 13461
10000 5000
26826 53652
14784 7392
18751 37502
47368 23684
12253 24507
34614 69229
44396 22198
31432 62864
13306 26613
18254 9127
1144 572
15429 30859
13303 26606
47438 23719
60011 30005
60114 30057
12808 6404
598 1196
10505 21011
282 141
21587 43174
6854 13708
17181 34363
55124 27562
31933 63866
68099 34049
28930 57861
5610 2805
22102 44205
40084 20042
66329 33164
11776 23553
3833 7666
9612 4806
50783 25391
43082 21541
5927 2963
14030 28060
5526 11053
1566 3132
31773 63546
3670 7340
38787 19393
2870 5741
2393 4787
21648 43296
41926 20963
6874 3437
31535 63070
67337 33668
19081 38162
2768 5537
23787 47574
14463 28926
7397 14795
13614 6807
17598 8799
10207 20415
8594 17188
35146 17573
33515 67030
1082 2164
28129 56258
15066 30132
41055 20527
10404 20809
22701 11350
67419 33709
19496 38992
3883 1941
11770 23541
5019 2509
39712 19856
31640 63281
12067 6033
52455 26227
15867 7933
49930 24965
50754 25377
20024 40048
32553 65106
9954 4977
11540 5770
34184 68369
26713 53426
33055 66111
25315 50631
33594 67189
24778 12389
8455 16911
17963 35926
50671 25335
62893 31446
21522 43044
59631 29815
1131 2263
67566 33783
15327 30654
11896 5948
15066 7533
62802 31401
15679 31359
40809 20404
20461 10230
14771 7385
13581 27163
3566 7133
7617 15234
6374 12749
27510 55020
47136 23568
16329 32659
5964 11928
17576 8788
11242 5621
47478 23739
2469 1234
5872 2936
65922 32961
38850 19425
43583 21791
4530 2265
5873 11747
32897 65795
20439 40878
62725 31362
34395 17197
14921 29842
736 1472
29010 58021
62795 31397
20906 41813
33800 67600
1075 2150
3174 6349
10736 21472
33553 67106
23261 11630
34364 68728
2193 4386
6368 12736
24598 49197
33966 16983
29296 58593
20504 41009
54571 27285
24732 49465
26718 13359
31843 63686
32972 16486
4446 2223
31172 15586
42633 21316
5811 11622
21698 43397
4182 8365
57230 28615
18741 9370
30912 15456
12149 24298
13846 27692
8261 4130
45127 22563
13584 27169
43636 21818
23027 11513
10214 5107
26811 53623
30394 60788
24088 48177
27973 55947
32661 65322
68079 34039
18629 9314
30773 15386
24759 49519
38526 19263
1022 2044
17922 35844
32772 65545
33700 67400
8535 17071
42328 21164
57129 28564
6714 13429
22844 45688
27713 13856
19494 9747
21216 10608
23579 11789
33400 66801
8280 4140
43491 21745
22087 11043
6764 13529
22157 44315
3791 7583
26954 53909
13097 6548
28493 14246
12720 25441
5689 11378
17903 8951
46076 23038
5135 10270
8969 4484
33658 67317
32327 64655
23204 46409
420 841
5853 11707
4409 8819
8560 17120
18621 37243
25012 50024
1486 2973
29790 14895
18664 37329
6670 13340
6559 13118
21608 43216
13705 27410
6580 13161
29002 14501
40963 20481
9842 19685
27060 54121
1583 791
46246 23123
12345 24690
46584 23292
16879 33759
19457 9728
29018 58037
25635 51271
10495 20990
22463 11231
17686 35372
61336 30668
20484 40969
14290 28580
45729 22864
68125 34062
16637 8318
12791 6395
33933 67867
13582 27164
34560 69121
16108 32216
4848 9696
6232 12465
15311 30622
56092 28046
28708 57417
253 126
37661 18830
22762 45525
49890 24945
12192 24385
61584 30792
35729 17864
47424 23712
49801 24900
8766 17533
21330 10665
55524 27762
15834 7917
12612 25225
14512 29024
8574 17148
29805 59610
31286 62573
19904 39809
10838 21677
3903 7806
45565 22782
1084 2169
40567 20283
30332 60664
67706 33853
21921 43842
26072 13036
16608 33216
3962 7925
24953 12476
2713 1356
5847 11694
50094 25047
17334 34669
641 320
58147 29073
33959 67918
35525 17762
17301 34602
12910 6455
16162 8081
31515 63030
3921 7843
11213 5606
6288 3144
57059 28529
28545 14272
29048 14524
33975 16987
31412 15706
20253 10126
24410 48821
59283 29641
40898 20449
17495 34990
4983 2491
33910 67821
14894 7447
2848 1424
57998 28999
26124 52249
11789 23578
29592 59185
11130 5565
7822 3911
27685 55371
41416 20708
32057 64115
35576 17788
36588 18294
48181 24090
30870 61741
60046 30023
36750 18375
25072 50144
7506 3753
51715 25857
65218 32609
60299 30149
23956 11978
48404 24202
32738 65477
60797 30398
20352 40704
7912 15824
16066 8033
29001 58002
17308 34617
31248 15624
6147 12295
65257 32628
30458 60916
41787 20893
34108 68217
32264 64528
41284 20642
1296 2592
44241 22120
38391 19195
8861 4430
16486 32973
4599 9199
4897 2448
25432 50865
48122 24061
65402 32701
34336 68672
26066 13033
33046 66092
28996 57992
14495 28991
69023 34511
29239 58478
67445 33722
5696 11393
50336 25168
3798 1899
60117 30058
49147 24573
61266 30633
15757 31515
8415 4207
4325 2162
30371 15185
5807 11615
21937 10968
26128 52256
2170 4340
67929 33964
61179 30589
28706 57412
18592 37185
23813 47627
5131 2565
51770 25885
33771 67542
1372 2744
12015 6007
35207 17603
46814 23407
25193 12596
30100 60200
31081 15540
42767 21383
672 1344
21738 43477
11056 22112
29051 14525
1094 2188
29457 58915
4461 8923
25897 51794
21693 43386
61707 30853
15304 30609
58220 29110
14067 28134
51820 25910
34042 68084
29633 59267
36924 18462
7774 15549
898 449
27019 13509
2746 5493
11245 22490
51868 25934
6485 12970
41382 20691
17549 35098
39484 19742
45746 22873
2750 5500
31423 15711
56905 28452
54819 27409
30706 61412
29948 59897
44385 22192
19500 9750
1298 2596
31275 15637
22264 44528
4748 2374
29446 58893
26836 13418
5152 10305
19108 38216
10862 5431
17145 34290
24838 49677
7132 14265
43042 21521
1659 829
29698 59396
60610 30305
53323 26661
13445 26891
22211 44422
23368 46736
61732 30866
5005 10010
3051 6103
6943 13886
3003 6007
28626 57252
23252 11626
16251 32502
64275 32137
14218 28437
13021 6510
24690 49380
18417 36834
24009 12004
19493 38987
19612 9806
74 149
29364 14682
9490 18980
26320 52641
29555 14777
40120 20060
29151 58303
20568 10284
31059 15529
69069 34534
8758 17516
30990 61980
21519 10759
3516 7033
31348 62696
20524 41048
47111 23555
51265 25632
24195 48390
51316 25658
12601 25202
487 975
31708 63417
16852 33704
20757 41514
9339 18679
30944 61889
51241 25620
59710 29855
21297 42595
67471 33735
13167 26334
23688 47376
49719 24859
7716 3858
36187 18093
28205 14102
15525 31050
20990 41981
28162 56325
27000 54001
18228 36457
23161 11580
51867 25933
67901 33950
11285 22571
617 1234
2996 1498
18905 9452
31388 62777
27112 54225
56277 28138
20578 41157
13323 26647
1075 537
39236 19618
34637 17318
28604 57208
4369 2184
55835 27917
4875 9751
60187 30093
58569 29284
18780 9390
23289 46578
10525 21051
2693 5386
24688 12344
6149 12299
14766 29532
18902 37805
22749 45499
50184 25092
23945 47890
20920 41840
11106 5553
14804 7402
24722 49445
9970 19941
993 1987
4509 9019
63060 31530
9032 18065
544 272
29195 58390
21155 10577
8325 16651
14922 29844
8719 17438
67033 33516
24805 12402
10272 20545
5116 10233
34473 17236
28814 14407
7015 3507
36603 18301
4440 8881
45718 22859
52257 26128
21901 43802
66493 33246
23703 47406
33885 16942
31135 15567
8433 4216
19565 39131
13288 6644
1535 3071
61935 30967
31290 15645
27771 55542
49718 24859
9360 4680
27480 54961
32091 16045
5508 11016
24026 48053
33731 16865
7225 3612
44480 22240
5354 10709
20609 41218
6490 12981
24700 49401
30406 15203
6314 12628
10730 21461
25737 51474
8952 17905
27821 13910
50462 25231
9602 4801
11986 23972
66035 33017
44444 22222
45040 22520
63187 31593
7118 14237
61523 30761
12517 25034
58426 29213
37579 18789
12455 24911
11762 23525
16779 33559
27228 13614
10245 20491
50692 25346
51538 25769
43067 21533
15895 7947
361 180
16181 8090
30682 15341
240 481
54247 27123
17674 8837
3936 7873
2874 1437
33923 16961
29493 58987
15687 31374
45683 22841
24079 48158
50211 25105
54296 27148
5495 10990
25879 51759
20911 41823
29268 58537
16105 32210
35556 17778
2284 4569
2580 1290
60097 30048
57410 28705
7185 3592
8986 17972
64002 32001
6623 13247
34659 69319
28260 56520
42528 21264
53727 26863
33527 16763
14927 29855
32608 65216
16237 8118
31122 62244
12525 25050
3087 6174
68747 34373
1882 941
42458 21229
11214 22429
56838 28419
47809 23904
45702 22851
10986 5493
31253 62507
33772 67545
29526 59052
26706 53412
16563 33126
57652 28826
2669 5338
17705 35410
30654 61308
20767 10383
17098 34196
17934 8967
3335 1667
5552 11105
39299 19649
23236 11618
46508 23254
35636 17818
38168 19084
56276 28138
49044 24522
23100 46200
48110 24055
37376 18688
19906 39813
8038 4019
20957 41915
9432 18865
25838 12919
2477 4955
23258 11629
28385 56770
48878 24439
30134 15067
28592 57185
31723 15861
33820 67640
6081 12163
27886 55772
34383 17191
9801 19603
13963 27926
46579 23289
15694 31388
65660 32830
50869 25434
23611 11805
24833 49667
1401 700
19662 39325
33466 66933
20946 41892
5927 11854
26866 53733
33623 67247
40035 20017
52289 26144
21758 43516
29918 59836
2801 5602
23649 11824
22044 11022
34443 17221
26686 53372
28346 56693
45159 22579
33403 16701
19662 9831
44083 22041
68927 34463
25359 50719
3833 7667
59522 29761
32805 65611
23948 11974
24301 12150
44248 22124
12318 24637
1009 2019
5322 10644
3769 7539
23025 11512
28862 57724
5904 2952
26457 13228
33121 66242
21357 42715
11696 5848
4441 2220
27000 13500
24704 12352
41719 20859
24781 49563
283 567
64233 32116
63761 31880
49378 24689
22276 11138
3052 1526
29188 14594
21582 43165
13856 6928
35224 17612
53026 26513
19703 39406
3837 1918
39806 19903
14464 7232
49356 24678
34045 17022
6627 13255
5547 2773
11227 22455
5972 11944
68376 34188
31086 62173
65303 32651
33712 67425
7695 15390
18447 36895
13163 26326
18132 9066
36176 18088
29228 58457
28501 57002
9659 19318
22239 11119
44787 22393
27946 55892
22115 11057
66633 33316
20762 41525
23135 11567
17553 8776
13581 6790
7750 15500
10631 21262
29784 59568
10876 21753
58151 29075
55269 27634
55352 27676
651 1303
34334 17167
34756 17378
12881 6440
30728 61457
23473 46947
21566 10783
57842 28921
42986 21493
11160 22320
17755 35511
32428 64856
48752 24376
26544 53089
61914 30957
26871 53742
3933 7866
10289 20578
23400 46800
2856 5713
4756 2378
64893 32446
576 288
60 120
9965 4982
467 233
9999 19999
25274 12637
32825 65651
10878 21756
6343 12687
37662 18831
7741 3870
21634 10817
34004 17002
17185 8592
18018 9009
64061 32030
20604 10302
28105 14052
20644 10322
20562 41124
17826 35653
32783 65566
26888 13444
1566 3133
2771 5543
15125 30251
11660 23321
24132 48264
61107 30553
30213 15106
4831 9663
26635 53270
21542 43084
20030 40060
54112 27056
7102 14204
2565 5130
65284 32642
14576 29152
16124 32248
8708 17416
54448 27224
65956 32978
22965 11482
23225 46451
25934 51869
30870 61740
32650 65301
11388 22777
34364 68729
17800 8900
21822 10911
1606 803
26333 52667
34894 17447
6540 13081
61140 30570
24462 48925
43589 21794
31288 62576
27542 55084
31645 63290
11169 5584
16167 32335
16994 33988
15037 7518
2524 1262
45789 22894
7716 15433
54831 27415
14375 28750
23215 46431
4856 9712
34653 69307
1192 596
67463 33731
210 420
15403 30807
11763 5881
60218 30109
55328 27664
15225 30451
21367 42734
13052 26105
2390 4780
39966 19983
39932 19966
9373 18747
8675 17350
8085 4042
24182 12091
14026 7013
30043 15021
2326 4653
57278 28639
53181 26590
6451 12903
8701 17402
28151 14075
25287 12643
59258 29629
4870 9740
8940 4470
14134 28268
2887 5774
2686 5373
45598 22799
31671 63342
54812 27406
30696 61392
11455 22911
22872 11436
8641 4320
22430 44861
96 192
24843 49686
46339 23169
17773 35547
7073 14147
11704 23408
20644 41288
3436 6872
13299 26598
10002 5001
16676 33353
25674 51349
56247 28123
19329 38659
28339 14169
52194 26097
4517 9035
32188 64376
22212 11106
11881 5940
4417 8834
47569 23784
5254 10508
7379 3689
29072 58145
23085 46170
10444 20888
6711 3355
8372 16744
5955 2977
23724 47449
24048 12024
15190 30381
16056 8028
21427 42855
61621 30810
9556 19112
57170 28585
4989 2494
27292 54585
27242 54485
30753 15376
26877 53754
8454 16908
941 1883
28423 56846
68434 34217
26644 53289
16909 8454
13370 26740
57263 28631
29145 58290
20190 10095
8648 17296
17711 35422
64135 32067
1584 3169
33116 16558
5771 11543
27848 55696
38698 19349
34274 68549
17999 35999
63216 31608
33076 16538
40396 20198
15541 7770
25246 50493
26427 13213
67296 33648
18570 9285
44884 22442
54204 27102
208 104
25364 50728
4843 9687
28587 57175
689 1378
43716 21858
22628 11314
55035 27517
33732 67465
2563 5127
28762 14381
9219 18438
28142 56284
67564 33782
34462 68924
27268 13634
7068 3534
1255 2510
30906 61812
9648 4824
41839 20919
25940 51880
24149 48299
28434 14217
45904 22952
28777 57555
30337 60675
10134 5067
1579 3158
15253 30507
16539 33079
11843 23687
16729 33459
2530 5060
15121 7560
3685 7370
16686 33373
48932 24466
20561 41123
68300 34150
36883 18441
5072 10144
22266 44532
16085 8042
9831 19663
29953 14976
2096 4193
21379 42759
13178 26357
20354 40708
1722 861
22323 44646
43129 21564
24840 49680
20831 10415
61802 30901
32263 16131
56880 28440
20694 41389
57132 28566
745 372
15883 31766
14789 29579
36929 18464
26540 53080
29955 59910
34393 68787
760 1521
31115 62231
67964 33982
30070 60140
12816 25633
14996 29993
3661 7323
28246 56493
21839 43678
7750 15501
31497 62995
31540 15770
18251 36502
23005 46011
17105 34211
20303 10151
15528 7764
521 260
25960 12980
23667 47335
4380 2190
10544 21089
11302 22604
16688 8344
30558 61117
9078 18156
56518 28259
43656 21828
20788 41577
31660 63321
31900 15950
33053 66106
4 2
20162 40324
57876 28938
8770 17541
8092 16184
58188 29094
10877 21755
20427 10213
35338 17669
1228 614
28617 14308
1997 3994
24267 48534
49946 24973
6589 3294
67546 33773
21696 43393
7153 3576
16846 8423
15731 7865
50253 25126
45585 22792
63243 31621
62572 31286
59853 29926
24768 49537
34635 17317
13971 6985
27412 54825
12647 6323
29108 14554
5099 10199
12550 25100
16885 33771
34495 68991
32473 64946
5967 2983
25207 50414
33165 66331
27448 13724
4506 2253
29674 14837
25782 51565
16831 8415
8391 16783
3065 1532
11348 22696
19964 39929
68461 34230
7958 15917
10100 20201
136 272
4126 8253
4675 2337
23445 11722
12861 25723
38249 19124
29108 58217
10042 20084
9732 19464
111 55
64 128
31972 15986
23012 46025
66837 33418
32984 65969
21446 10723
17325 8662
43901 21950
47114 23557
39771 19885
12756 25512
19275 38550
5429 10859
10493 20986
16673 8336
3719 7439
57686 28843
5194 2597
3632 7264
69213 34606
4592 9185
29028 14514
18926 9463
45078 22539
49229 24614
20348 10174
6578 3289
13891 6945
14748 29496
40845 20422
38108 19054
12719 25439
17295 8647
38641 19320
11194 22388
11425 22851
21771 43542
47316 23658
2719 5439
5721 2860
25183 12591
34118 68236
18465 36930
10820 21641
2165 1082
31274 62548
22606 45212
32512 65025
14506 29012
7422 14844
68401 34200
45488 22744
26458 13229
66413 33206
32625 65251
23605 47210
8838 17676
32494 64988
57280 28640
3092 1546
19373 38747
16858 8429
14716 29433
58350 29175
31791 63583
20328 40657
16347 32695
26918 13459
22610 45221
63817 31908
15597 31194
40930 20465
5819 2909
45090 22545
15531 7765
3336 6673
68567 34283
1818 3636
418 836
8748 17496
16942 8471
26319 13159
48609 24304
12351 6175
9546 19093
64674 32337
12762 25524
6593 13187
53242 26621
9027 4513
14124 7062
18550 9275
11072 22144
1553 3107
39644 19822
13073 6536
2808 5617
13829 27659
65717 32858
33375 66751
24121 48242
25060 12530
14291 28582
64899 32449
23234 11617
35845 17922
8965 17931
12602 25204
17912 35825
8583 4291
9426 18852
26720 53441
20446 40892
19717 9858
46969 23484
40483 20241
51261 25630
63919 31959
15157 7578
16580 8290
39982 19991
7647 3823
17984 8992
1925 962
24253 48506
63233 31616
23676 47353
32867 65735
13073 26146
12967 25935
67172 33586
16589 8294
19296 9648
16922 33845
3666 7332
23173 46346
4513 2256
69067 34533
29284 14642
22906 45813
2921 5843
65144 32572
160 320
33692 16846
26751 53502
42550 21275
11312 22625
26416 52833
3116 6232
2432 1216
66852 33426
14857 29714
29766 59533
30561 61123
66994 33497
27789 55579
54104 27052
41116 20558
3561 7122
246 492
59515 29757
47716 23858
4433 2216
18213 9106
19196 9598
15327 7663
3165 1582
2058 1029
60635 30317
62167 31083
32185 64370
68494 34247
29165 14582
4472 2236
22807 11403
28143 14071
19272 38544
17030 34061
38021 19010
23871 47743
4492 8984
15202 30405
10648 21297
27594 55188
34600 69200
29134 58268
10702 5351
39477 19738
16292 32585
64308 32154
11584 23168
32515 65031
11941 23883
16203 8101
8733 17467
19783 39567
32191 64382
48963 24481
35259 17629
32691 65383
28834 57668
27015 54030
2695 5391
12896 25793
33621 67242
21997 10998
4616 9233
24420 48840
42597 21298
30233 15116
19926 39852
47893 23946
14162 28324
14920 29840
44630 22315
46787 23393
6974 3487
11819 5909
25858 12929
37444 18722
16249 32498
9714 19428
6961 13923
35808 17904
64647 32323
2340 1170
17206 34413
26507 53015
58051 29025
13875 6937
5612 2806
28193 14096
45218 22609
21382 42765
14584 29168
56558 28279
5117 2558
2433 4866
29539 14769
25127 50254
2171 1085
5391 10783
18747 37495
39814 19907
1289 2578
14295 28590
23281 46563
12091 6045
5998 11997
1944 972
24498 48997
32472 16236
38870 19435
23871 11935
20495 40990
24571 49142
54115 27057
37023 18511
47621 23810
24206 48413
43357 21678
36728 18364
20165 40331
10275 5137
56820 28410
7465 14931
26462 13231
56942 28471
2434 4869
9104 4552
13961 27923
3531 7062
37498 18749
55428 27714
32401 64803
41320 20660
1715 3431
18159 9079
16219 32438
55618 27809
12772 25545
32675 65350
61045 30522
22021 11010
18308 36617
5062 2531
15429 7714
19944 39889
8943 4471
52504 26252
22069 44138
43015 21507
56591 28295
51415 25707
15010 30021
4312 8624
25150 50300
24967 49934
13858 27716
63860 31930
68096 34048
66822 33411
27947 13973
56602 28301
10809 21619
9899 19798
6504 13008
866 1733
16462 32925
2949 5899
40090 20045
29883 59767
27777 13888
23876 47753
17930 35861
3495 1747
13674 27348
52007 26003
51874 25937
31534 15767
31744 63488
25694 12847
39795 19897
25644 51288
7588 15176
5924 11849
34889 17444
17144 34289
9262 4631
27957 55915
19177 38355
62329 31164
13175 6587
15846 7923
4925 9851
32886 65772
34377 17188
15011 30023
59281 29640
48468 24234
4414 8829
41443 20721
30212 15106
24315 48630
20322 40645
36018 18009
50188 25094
3720 7441
6700 13400
17518 35037
31410 15705
58159 29079
24887 12443
545 272
17997 8998
53916 26958
16648 8324
15096 30193
30608 61217
10949 5474
8808 4404
43259 21629
4667 9335
15471 7735
1343 671
29691 59382
44388 22194
12725 6362
25851 51703
36358 18179
12652 25305
46544 23272
1908 3816
33577 16788
28071 14035
17268 8634
57630 28815
32827 65654
13745 27490
36730 18365
15423 30846
51235 25617
25049 12524
26947 53895
6126 3063
16073 8036
12858 25717
51287 25643
19944 9972
32784 65569
14637 29274
11170 5585
2628 1314
24675 12337
54327 27163
11588 23176
30801 61603
13927 27855
9474 4737
21557 10778
5478 10957
6266 12532
10892 5446
18413 9206
11272 5636
25779 12889
10350 5175
6795 13590
4091 8182
11731 23463
23045 46090
22852 11426
18357 36714
33711 16855
27649 13824
30983 15491
7665 15331
13716 27433
6383 12766
17633 8816
2319 4638
11037 5518
12478 24957
22109 44218
10122 20245
27295 54590
8588 17177
30535 61071
51572 25786
21675 43351
13759 6879
16534 33068
20222 40445
419 838
24706 49413
5428 10856
715 357
12290 6145
38407 19203
15109 30218
20199 10099
4533 9067
14616 29233
33604 16802
58817 29408
23521 47043
22953 45907
28995 14497
1321 2643
16443 32887
40599 20299
27165 54331
14286 7143
9665 19330
55540 27770
35847 17923
63261 31630
58917 29458
3862 7724
7088 14176
1830 915
46613 23306
6660 3330
23707 11853
7351 14702
32728 65457
3345 1672
17534 35068
37884 18942
14497 7248
62487 31243
3328 1664
9049 18099
15952 31904
58729 29364
60152 30076
8293 16587
33339 16669
349 174
17601 35202
16276 8138
27360 54721
2198 1099
7079 14159
23772 11886
5256 2628
6821 3410
33245 16622
37772 18886
39539 19769
43447 21723
21556 43113
31091 15545
32424 16212
31722 63444
2075 1037
19901 39802
37553 18776
18343 9171
3590 7181
3623 1811
7749 15499
7705 3852
11531 23063
18872 9436
10161 20322
25562 51124
21953 10976
28581 14290
18298 36596
25330 50660
18066 36132
17485 34971
26080 13040
6337 12675
1058 2117
26763 53526
29112 58225
33857 67715
9002 18005
15444 30889
37101 18550
19256 38513
6784 13569
33010 16505
68403 34201
24154 48308
29530 14765
5187 2593
557 1115
5541 11083
26121 13060
2239 4479
47532 23766
56176 28088
11661 23322
30517 15258
6134 12268
68754 34377
64432 32216
6480 12961
22272 44544
20782 10391
36897 18448
9553 19106
36692 18346
26051 52103
15651 7825
65547 32773
17963 8981
9326 18653
34344 68689
61305 30652
52687 26343
51713 25856
8010 16020
62561 31280
11882 23765
5824 2912
29452 58905
3984 1992
9850 19700
8148 16296
8622 17245
19812 39624
24449 12224
41300 20650
64687 32343
1067 2135
15537 7768
68550 34275
11688 5844
17558 35116
29921 59842
11495 5747
4141 2070
46214 23107
21844 43688
23451 46902
67380 33690
8437 4218
69287 34643
18140 36281
27209 54418
7278 14557
32016 16008
60126 30063
20686 41372
52763 26381
17178 34356
24283 12141
49472 24736
34648 17324
7290 14581
18459 36918
25159 12579
28944 57889
61372 30686
37092 18546
31835 15917
431 863
2784 5569
9611 19222
60853 30426
20144 40288
10760 21520
16199 8099
32537 65075
9938 19877
8878 17756
61382 30691
33906 67812
26650 13325
4391 8782
30913 61826
23160 46321
19307 9653
13220 26441
32820 16410
16594 8297
8844 17689
17230 8615
42795 21397
6188 12377
21485 42971
21898 43796
33149 66299
8409 16818
12885 25771
10886 21772
37141 18570
27417 13708
16540 8270
10466 5233
25559 12779
14426 28852
26338 52677
10247 20495
35026 17513
16575 33151
4229 8458
30370 15185
68775 34387
17890 8945
18524 9262
5668 2834
29771 59542
55002 27501
12771 25542
32492 16246
25724 51449
46177 23088
2895 5791
12856 6428
18406 36813
54792 27396
29071 58142
16013 8006
9571 4785
32248 64497
114 229
18196 9098
11672 5836
4690 9381
25894 51788
5965 11931
12542 6271
23658 47317
4234 8468
56029 28014
28820 57640
44928 22464
29658 14829
18626 9313
30286 60573
5679 2839
33468 16734
26799 13399
22236 44473
49484 24742
6198 12396
25965 51931
47 95
19249 38499
37472 18736
4611 2305
62313 31156
61629 30814
22073 44147
34373 68746
6218 12436
60015 30007
12730 25460
41456 20728
14493 28987
65045 32522
4932 9865
7049 14098
25236 50473
10234 20469
62029 31014
52428 26214
62432 31216
31748 63496
69293 34646
1869 3739
49810 24905
13262 6631
42441 21220
32547 65095
8863 4431
12405 6202
6337 12674
14218 7109
18146 9073
26964 53928
16498 32997
21878 10939
6376 3188
2089 4179
14327 28655
67606 33803
29974 59949
949 1899
34233 68467
17113 34227
28828 14414
19723 9861
13385 6692
28177 56355
27509 55018
13225 6612
16294 8147
59753 29876
57009 28504
3923 1961
54467 27233
33697 67395
6565 13131
6032 12065
24189 48379
66300 33150
50710 25355
9936 19873
20724 41449
16335 8167
47967 23983
15323 30646
2052 1026
44028 22014
1948 974
52961 26480
64589 32294
9214 18429
28675 57350
14046 28092
15472 7736
29097 14548
33814 67629
847 423
52784 26392
48107 24053
16787 33574
53071 26535
13128 6564
18485 36971
34392 17196
12979 25959
13273 26547
42425 21212
13409 26818
24243 48487
8756 4378
41391 20695
59592 29796
16989 8494
62500 31250
10345 20691
18835 37671
39329 19664
66463 33231
1718 3436
30262 60525
15199 7599
25028 50057
19856 39713
46988 23494
4840 9680
4926 9852
29426 58852
15872 7936
28148 14074
46209 23104
66240 33120
2366 1183
35107 17553
62998 31499
8197 4098
29002 58005
54525 27262
58102 29051
4823 9646
21221 42443
25552 51105
9770 4885
61669 30834
7340 14680
33202 16601
62267 31133
22027 11013
41869 20934
25718 51437
15766 7883
6963 13926
18804 37608
9358 18716
11940 23880
11639 5819
11498 5749
28993 57987
14592 29185
44906 22453
47536 23768
14407 28815
59701 29850
54 109
27105 13552
67306 33653
47452 23726
28648 57297
11424 5712
68681 34340
66290 33145
1454 727
16089 8044
9304 18608
15799 31599
20092 10046
4638 9276
68112 34056
66418 33209
7436 14873
17897 8948
43320 21660
18343 36687
15035 30070
32200 64401
11255 22511
10124 20248
26752 13376
27846 55693
13920 6960
30802 15401
35996 17998
231 115
9309 18619
30583 61167
13670 27341
59614 29807
9778 19557
30379 60758
9509 19018
68720 34360
68992 34496
8891 4445
10853 5426
47365 23682
278 556
5136 2568
17698 35396
38583 19291
67974 33987
19482 38964
1018 2036
14275 28550
26819 53639
36285 18142
8842 17685
29109 58219
49515 24757
33206 16603
33968 67937
2664 5328
20695 10347
34122 68245
5570 11140
27640 55281
62206 31103
25879 12939
19120 9560
20868 41737
1471 2943
29963 59927
13862 27725
28753 14376
44654 22327
2302 1151
31979 15989
16216 32432
39770 19885
404 808
22827 45655
10899 21798
15155 30310
55170 27585
46004 23002
48 96
44302 22151
65549 32774
43758 21879
29159 58318
46101 23050
34421 68842
22167 44335
15709 31419
57838 28919
25371 12685
28233 14116
22122 44244
8894 17789
22829 45659
46921 23460
25691 51383
29829 59659
8177 16355
20337 10168
8288 16577
17582 35165
24914 49829
17794 8897
61811 30905
32744 65488
15063 30127
68501 34250
31056 15528
59318 29659
14428 7214
6740 13481
29221 14610
18738 37476
4571 9143
5760 2880
13991 27983
54044 27022
30892 15446
29624 14812
53504 26752
33311 66623
64898 32449
26741 53482
45577 22788
2120 4240
25278 50556
3622 7245
5573 11147
23642 47284
33514 67028
7810 15620
14033 28066
65485 32742
51038 25519
44515 22257
27311 54623
1383 691
6266 3133
15136 30272
1462 731
51366 25683
48637 24318
9099 18199
16163 8081
32033 16016
17780 35560
5654 2827
68271 34135
35559 17779
7738 15477
13860 6930
1038 2077
15629 31258
26444 13222
67611 33805
48448 24224
23127 11563
4137 2068
28639 57279
53709 26854
66938 33469
14374 7187
29480 58960
3460 6920
6915 3457
26970 53940
34632 69264
27592 55185
17908 35817
52371 26185
21603 43206
10221 20443
26155 13077
9688 4844
14119 28239
55466 27733
6732 13464
25678 12839
23964 11982
48739 24369
21752 43505
16057 8028
22050 11025
50663 25331
31574 15787
34316 68633
17803 35607
25370 50741
1498 2997
41934 20967
8914 17828
55423 27711
14822 29645
41328 20664
8979 17959
1846 3693
58032 29016
9615 19230
30256 15128
5884 2942
1341 2682
19125 38251
32735 16367
42719 21359
22136 44272
46472 23236
29565 59130
30378 60756
27655 13827
57969 28984
9104 18208
15212 30425
1640 3281
34078 68157
14107 28214
7079 14158
45329 22664
67878 33939
23333 46666
15920 31841
10852 5426
23832 11916
32596 16298
1774 3549
25696 51393
31095 62190
63988 31994
22631 45263
24295 12147
202 405
33674 16837
7334 3667
10739 5369
65431 32715
28553 57106
13343 26687
27914 55829
26062 13031
2994 5988
31362 15681
47537 23768
20230 40461
22155 44310
14988 7494
27232 54465
30294 60588
26617 53235
25904 51808
23377 46754
7335 14671
15578 31157
17257 34515
11634 5817
7514 3757
31064 62128
67576 33788
20102 40205
51568 25784
57138 28569
10329 5164
55235 27617
12238 24476
27966 13983
68881 34440
20214 40428
20019 10009
10737 21474
2108 1054
67330 33665
25107 50215
22015 44030
44333 22166
15486 30972
21979 43958
28783 14391
9842 19684
63700 31850
5132 10265
3558 7116
2515 1257
24977 12488
21566 43132
44814 22407
4769 2384
1072 2145
41198 20599
20121 10060
33769 67539
13523 6761
47942 23971
36511 18255
31823 63646
29391 58783
19318 38637
69138 34569
17069 34138
40449 20224
24265 12132
2209 4418
49781 24890
23432 46865
29481 14740
17452 34905
21361 10680
53276 26638
24520 49040
1909 954
34180 68361
8000 4000
47804 23902
56745 28372
23625 11812
27118 54237
61936 30968
21740 10870
10755 5377
8384 16768
19371 38743
7174 14349
27863 55726
53069 26534
9236 4618
22265 44530
24345 48690
2644 5289
18166 36333
8596 17192
3756 7512
22841 11420
13524 27049
12282 24565
4762 9525
16299 32599
31552 63105
48527 24263
3128 6257
19793 39587
18263 9131
34907 17453
53287 26643
15519 31039
31602 63204
41440 20720
8584 4292
26873 53746
3918 7837
26174 13087
14975 29950
49198 24599
28547 14273
26066 52133
11846 23692
13109 26218
3373 6747
36749 18374
52566 26283
6996 3498
34321 68643
32112 16056
15987 31975
44718 22359
10216 20433
26724 13362
34589 17294
22081 44162
18713 9356
17654 35309
15599 7799
54814 27407
57318 28659
66086 33043
39687 19843
63589 31794
64766 32383
8595 17191
58177 29088
57772 28886
6857 13714
16741 8370
7947 3973
1316 2632
30301 60603
8845 17690
56403 28201
4253 8506
33054 66108
21882 43764
19246 38492
6672 13345
42410 21205
15232 30464
13510 6755
60857 30428
33753 67506
4133 8267
42495 21247
33498 16749
33328 66657
28210 56421
34810 17405
23981 47963
10881 21762
33585 67170
4832 9665
67859 33929
36040 18020
13931 27863
42478 21239
32003 64007
38076 19038
50176 25088
41862 20931
67157 33578
62511 31255
1154 2308
41588 20794
64355 32177
10896 21792
23617 47235
43640 21820
16438 8219
57039 28519
25939 51878
24590 12295
32646 16323
14760 29521
23521 11760
10320 20641
417 835
57089 28544
29521 59042
18387 36774
2446 4893
1231 615
66781 33390
19702 39405
55805 27902
58004 29002
68194 34097
15276 30552
23218 46437
59232 29616
59777 29888
16918 33836
32099 64199
23844 47688
13390 6695
34401 17200
13789 6894
14016 28032
45574 22787
45458 22729
28710 14355
7734 3867
45605 22802
12598 25196
5758 11517
19208 38417
11464 5732
26088 52176
13718 27436
14371 28742
51022 25511
26526 13263
5062 10125
26706 53413
4173 8347
12672 25345
24824 12412
28918 57836
29374 58748
4298 8597
23814 11907
24960 12480
55871 27935
25310 50621
8908 4454
14723 7361
16151 32303
29629 59259
3351 6703
28656 14328
51838 25919
5231 2615
67865 33932
27878 55757
15609 7804
21923 43846
34392 68784
48580 24290
13588 27177
26803 13401
31198 62396
23621 11810
29171 58343
23023 46046
21615 10807
48566 24283
27093 54187
67645 33822
21119 42238
14298 28597
25263 50527
58153 29076
20508 41016
33415 66831
24381 48762
50855 25427
36010 18005
15584 7792
32959 65919
11126 22252
5694 2847
10679 21358
58391 29195
16412 32825
5065 10130
16086 32172
64226 32113
42125 21062
38781 19390
15161 7580
135 270
31288 62577
22835 11417
23464 46929
19347 38695
53327 26663
16141 32282
8635 4317
31028 62057
35554 17777
34194 17097
37757 18878
65649 32824
51523 25761
47133 23566
17740 8870
47623 23811
2114 4228
4732 2366
45514 22757
9931 19862
25463 50927
25543 12771
3418 1709
60206 30103
7593 3796
39765 19882
33354 66709
26092 13046
2198 4396
51215 25607
337 168
29406 14703
20956 10478
6053 12106
25083 50167
18399 36799
56016 28008
13251 26503
33553 16776
21877 10938
27979 13989
16564 33128
28351 56702
4100 8200
32400 64800
67553 33776
22422 44845
13046 6523
42160 21080
43929 21964
5614 2807
23551 11775
33556 67112
30546 61092
16911 33822
38826 19413
4719 9438
28981 57963
67193 33596
17324 8662
22771 11385
9415 18830
36646 18323
33762 67525
4808 9616
27053 13526
6704 3352
6907 13814
40157 20078
23210 46420
3896 1948
27831 13915
162 324
29003 14501
37867 18933
22913 45826
3049 6098
15409 30818
23678 47357
17783 35566
10760 5380
54297 27148
15356 30713
12758 25517
5407 10814
702 351
4562 9125
12852 25704
8522 17044
30274 15137
40225 20112
26866 13433
9683 19367
47309 23654
3715 1857
14537 7268
30033 15016
16645 33290
63432 31716
2739 5478
5227 2613
38883 19441
15359 30719
10994 21989
27826 55652
35855 17927
61762 30881
45081 22540
26147 13073
25072 50145
18173 9086
8150 4075
25358 12679
27469 54939
25171 50342
14946 29892
18728 37457
68584 34292
2102 1051
8270 16541
14646 7323
22710 11355
14573 29146
22060 44120
13918 6959
9608 4804
6390 3195
32203 64407
39557 19778
11836 5918
33486 66973
6082 12165
51573 25786
27889 55778
20649 41299
27633 55266
12104 24209
1519 3038
32907 65814
27361 54722
8914 4457
5535 11071
29112 14556
6702 13404
15006 7503
68286 34143
56466 28233
23340 46680
34936 17468
31667 63335
11386 5693
7974 3987
21681 10840
30108 15054
28529 57058
1441 2883
64640 32320
32450 64900
13924 6962
49574 24787
25460 50920
62406 31203
31656 15828
23487 46974
59400 29700
33982 16991
63652 31826
18639 37278
30010 60021
5681 2840
25614 51229
15686 31373
54476 27238
16492 32985
18662 37324
5567 11134
5079 2539
3717 7434
19687 9843
18530 37061
33842 67685
19071 38143
30241 15120
19097 38194
36293 18146
13661 6830
63975 31987
20502 41005
2850 1425
10980 5490
29173 58347
53767 26883
880 1760
10479 5239
40555 20277
7248 3624
9590 19180
33683 67366
50834 25417
8403 16807
23710 11855
19266 9633
31914 15957
24413 48827
33907 16953
53680 26840
3459 1729
14316 28633
29929 14964
15363 7681
32712 65424
3418 6837
29773 59547
8441 16882
67461 33730
30131 15065
23380 46761
25820 51641
29474 58948
16303 32606
18339 36679
67961 33980
26240 52481
14215 28430
6500 3250
42552 21276
27337 13668
26644 53288
56433 28216
19747 39495
24682 49364
11015 22031
2210 4421
26766 53532
13012 6506
2501 5003
12123 24247
32382 64764
24303 48607
17642 35284
13783 27566
19608 39217
20026 40052
15437 30874
50454 25227
58413 29206
38571 19285
1567 3134
58678 29339
7509 15019
23855 47711
21431 42862
60859 30429
66509 33254
57194 28597
12471 6235
6396 12792
62158 31079
63540 31770
26188 13094
9830 19660
1275 637
11687 23374
23118 46237
1047 2094
62590 31295
30413 60826
57568 28784
24853 49707
22118 44236
17624 35248
9796 4898
18357 36715
64792 32396
1941 3882
22638 11319
23206 11603
2228 4456
30795 15397
32966 65933
2233 1116
36758 18379
65128 32564
67841 33920
10677 21355
21961 43923
13642 27284
321 160
7401 14802
25878 51756
19941 39883
31524 63049
4470 8941
30250 60501
7548 3774
7411 14822
55320 27660
21174 42349
46567 23283
8238 16477
16988 33977
2489 4978
20802 10401
61077 30538
68654 34327
10457 20914
14140 7070
8666 17332
9531 19062
3524 7048
2722 5444
4793 2396
24578 49157
8903 4451
9590 19181
15316 7658
53083 26541
35589 17794
4522 9045
40694 20347
14419 7209
18097 36195
1973 986
5497 10995
21439 42878
44631 22315
12726 25452
1916 3832
22035 11017
12095 6047
5632 11264
31989 63978
46764 23382
25818 12909
43665 21832
896 1792
17409 8704
34136 68273
28870 57740
25612 12806
6763 3381
13177 26355
30340 15170
4744 9489
58402 29201
58692 29346
25572 51144
23954 47908
5902 2951
57112 28556
27281 13640
32915 16457
10361 5180
8408 16816
14434 28868
6871 3435
7294 3647
8318 16636
34125 68251
12733 6366
16190 8095
7805 15611
27925 13962
4257 8515
50446 25223
24888 49776
44001 22000
63630 31815
4138 8277
58995 29497
27600 55200
35 70
32312 16156
24876 49753
1202 601
43069 21534
22671 11335
30203 60407
49645 24822
17417 34835
33094 66189
19244 38489
29367 58734
47622 23811
30516 61033
63326 31663
25155 12577
7802 15604
3672 7344
33639 16819
17921 35842
9473 18947
1817 3634
67712 33856
16500 33000
42396 21198
31437 62874
14197 7098
40918 20459
9651 4825
63305 31652
29608 59216
30602 61205
28268 56537
37082 18541
49625 24812
2816 1408
11647 23294
7121 3560
48358 24179
53659 26829
53738 26869
40534 20267
6169 12339
10993 21986
7063 14127
21757 43515
5930 11860
5923 11847
945 1890
25852 51705
44356 22178
46607 23303
17758 35517
8295 4147
6840 3420
6647 13295
11832 23664
20501 41002
30726 61453
49909 24954
20028 40056
11857 23714
31374 62748
13488 26977
19377 38754
29576 59152
15919 31839
35340 17670
25604 51208
21906 10953
43774 21887
6860 13721
17671 35343
8254 4127
10429 20859
37218 18609
9238 18477
47633 23816
24106 48212
13896 27792
22807 45614
32761 65522
11157 5578
52079 26039
20453 40906
32946 16473
28601 57203
4163 8326
40702 20351
51250 25625
52465 26232
31421 62842
18378 9189
30868 61736
30676 15338
25448 12724
24597 12298
8803 4401
12579 25158
19621 39243
12055 6027
60994 30497
48169 24084
22723 45446
2277 4554
56241 28120
28212 56425
89 179
40743 20371
42085 21042
68180 34090
2844 5688
26759 53519
6322 12645
45846 22923
34716 17358
2247 4495
11561 23123
22834 45669
29547 14773
14276 28552
832 1665
48649 24324
38621 19310
11492 5746
15420 30840
55571 27785
16878 33757
35867 17933
55619 27809
20472 10236
59850 29925
64366 32183
50922 25461
33477 66955
4329 8658
19380 38761
12185 24370
66866 33433
46075 23037
4765 9531
23235 46471
29246 58493
9716 4858
12768 25536
12728 6364
14077 7038
38663 19331
26594 53189
68737 34368
62435 31217
9091 18182
10176 20352
1433 2867
37841 18920
10664 5332
26494 52989
24735 49470
13039 6519
26341 52683
553 276
15754 31509
60665 30332
36821 18410
5010 2505
3824 7649
18273 9136
1571 3142
24758 49517
17776 35553
13352 26704
27062 13531
7247 14494
19408 9704
53911 26955
64038 32019
19943 9971
9964 4982
58759 29379
64423 32211
25778 12889
10409 5204
28311 56622
21288 42576
17678 8839
15020 7510
811 1623
57249 28624
5959 2979
27155 54310
67408 33704
19412 9706
23426 11713
29098 58197
64320 32160
57338 28669
68693 34346
59880 29940
55108 27554
14522 7261
19292 9646
46361 23180
62117 31058
42908 21454
26565 13282
37864 18932
21158 42317
23297 11648
55515 27757
27815 13907
3061 1530
32781 65563
50566 25283
2564 5129
5833 2916
36137 18068
25255 12627
24823 49647
15751 7875
18228 9114
29043 58086
5312 10624
11575 23150
26052 52104
15707 31414
27714 55429
4641 9282
7401 3700
51012 25506
14474 7237
7153 14306
5638 11276
52638 26319
30332 15166
15291 30583
6363 3181
34294 17147
9307 18615
18526 9263
18589 37178
9658 19316
3731 7462
17867 35735
13114 6557
26067 13033
19930 39861
7942 3971
24200 48401
1223 2447
13366 26732
12991 25983
33364 66728
31207 15603
19526 39053
14368 28736
6110 12220
5373 10747
46470 23235
19579 39158
545 1090
2667 5335
11900 23801
25479 12739
1577 3155
53324 26662
32683 16341
12869 25738
69290 34645
11663 23326
30906 15453
9471 4735
3505 7011
51158 25579
65294 32647
27670 13835
41180 20590
10794 21588
14916 29832
1311 2623
21753 43507
10406 5203
21073 42146
22861 11430
32124 64249
32920 16460
14971 7485
24913 12456
14827 7413
61246 30623
24095 48191
2670 5340
7105 14210
50506 25253
886 443
5521 2760
63742 31871
37397 18698
24264 48529
1103 2206
6823 13646
1569 3139
18485 36970
4606 9213
4910 9821
32872 65744
11310 22620
59630 29815
30825 15412
47356 23678
14797 7398
27852 13926
19188 38377
29631 59263
24407 12203
52525 26262
4542 2271
2504 1252
68255 34127
48080 24040
19846 9923
17214 34429
39796 19898
55668 27834
24375 48750
293 587
18776 9388
11242 22484
20717 10358
29039 14519
3901 1950
43346 21673
56638 28319
22590 45180
63337 31668
20979 41958
61257 30628
3326 6652
5112 2556
31862 15931
3979 7958
20939 41879
608 1216
1572 786
4460 8921
3017 1508
49427 24713
4465 8930
17710 35420
10601 21203
28204 56408
22100 44200
15896 7948
31864 63729
25887 12943
16288 32576
1627 813
20766 10383
49571 24785
33022 66044
26713 13356
4080 8161
32652 16326
53726 26863
56270 28135
8210 16421
30880 61760
63800 31900
27828 55656
15948 7974
22852 45704
19651 39303
43825 21912
54450 27225
9805 19611
6552 13104
26638 53277
31308 62617
14004 28008
10798 5399
54577 27288
64830 32415
15564 7782
2578 5157
6709 13418
9281 4640
4017 8035
7194 3597
10545 5272
43051 21525
23552 47105
27328 54657
26477 52955
5091 10182
62974 31487
20528 10264
20334 40669
66478 33239
55744 27872
31952 63905
26043 13021
11241 5620
9589 19179
20521 41043
29460 58920
33484 16742
33316 66632
31201 15600
26104 13052
28598 14299
14019 28038
14453 28907
26907 13453
14060 28120
28395 14197
3942 1971
42547 21273
11000 22000
3694 7388
66840 33420
31805 15902
30341 60683
65150 32575
2527 5055
37558 18779
3956 7913
29891 59783
9406 4703
5487 2743
18021 36042
1392 2785
24169 12084
16215 32430
66770 33385
2718 5436
4947 9895
47691 23845
27116 54232
14300 28600
11449 22899
49495 24747
21370 42741
44303 22151
11001 5500
13769 6884
2560 1280
7520 15040
41471 20735
21723 43446
17003 34007
28827 57655
16182 32365
1950 975
17583 35167
1757 3514
24327 48655
48816 24408
23613 47226
10868 21737
21892 10946
8306 16612
10362 20725
13991 27982
11777 23555
30996 61992
5546 11092
16341 32682
63640 31820
2813 5626
31894 63788
17768 35536
41821 20910
28803 57607
43836 21918
20949 10474
20563 41127
5201 10403
5677 11355
32727 65455
13476 26953
41824 20912
34885 17442
60080 30040
27545 55090
42258 21129
14801 7400
7221 14442
18118 9059
49403 24701
52547 26273
27357 54714
23199 46399
28317 14158
15990 31981
31184 62369
41848 20924
44806 22403
27991 55982
59755 29877
50605 25302
25970 12985
9347 18694
17522 8761
66799 33399
66393 33196
49300 24650
32031 64063
20355 40711
24187 48375
6304 12608
1569 784
42611 21305
9421 18842
4902 9805
54483 27241
30826 61652
22125 11062
53033 26516
23977 47954
32753 65506
53845 26922
30627 15313
2208 4416
62006 31003
40005 20002
15796 31593
61335 30667
26483 52967
9041 4520
25512 51025
55552 27776
56899 28449
892 1785
28403 14201
54853 27426
8364 4182
27957 55914
58333 29166
39417 19708
32132 64265
44191 22095
25849 51698
15012 30025
22747 45495
58551 29275
32961 16480
4284 8569
38735 19367
33664 67328
3413 6827
1842 3685
40781 20390
7789 3894
20293 40587
4738 9477
30882 15441
41739 20869
60474 30237
13965 6982
35157 17578
2562 5125
24013 48027
31869 63738
22591 45183
2130 4261
66749 33374
8384 4192
27027 54055
891 1783
25783 51567
5450 10901
11878 23757
49513 24756
25265 12632
24100 48201
1435 2871
10212 20424
25683 51367
34497 68994
15906 31812
10926 21853
51180 25590
7188 3594
40735 20367
33006 66012
32826 65653
67479 33739
25146 50293
24424 48848
14698 7349
9273 18546
11192 5596
40997 20498
7025 3512
27161 54322
67982 33991
19470 9735
68477 34238
22465 44931
16576 8288
21059 42118
29877 59754
7938 15876
56475 28237
16546 33093
8707 17415
63774 31887
61017 30508
17515 35030
63590 31795
17616 8808
19514 9757
18281 36563
15445 30891
42448 21224
13090 26180
5182 2591
13594 27188
50705 25352
16975 33950
30626 61253
188 376
61983 30991
5359 10719
12235 24470
39117 19558
27314 13657
11400 22801
34326 68653
1002 2005
2267 4535
43068 21534
7939 15878
23579 47158
68075 34037
67703 33851
4237 2118
22793 45587
4647 2323
42489 21244
32701 16350
8250 16501
11942 5971
3327 1663
31062 62124
2873 1436
57300 28650
12519 25039
11286 22572
20403 40807
30937 61874
3513 1756
2755 5511
36958 18479
642 1285
65492 32746
28013 14006
17432 8716
66676 33338
13201 6600
32899 65798
9634 19268
29120 14560
56513 28256
7028 14056
40709 20354
18251 9125
42531 21265
31920 63841
29300 58600
29805 14902
18997 9498
58222 29111
37164 18582
5149 10298
19123 38247
12376 24753
10735 5367
13557 27114
22881 11440
31500 15750
17714 35429
14813 7406
29292 58584
15851 7925
313 156
628 1256
60736 30368
30474 60948
35110 17555
45847 22923
5516 2758
33792 67584
7340 14681
34018 68036
7014 3507
38055 19027
29252 58504
8901 17803
55642 27821
20877 41754
41374 20687
846 1693
25915 12957
36748 18374
2827 5655
30846 61692
50647 25323
26190 52380
18840 37681
31813 15906
15613 31227
65647 32823
29884 14942
6657 13315
5353 2676
62239 31119
9091 18183
12505 25011
2703 5407
12384 24769
55274 27637
27310 13655
12485 24971
24328 12164
29919 59838
65019 32509
26488 52977
60455 30227
11964 23929
158 317
12032 6016
3151 1575
298 596
20880 41760
2179 1089
14054 28108
25891 51782
13652 6826
29318 58637
29685 14842
28715 57430
6944 13889
23740 47480
24753 49507
8830 17660
43838 21919
16012 8006
18691 9345
11505 23011
9295 18591
23014 46029
61575 30787
11487 5743
5363 10726
20496 10248
28199 56399
2321 1160
33911 67823
15703 7851
50053 25026
16135 32270
30314 15157
13685 27370
22505 11252
18756 37513
26568 53137
64392 32196
26890 53781
37521 18760
31248 62496
28542 57084
12429 6214
28612 57224
32740 65480
11407 22815
2138 4276
26323 52647
25293 12646
18391 9195
54673 27336
7740 15480
746 1493
31976 15988
15616 7808
28477 14238
24633 12316
13064 6532
32046 16023
66444 33222
46482 23241
3572 7144
33670 16835
15987 31974
58538 29269
49416 24708
10600 21201
15410 30821
52198 26099
865 432
22555 45110
5301 2650
40129 20064
10053 20107
40182 20091
5016 10033
30653 61307
23808 47617
26157 52314
22890 45781
2853 5707
16638 8319
32789 65579
9188 18377
32377 16188
33238 66477
19853 9926
12043 24087
13895 27791
36331 18165
26692 13346
20447 40894
15120 30240
19240 38481
18012 36025
54687 27343
31180 15590
21434 42868
17478 8739
6966 3483
42469 21234
23229 46458
5418 10837
15288 30577
17629 35258
25151 50302
32667 65335
20276 40552
30340 60681
13508 27016
13812 6906
18572 9286
2111 1055
17777 35555
52861 26430
14066 28133
55984 27992
26025 13012
27661 55322
5652 2826
29562 59125
24161 48322
14609 7304
51035 25517
37943 18971
4608 9216
65344 32672
10811 21622
5874 11749
26981 53962
11613 5806
3083 6166
12561 25123
18438 36876
18569 37138
9081 18163
36831 18415
10716 5358
3965 7931
56256 28128
5514 11028
27974 55948
35828 17914
9021 18042
33999 67999
10736 21473
53500 26750
2506 5013
32413 64826
64600 32300
51742 25871
9082 4541
31192 15596
5501 2750
11443 22886
5427 10854
11779 5889
1338 2677
25610 51220
19924 9962
9585 19171
5996 2998
43572 21786
62094 31047
64583 32291
13620 27241
41875 20937
8670 4335
39472 19736
37590 18795
27735 55470
25277 50554
64045 32022
62265 31132
27787 55574
4519 9038
9396 4698
20554 10277
65454 32727
5386 10773
4605 9210
27207 54414
18668 37337
64139 32069
12546 25093
60661 30330
24389 48778
32590 65180
66176 33088
67835 33917
39774 19887
1603 801
22056 44112
5103 10206
29295 14647
22609 45219
39353 19676
1050 2100
1233 2467
25621 51243
24572 12286
48140 24070
3342 1671
23713 47427
34342 17171
10873 5436
8026 4013
50315 25157
5601 2800
15888 31777
11176 22352
60981 30490
27141 54282
58042 29021
7932 3966
3058 6117
33104 66209
24113 12056
20153 10076
60023 30011
5448 10896
22030 44061
19480 38961
9957 19915
22232 11116
31340 62681
9974 4987
1835 917
54945 27472
60925 30462
27181 13590
57737 28868
11564 23128
5042 10084
59679 29839
24673 12336
8480 16961
54772 27386
34319 17159
22209 44418
10130 20261
55377 27688
15252 30504
2993 5987
27062 54124
6867 13735
29623 59247
36097 18048
9154 18308
34080 17040
48014 24007
31648 63297
67404 33702
4269 8539
16142 32284
43824 21912
3896 7792
24378 48756
21264 42529
30719 61439
22476 44953
28549 57098
6792 13585
19427 38855
6284 12569
59556 29778
29343 14671
32322 64644
27838 13919
20133 10066
40030 20015
565 282
689 344
18888 9444
23980 47961
51311 25655
58672 29336
34260 68520
5679 11359
13879 6939
19996 39992
18658 37316
25274 50548
526 1053
47589 23794
6719 3359
28215 56430
68697 34348
800 1601
127 254
11568 23137
66689 33344
20480 40960
27674 13837
39362 19681
35230 17615
22296 11148
9387 4693
25533 51066
66619 33309
21320 10660
28236 56472
17758 35516
25126 12563
16066 32132
9093 4546
27892 55784
30765 15382
644 1289
20530 41061
11076 22153
5230 10461
15274 30549
22479 44958
35458 17729
22647 45295
251 125
14085 7042
49056 24528
19505 9752
31548 63097
50268 25134
23943 47886
53889 26944
39305 19652
380 761
35132 17566
9971 19942
23738 47477
3803 7606
27287 54574
39893 19946
28650 57301
9137 4568
10408 5204
8281 16563
4708 2354
59855 29927
24481 12240
1344 2688
4280 8561
15158 7579
17930 8965
23449 46898
23064 46129
15087 7543
30500 61001
51744 25872
5666 11333
15205 30410
30410 60820
25537 51075
50703 25351
24779 12389
10421 20843
27696 13848
15316 30633
7375 14751
22275 44550
27717 13858
21355 42711
15346 7673
17239 8619
9583 19167
12114 6057
17101 34203
12144 24289
43728 21864
15638 7819
19866 39732
42604 21302
40460 20230
14394 28789
20664 10332
27952 55904
31934 63869
29754 59509
20080 10040
19079 9539
41770 20885
12924 6462
6 13
25042 50085
19394 9697
58445 29222
15961 7980
35361 17680
4420 8841
15339 30678
26594 53188
8388 4194
6566 13133
10926 5463
14732 29465
3613 7226
42652 21326
7940 15881
36170 18085
5698 2849
4645 2322
4134 2067
30603 61206
11985 5992
26670 53341
3175 6350
24863 49726
16033 32066
3066 1533
17682 35364
33509 67019
12269 24538
4336 2168
15149 30298
2477 4954
56007 28003
10528 21056
5461 10922
43452 21726
994 1989
41366 20683
21129 42259
23498 46997
10805 21611
7254 14508
27649 55298
39394 19697
8949 17899
19314 9657
18676 37353
2117 4234
29951 59903
62927 31463
5742 11485
55039 27519
23982 11991
56196 28098
13145 26291
4918 9836
5925 11850
9291 18582
46726 23363
8531 17063
12668 25336
11418 22837
27 13
52619 26309
47223 23611
24328 48657
18434 36869
8466 16932
30208 60416
25399 12699
32844 16422
17564 35129
24819 12409
5014 10028
45963 22981
56323 28161
7902 3951
19186 38373
61208 30604
21597 43195
27486 54972
24761 49523
32273 64547
38488 19244
18285 36571
29884 59768
56879 28439
21526 43052
63182 31591
2849 1424
34439 68879
22312 44625
48096 24048
22622 45244
57810 28905
15643 7821
24565 49131
3842 7685
11218 22437
61034 30517
13730 27460
27984 55968
15990 31980
15213 7606
31034 62068
5756 11512
44573 22286
18279 9139
28739 57479
4671 2335
58638 29319
50374 25187
27393 54786
8443 4221
17088 34176
60791 30395
5031 10062
31447 62895
636 1273
19387 38775
50227 25113
63194 31597
4863 9727
48854 24427
56389 28194
14361 7180
45128 22564
38311 19155
780 390
6845 3422
27826 13913
716 1433
21334 42669
61913 30956
18727 37455
8370 16740
7946 15892
32693 65386
41900 20950
63797 31898
32177 64354
45331 22665
13850 6925
22099 44198
26182 13091
19453 9726
1463 2926
14730 29461
66911 33455
8675 17351
20843 41686
34895 17447
12770 25541
19616 39233
39280 19640
2078 1039
13701 27403
65408 32704
13779 27559
19144 9572
26862 53725
11505 23010
29588 14794
4910 9820
9037 18074
10193 20386
1161 580
2065 4130
60755 30377
17816 35632
53405 26702
50911 25455
23116 11558
30230 15115
4043 8086
40253 20126
29310 58621
29559 59119
31211 15605
33908 16954
28598 57196
15699 31399
28774 57549
27706 55412
1282 641
34005 68010
23516 47032
14909 29819
34893 17446
40767 20383
43272 21636
2127 4254
245 122
56462 28231
7166 14333
1546 773
16678 33356
17238 8619
27750 55500
21286 10643
22466 44933
6553 13107
16709 33419
38394 19197
7563 15127
18107 36215
16460 32921
16762 33524
27608 55216
14033 7016
30261 60522
14625 29250
13421 26843
31522 15761
36950 18475
5995 11990
19775 39550
13140 26280
46403 23201
27286 54573
25643 51286
19252 38504
23497 11748
26211 52423
25182 50364
2243 4487
1117 558
26954 53908
1008 504
5134 2567
23427 11713
32083 16041
43856 21928
28396 56793
3353 6707
29270 14635
13205 6602
62794 31397
20688 41376
49333 24666
40722 20361
20598 10299
7862 15724
20112 40224
51363 25681
21383 10691
50575 25287
4450 2225
60282 30141
9332 18664
63576 31788
1901 3802
19193 38387
7604 15208
14665 7332
22414 44828
49991 24995
31798 63596
34331 68662
31154 62308
22712 45425
61432 30716
35628 17814
50917 25458
12055 24111
28388 56776
15320 30640
1864 3729
453 226
28530 57060
20789 41579
11417 5708
67953 33976
64114 32057
28377 14188
26324 13162
5591 2795
23218 11609
10017 5008
6760 3380
26850 53700
4339 8678
10986 21973
65894 32947
6237 3118
9095 18191
23573 11786
59744 29872
24085 12042
20072 40145
28376 14188
23482 11741
18022 36044
12607 25215
7445 3722
2245 1122
14535 29071
3501 7003
44208 22104
530 1061
12893 25786
19668 39336
23910 11955
14549 29098
38900 19450
15296 7648
66139 33069
14117 28234
46551 23275
7051 3525
23727 47455
52084 26042
18077 9038
2132 4264
31891 15945
9467 4733
17535 35070
4865 9730
30520 61041
20884 10442
56218 28109
12896 25792
271 135
10591 21182
6790 3395
52145 26072
21384 42768
17303 8651
29960 14980
10156 20313
24739 12369
16116 32232
61435 30717
38019 19009
15873 31747
11494 22988
4115 8231
23797 47595
63616 31808
23619 47238
578 1157
19464 38929
1045 2090
27457 13728
43118 21559
49298 24649
15712 31424
13808 6904
57759 28879
58776 29388
10429 5214
3185 6370
13680 27360
14847 29695
11880 23760
37387 18693
39584 19792
22682 11341
12908 25816
49001 24500
16560 8280
23616 11808
6283 12566
17344 34688
29927 59854
17757 35514
33918 67837
6902 3451
31756 63513
9840 19680
15784 31568
39834 19917
65382 32691
41029 20514
52126 26063
9540 19080
62931 31465
55220 27610
52974 26487
19394 38788
48272 24136
30028 60057
30311 60623
26114 13057
33177 66355
24422 48845
38119 19059
56064 28032
18961 37923
16237 32475
21058 42117
33437 66874
2870 1435
10250 20500
20452 40905
59377 29688
20129 10064
19778 9889
14829 29659
1208 604
21824 43648
4880 2440
28083 56167
16305 32611
2532 5065
30516 61032
16818 33636
13574 27148
66162 33081
30258 60516
67213 33606
21854 43709
33057 16528
8786 17572
27294 54589
5672 2836
69244 34622
1264 632
65838 32919
25842 51684
9223 18446
31606 63212
27877 55755
4253 8507
27877 55754
6898 13796
36960 18480
34511 17255
29305 58610
11076 5538
37665 18832
19205 38411
5816 11633
21879 43759
11300 22600
49458 24729
4143 8286
25823 51646
9401 4700
55545 27772
4235 8471
66160 33080
17530 35061
21801 43603
43308 21654
16295 8147
3234 6468
32541 16270
16334 8167
5743 11486
27385 13692
44970 22485
29849 59699
33705 67410
57414 28707
33484 66968
58244 29122
396 792
894 1789
28737 57475
5961 11923
17165 34331
12590 6295
28173 56346
25338 12669
23392 46784
54081 27040
44727 22363
1123 561
32495 16247
4331 2165
8302 16605
30076 60153
6389 12778
25983 51967
35827 17913
54903 27451
4323 8646
15188 30376
29482 58964
47450 23725
35826 17913
32217 16108
42051 21025
47985 23992
36368 18184
36823 18411
31186 15593
20791 41583
9710 19421
10155 5077
32436 64872
55877 27938
60767 30383
7857 15715
38707 19353
2407 4815
14555 29110
64857 32428
18868 37737
28887 14443
8334 16668
22673 45347
1266 633
23996 47993
9294 18588
9442 18885
37314 18657
18769 9384
18231 36462
19210 38421
23645 11822
67514 33757
4589 9178
39385 19692
31507 63015
30557 15278
39008 19504
26856 53712
31885 63770
2185 1092
10816 21633
21671 43342
66577 33288
516 258
21098 42196
23020 46041
1813 906
18426 36852
16637 33274
25096 50192
19498 9749
24723 12361
69062 34531
2280 4560
13592 27185
22268 44536
2519 1259
11680 5840
38585 19292
21948 43897
2548 1274
32689 16344
66349 33174
39497 19748
8685 17371
12586 25172
4494 2247
20629 10314
47448 23724
17819 35638
39429 19714
24520 49041
18261 36523
42513 21256
36183 18091
21514 43028
35456 17728
40168 20084
11462 5731
21433 42867
17812 8906
47712 23856
55132 27566
13428 26857
468 936
27344 13672
29853 59707
65570 32785
8475 4237
18731 9365
12613 25226
32806 65613
32656 16328
9540 19081
46248 23124
66080 33040
31271 62543
55000 27500
32099 16049
2682 5364
21043 42087
14264 28528
3728 7456
20941 41882
25076 12538
871 435
4888 2444
4854 9709
16352 8176
25522 51044
23591 47183
3604 1802
306 153
14368 7184
22114 44228
11437 22875
17070 34141
52584 26292
15125 30250
58039 29019
53101 26550
15163 30326
39156 19578
53494 26747
29779 59558
60950 30475
12360 6180
4112 8224
4873 2436
16479 32958
27540 55081
7831 3915
22680 45361
17785 35571
10570 21141
32371 16185
67361 33680
27836 55672
25507 12753
15349 30698
6456 12912
32730 65461
46290 23145
1329 2659
50694 25347
6678 13356
19893 39786
28142 14071
34403 17201
30135 60271
1107 2215
20542 41085
12690 6345
47012 23506
53633 26816
12507 25015
51614 25807
3656 7313
32373 16186
12318 6159
7610 3805
30074 15037
60099 30049
66428 33214
5472 10945
33215 66431
11576 23153
24153 48306
15948 31896
12284 24568
18942 9471
4233 8467
4836 2418
6482 3241
65351 32675
42654 21327
473 236
17726 35453
8750 17501
24176 12088
43691 21845
8028 4014
10203 5101
67006 33503
53907 26953
7569 15138
41512 20756
1381 690
36525 18262
34476 68953
41096 20548
2445 4890
6138 12276
25728 12864
9076 18152
17088 8544
12979 6489
38070 19035
7486 14973
24594 12297
13546 6773
20120 40241
68906 34453
64832 32416
23960 47921
23873 11936
50331 25165
27723 55446
16437 8218
8921 17843
31806 15903
53815 26907
25843 12921
4052 2026
24077 48155
34828 17414
50248 25124
26154 52309
20826 41653
12759 25519
43278 21639
46786 23393
3852 1926
47700 23850
4697 9394
20469 40938
67487 33743
64342 32171
6905 3452
10990 21980
15702 7851
3371 6743
24861 12430
69209 34604
8498 16997
37768 18884
15034 7517
16600 33201
42493 21246
57257 28628
8341 16682
15097 7548
17537 35075
1764 882
2917 1458
10491 20983
30282 60564
881 440
13356 26712
20855 41711
21785 43571
68341 34170
40328 20164
24850 49701
68168 34084
8162 4081
21353 42706
54018 27009
27314 54629
26083 52166
13979 27959
49149 24574
33785 67570
12167 24334
4092 8184
40815 20407
63635 31817
21994 10997
15565 31131
37780 18890
7134 3567
56144 28072
3814 7628
19331 38662
53906 26953
60815 30407
52351 26175
12764 25528
5720 11441
19943 39887
78 156
16919 33839
17155 34310
8290 4145
15882 7941
18015 9007
29612 59224
25484 12742
2794 5588
14684 7342
16408 8204
30390 60780
11866 23733
21885 10942
10799 5399
31842 63685
43255 21627
42097 21048
12611 25223
5606 11212
46106 23053
3401 1700
6312 3156
15061 30123
14194 28388
36783 18391
17313 34627
27943 55886
676 338
2099 1049
2627 5254
16092 32184
51683 25841
59136 29568
16874 33748
7766 3883
62463 31231
9496 18992
8824 17648
14520 29040
41062 20531
67907 33953
41617 20808
32638 65277
21779 43559
58640 29320
16090 32181
207 103
29628 14814
24916 49833
32794 65589
56086 28043
28869 57739
11197 5598
16860 33720
66969 33484
5610 11220
10924 5462
31124 62248
16679 33358
27873 55747
51010 25505
24233 48467
15296 30593
33390 66780
47842 23921
20264 10132
12479 6239
51296 25648
15885 7942
22381 11190
22696 45392
17105 8552
67371 33685
4411 8822
7635 3817
30030 60060
10028 20056
26682 53365
31418 62836
7549 15098
8240 4120
3489 1744
32139 64279
11928 23857
10843 21687
4799 9599
47560 23780
5378 10757
65208 32604
2120 4241
29873 59746
9175 18351
34275 68551
4891 9783
52776 26388
5788 2894
5452 10905
32572 65145
15941 7970
58389 29194
66052 33026
43971 21985
18810 37620
26198 52397
52789 26394
22039 44079
53021 26510
2323 4646
19942 39885
63438 31719
67607 33803
24815 12407
29762 59525
26730 53461
45408 22704
12432 6216
38688 19344
3708 7416
476 238
45889 22944
23344 46688
29687 59374
45791 22895
2485 4970
62533 31266
19725 39450
25963 12981
31112 62225
14459 7229
43635 21817
760 1520
6317 3158
9141 18282
56712 28356
62026 31013
9595 19190
6901 3450
17954 35909
7835 15671
13089 6544
66148 33074
20437 40874
21453 42907
15344 30688
9269 4634
29714 59428
50328 25164
34010 17005
30748 61497
30972 61945
52748 26374
26062 52124
6822 13645
65114 32557
28690 57381
9060 18121
20931 41863
58904 29452
4185 8371
6199 12399
90 181
26342 13171
54784 27392
20322 40644
62840 31420
49817 24908
43997 21998
24203 12101
2928 5856
43325 21662
21830 43660
46283 23141
21410 42820
58380 29190
15461 30923
1477 738
1362 2725
5581 11163
22616 45232
35866 17933
32705 65411
26158 52317
3081 6163
9357 4678
1154 577
13701 27402
35917 17958
1885 3771
18127 36255
43581 21790
10684 21368
36674 18337
5555 11110
8029 16058
33608 67217
58942 29471
64 32
20710 41421
16687 8343
25624 51249
20832 10416
8674 17348
14399 28798
50149 25074
33429 66858
34384 68768
16989 33979
29547 59095
56936 28468
4692 9385
28732 14366
11782 23565
35148 17574
46604 23302
31425 15712
28568 57136
17265 34531
29309 58618
17966 35933
4926 2463
7196 14392
5761 11522
5595 11190
57484 28742
15719 31438
28113 14056
4796 2398
52189 26094
32714 16357
27265 13632
2533 1266
18707 37414
18035 9017
57932 28966
11052 22105
33452 66905
60171 30085
1949 974
9907 19814
44465 22232
3056 6113
25098 50197
35931 17965
5643 2821
21568 43136
11452 5726
34463 17231
19365 9682
6881 13763
45835 22917
27307 54615
11026 5513
52625 26312
32075 64151
10656 21312
3622 1811
11686 23373
3499 6998
19479 38959
8564 17129
5128 10256
27605 55211
372 186
23036 46073
9396 18793
10398 5199
41272 20636
18991 37982
31532 15766
39630 19815
23930 47860
19868 39736
5590 11181
60404 30202
8361 16722
1741 3482
14281 7140
56089 28044
27147 54294
2096 4192
484 968
56108 28054
29605 14802
68487 34243
37981 18990
470 235
44569 22284
57948 28974
40921 20460
30353 60706
2680 5360
49222 24611
12456 6228
22958 11479
27919 13959
17137 34275
31901 15950
39083 19541
5083 2541
626 313
60770 30385
11900 5950
4807 2403
6415 3207
30111 60222
10179 5089
31128 62256
12738 6369
28745 57491
33600 67201
16998 33997
7675 3837
8971 17943
9076 18153
17168 34337
13841 6920
13475 6737
37239 18619
5845 11691
124 249
8527 17055
14589 7294
17509 8754
26239 52479
31938 63877
20279 40559
7250 14501
50429 25214
21028 42056
28668 14334
25702 12851
30946 61893
25082 12541
14804 29608
16733 8366
2672 5344
3423 6846
18284 36568
25477 50955
31909 15954
42389 21194
22409 44819
67057 33528
45640 22820
33507 67014
25943 12971
3600 7200
24988 49976
55816 27908
32852 65704
11281 5640
192 385
9266 18532
5420 10841
9526 19053
6011 12022
46383 23191
31051 15525
51704 25852
11318 22636
33034 66068
14347 7173
23639 11819
19974 39948
4751 2375
48858 24429
14807 29614
16349 32698
24800 49600
6809 13618
13218 26437
44149 22074
13041 26082
2002 1001
6298 12597
12898 6449
25977 51954
4475 2237
58911 29455
2531 1265
31307 15653
7850 15701
68646 34323
19684 39369
14530 29060
1997 998
9678 19357
2399 4798
53361 26680
55390 27695
4023 8047
51806 25903
59092 29546
20654 41308
29566 59133
149 299
31985 15992
747 1495
4369 8738
55114 27557
26917 53834
9218 4609
60520 30260
27909 55819
54152 27076
1066 533
14154 28309
23076 46153
19085 9542
30579 15289
24657 49315
15210 30420
13752 27504
61567 30783
27563 55126
52609 26304
39048 19524
8282 4141
13440 6720
48275 24137
64080 32040
58341 29170
11032 5516
18164 36329
59244 29622
32149 64299
39788 19894
9784 4892
2272 1136
22653 45307
47896 23948
806 403
58853 29426
5141 2570
32274 64549
937 1875
25375 50750
1764 3528
36126 18063
10537 21074
13746 6873
23866 47732
33194 66389
20194 40389
54 27
54955 27477
25816 51633
26621 13310
14155 28311
12079 6039
17599 35199
28674 57349
28407 56814
29177 58355
18821 37642
34321 17160
8760 17520
10513 5256
28444 56888
3081 1540
20992 41984
10217 20435
42650 21325
35044 17522
40529 20264
15202 7601
5783 2891
13396 6698
15144 30288
32299 64598
9723 19446
33855 67711
29860 59720
12820 6410
29969 59939
33160 16580
28531 14265
43487 21743
11619 23239
44831 22415
62643 31321
23377 46755
36048 18024
2622 5245
64662 32331
513 256
40126 20063
7800 15600
24308 48617
21451 42903
10875 21750
7859 15719
11620 23240
968 1936
5934 11868
22804 11402
15843 31686
7100 14201
27720 55440
51073 25536
5339 2669
3619 7238
7688 3844
30581 61163
22116 11058
54343 27171
33520 67041
64701 32350
33089 66178
12180 24360
10304 20609
30242 60485
2471 1235
28419 56839
34116 68232
41748 20874
17439 34879
68248 34124
68 34
13680 6840
4867 9735
30143 60286
6526 13053
49271 24635
20395 40790
20443 40886
30018 60036
65354 32677
20037 40075
65858 32929
6752 13505
1129 2258
10697 21395
25151 12575
29340 58681
32113 64227
15349 7674
50807 25403
22922 45844
35829 17914
926 463
32471 64942
59886 29943
56764 28382
46648 23324
65112 32556
8267 16534
32866 16433
15093 7546
63967 31983
34064 68129
3974 7949
10225 20450
344 172
25351 12675
34806 17403
63412 31706
11115 22230
7909 15818
3919 1959
47514 23757
10688 21377
21019 42038
20803 41606
20256 40513
15098 30197
10510 21021
28891 57782
13591 6795
20561 10280
16700 33401
29474 14737
14347 28695
16445 32890
1638 3277
18512 37024
11993 23987
11026 22052
5287 2643
26126 52253
32374 64749
12700 25400
37494 18747
13320 26641
935 1871
5734 2867
50033 25016
14803 7401
4820 2410
16194 8097
42049 21024
27466 54933
65074 32537
8393 16786
4835 9670
45677 22838
24160 12080
28430 56860
62257 31128
29974 59948
41032 20516
1914 3829
20360 40720
66904 33452
55046 27523
14354 28709
17075 8537
8275 4137
53841 26920
22716 45432
7240 14480
3303 6606
21159 42318
2167 4335
96 193
25036 12518
42188 21094
3928 7857
14101 28203
17452 8726
41235 20617
24267 48535
21432 10716
12099 24199
308 154
17657 35315
10394 20788
1101 2203
31180 62361
28575 14287
1248 2496
18502 9251
55820 27910
39613 19806
23016 46033
20419 40838
53067 26533
22538 45076
68546 34273
12114 24229
44478 22239
32918 16459
57393 28696
10945 21891
21994 43989
5006 10012
39634 19817
18950 37901
13638 27276
37129 18564
49940 24970
14463 7231
22859 11429
13815 27631
9132 18265
28961 57922
53830 26915
24294 12147
5909 2954
29469 14734
32891 65782
19965 39930
48856 24428
6704 13409
29773 59546
27672 55345
26523 53046
25409 50818
10137 20274
63613 31806
65199 32599
13137 26274
1189 2379
9453 4726
61853 30926
4166 8333
26287 52574
47264 23632
19902 39804
25781 51562
13223 26447
330 165
27608 55217
5557 11115
64246 32123
42671 21335
33575 67150
17071 34143
30703 61407
69086 34543
31838 63676
28030 56060
63351 31675
18258 36517
28980 14490
29147 14573
33241 66483
66646 33323
57498 28749
22950 45901
20818 41637
14219 7109
23382 11691
3873 7747
35286 17643
12982 25965
34485 68970
45827 22913
47072 23536
23047 11523
22922 45845
29706 14853
44505 22252
1982 991
31163 15581
8771 17542
5842 11685
31613 15806
10273 5136
44921 22460
61461 30730
15574 7787
24142 48285
1568 3136
46829 23414
10024 20048
11642 23284
38169 19084
4697 2348
22158 44317
49110 24555
7709 15418
3392 6784
4373 8747
27674 55348
46047 23023
10543 5271
35862 17931
10771 21543
2167 1083
13919 27839
28899 57799
2842 1421
19661 9830
65740 32870
22283 44567
19838 39676
17693 35387
821 1642
48421 24210
11712 23424
40699 20349
32344 64688
25605 51211
18096 36193
66723 33361
5466 10932
33379 66759
65135 32567
6236 12473
16242 32485
1897 948
34556 69113
49099 24549
18732 37464
27473 54947
34371 17185
46322 23161
31662 15831
10090 20181
43863 21931
56845 28422
22101 44203
23580 11790
2977 5954
27233 13616
56154 28077
24510 49021
6660 13321
31659 15829
61199 30599
63140 31570
3946 7892
29434 14717
22892 45785
16295 32590
23086 46172
20432 10216
33483 66966
13802 27605
67905 33952
17365 34730
9993 4996
22547 11273
59870 29935
13777 6888
53947 26973
16742 33485
28238 56476
45020 22510
58498 29249
9292 18584
29272 58545
25340 12670
32975 65951
38680 19340
30960 61920
32252 16126
53799 26899
13039 26078
24858 49716
10990 21981
30406 60813
11199 22399
397 794
31883 63766
3342 6684
5644 11288
17147 34295
31005 62010
20525 41051
28051 56103
4695 2347
59181 29590
15930 31861
66082 33041
4309 2154
42204 21102
33313 66626
36249 18124
2320 4641
13766 27532
38153 19076
57295 28647
26191 13095
60542 30271
8451 16903
4568 2284
10854 21708
10281 5140
3446 1723
50903 25451
17444 8722
56198 28099
14383 7191
25398 12699
8312 16624
5402 10804
28406 56812
15038 30076
53383 26691
628 314
44531 22265
30326 60652
20688 10344
7649 15298
9093 18186
14058 7029
40557 20278
33591 16795
63410 31705
17482 34964
28688 57377
32228 16114
20790 41581
13188 6594
39126 19563
29970 59940
32915 65830
14793 29587
8682 17364
53070 26535
4933 9867
15590 7795
25275 12637
56729 28364
8819 17638
49695 24847
29360 58721
25348 12674
17834 35668
15196 7598
2900 1450
22284 11142
13587 27175
8758 17517
42407 21203
22435 44871
1829 914
21690 43381
12162 24325
3338 6676
51694 25847
68086 34043
58308 29154
32271 64543
5752 11504
66785 33392
24257 48514
37349 18674
49733 24866
17365 34731
2954 5908
18528 37057
11416 22833
18861 37723
7762 15524
59993 29996
16745 33491
19973 39947
37949 18974
6241 12483
32695 65391
21463 42926
64073 32036
41822 20911
38978 19489
2543 5086
47699 23849
32396 64793
26207 52414
14346 7173
58419 29209
64314 32157
25926 51852
47241 23620
40078 20039
30800 15400
17713 8856
26007 13003
28453 56906
45608 22804
29820 59640
9247 4623
6042 3021
34355 68711
25867 51734
21785 10892
33070 16535
18711 37423
59137 29568
34314 68629
42995 21497
29501 14750
6362 12724
20757 10378
20152 40305
21861 43723
43066 21533
12572 25145
67227 33613
29327 58654
10352 20704
56521 28260
19487 38974
38998 19499
39434 19717
61551 30775
67795 33897
5624 11249
3871 7742
8670 17340
16450 8225
18605 9302
26994 53988
25378 50757
25595 51190
58690 29345
26611 13305
38772 19386
45423 22711
66232 33116
17029 34058
24947 49894
2592 5184
184 92
5947 11895
37368 18684
15219 30438
25292 50584
17528 8764
48333 24166
23364 46728
4640 9280
11796 5898
2211 4423
32087 64175
44792 22396
23176 46352
28371 56743
16724 33448
19088 38176
46328 23164
10747 21495
26147 52294
8158 4079
8215 4107
3002 6004
52320 26160
32354 64708
42285 21142
46068 23034
12649 6324
32435 64871
51586 25793
2813 1406
53647 26823
14179 28359
13110 26220
23735 47470
26419 52839
52708 26354
7043 3521
1925 3851
2337 4674
710 1421
19346 38692
58673 29336
11960 23920
19771 39543
3594 7189
66281 33140
18706 9353
33951 16975
31502 15751
44247 22123
12271 24543
62631 31315
19129 9564
24334 48669
5852 11704
26168 13084
1279 639
28468 56937
26329 52659
41008 20504
30758 15379
25417 12708
33017 16508
17630 8815
12581 25162
17889 35779
1166 583
67664 33832
32285 64571
6830 3415
469 938
57921 28960
12996 6498
5896 11793
22127 11063
22837 45675
63051 31525
18473 9236
63704 31852
4392 2196
7765 15530
17963 35927
23723 11861
19600 9800
63490 31745
15652 7826
40900 20450
31990 15995
19900 9950
50745 25372
5792 11584
11243 22487
1881 3763
21410 42821
14758 29516
21315 42631
33468 66936
19462 38925
15441 30883
51342 25671
1821 3642
66739 33369
38035 19017
47299 23649
5747 2873
58491 29245
69041 34520
7405 14810
24156 48312
24816 49633
27333 54667
17425 34851
26208 13104
25460 50921
34209 68419
28902 14451
39071 19535
14513 29027
64574 32287
31996 63992
13170 6585
21128 42257
2121 4242
16492 8246
10041 5020
2461 1230
24998 49997
4426 8853
3330 6661
37321 18660
37583 18791
49632 24816
27271 54543
45200 22600
13208 26416
47731 23865
37518 18759
46827 23413
40597 20298
52434 26217
16619 33238
3529 7058
32822 65644
12683 6341
1238 619
51501 25750
19468 38937
23874 47749
24396 12198
23323 11661
1292 2585
14992 7496
31961 15980
25267 12633
27389 54779
20646 41293
34508 69017
39452 19726
1962 3925
29375 14687
43470 21735
25656 12828
1817 908
25418 50837
10963 21926
63241 31620
30017 15008
25188 50377
13568 27136
7280 14561
54312 27156
15736 31472
54893 27446
28762 57524
49199 24599
6628 13256
50511 25255
2270 1135
25508 51016
10387 20775
28101 14050
24604 12302
13040 6520
8999 17999
12821 25643
2851 5703
60379 30189
29833 14916
11695 5847
41867 20933
32690 16345
31640 63280
52418 26209
35631 17815
32448 64897
16437 32875
20821 41643
8688 4344
8714 17429
39176 19588
25309 50619
20739 41478
32063 16031
28002 56005
19155 38310
18049 36099
32246 16123
5403 10807
15563 31127
23004 11502
47689 23844
3451 1725
699 349
66216 33108
62844 31422
4998 9997
55074 27537
25295 50591
60468 30234
15371 30743
30423 60847
22043 44086
24714 49428
1160 2320
52167 26083
12202 24404
13426 26853
32731 65462
18994 37988
4637 2318
7653 15306
57926 28963
572 1145
20753 10376
58854 29427
30834 61668
17735 8867
37632 18816
33379 66758
57636 28818
41368 20684
60281 30140
18530 37060
50142 25071
7952 3976
15711 7855
18279 36558
3821 1910
8697 17395
63515 31757
26483 13241
23809 11904
24078 48157
65606 32803
748 1497
29412 14706
18365 9182
6900 13801
4691 9382
14002 28004
13747 27494
12594 25188
13378 6689
12317 24635
326 163
8340 16680
52914 26457
4738 2369
32338 64677
23359 46718
22235 44470
20490 40980
33580 67161
24609 12304
789 1579
4572 9144
67132 33566
25169 50338
17923 35846
10976 5488
7295 3647
50756 25378
3213 6426
29506 14753
12073 24147
61375 30687
11722 23444
13525 27051
28358 56716
8250 16500
25475 12737
12042 24084
19905 9952
22363 44726
58221 29110
3486 1743
60165 30082
62275 31137
33979 67959
15761 31523
16401 32802
15222 7611
19241 38482
51682 25841
3791 7582
27944 55888
7171 3585
34362 68725
62897 31448
2491 4982
31908 63816
59606 29803
32492 64985
52575 26287
9108 4554
36389 18194
38163 19081
9063 18127
751 1502
10521 21043
6716 3358
22684 45369
18392 36785
23528 11764
7439 14879
268 536
26872 53744
62986 31493
65240 32620
15910 7955
66661 33330
58272 29136
23959 47918
18119 36239
25724 12862
2644 1322
52630 26315
31736 15868
17223 34447
26801 53603
15078 30156
19273 38547
6165 3082
16753 8376
46991 23495
18328 36656
57253 28626
43843 21921
4407 2203
38032 19016
5541 2770
3172 6344
40066 20033
38865 19432
51584 25792
55537 27768
44412 22206
29868 14934
49071 24535
15669 31339
3926 7852
8371 16743
32657 65315
26215 13107
37344 18672
64028 32014
35904 17952
6409 12818
11582 23164
10564 21128
14620 29240
20390 40780
7296 14593
29497 58994
3641 1820
42564 21282
23130 11565
65985 32992
6526 3263
43570 21785
5488 2744
25230 12615
10843 5421
17360 34721
18006 36012
26065 52130
57598 28799
27457 54915
22528 45057
29023 58046
39460 19730
9845 4922
38709 19354
11188 5594
13626 6813
34626 17313
19522 39044
24681 12340
32119 64238
28802 57605
4622 9244
27355 13677
31207 62414
46298 23149
21596 43192
6341 12682
21256 42512
2355 4711
668 1337
9438 18876
22332 44664
29003 58006
27519 13759
7025 14051
11728 23457
35796 17898
15436 7718
58057 29028
26709 53418
9974 19949
23516 11758
19058 9529
20980 10490
45411 22705
24925 12462
24478 48957
32809 65618
25100 50201
33082 16541
45087 22543
14754 7377
33296 16648
33662 67324
25865 51730
53410 26705
23522 47044
30366 15183
61170 30585
33883 16941
15552 31105
22195 44391
33035 66071
62420 31210
54766 27383
27515 55031
39832 19916
16372 32744
5814 11629
65759 32879
34326 68652
2653 1326
23101 11550
1784 3569
20964 10482
19015 38030
32738 16369
41927 20963
8372 4186
23227 46455
15013 7506
9551 19102
29809 59618
11459 22918
58612 29306
25095 50190
25772 12886
7967 15935
30273 60546
32861 65722
8161 16322
17536 8768
29156 58313
48183 24091
52370 26185
40217 20108
59487 29743
8349 16699
41809 20904
3238 6477
44338 22169
68742 34371
67951 33975
3812 7624
22294 44588
52975 26487
4018 8037
39296 19648
28625 57251
18849 37699
20224 10112
25920 12960
16136 32272
1031 515
3097 6195
1012 2025
19632 39264
59625 29812
3682 7364
27097 13548
23609 47219
1447 723
2459 1229
5447 10894
14825 29651
17523 35046
51911 25955
50555 25277
8317 4158
63387 31693
20618 41237
11717 5858
14713 7356
52488 26244
61113 30556
2836 5673
2438 1219
3571 7142
37094 18547
710 1420
19788 39577
6883 13766
7706 3853
52854 26427
55023 27511
37882 18941
16401 32803
18974 37948
30395 15197
32619 65238
51836 25918
1886 3772
66366 33183
23237 46474
26376 52752
31704 15852
15949 31898
10388 5194
17114 34229
11251 22503
35685 17842
18847 9423
57563 28781
23018 46036
31873 63746
40763 20381
18210 36421
30492 15246
33174 66348
28682 57364
3146 6293
23356 11678
17408 34816
64057 32028
64808 32404
64003 32001
56705 28352
14485 28970
20426 10213
14875 7437
23510 47021
64659 32329
38299 19149
30779 15389
7916 3958
14735 29470
18679 37358
43098 21549
31350 62701
20597 10298
22573 45146
15668 31336
24653 49307
10067 5033
10842 21684
29443 14721
12683 25367
865 1731
11979 23959
684 1369
21128 42256
32607 65214
44044 22022
5610 11221
44733 22366
5351 2675
32136 64272
13154 26308
12262 24525
6765 13531
5316 2658
4853 2426
45586 22793
10115 20231
18767 9383
29029 14514
13252 6626
23375 46751
13643 27286
34930 17465
18847 37695
30090 15045
6446 12892
65265 32632
51487 25743
40673 20336
28231 14115
18997 37994
21057 10528
4278 8556
1957 3915
13195 26391
319 639
18879 37758
3344 6689
20583 10291
49275 24637
31365 15682
55742 27871
1316 658
32798 16399
4338 8676
15148 30297
60669 30334
52660 26330
23689 47379
15733 7866
21925 10962
30936 15468
28707 14353
34740 17370
780 1560
43738 21869
21470 42940
23519 47038
4744 2372
61554 30777
32685 65370
61539 30769
14913 29826
19736 9868
64812 32406
5458 10917
23431 46863
14352 28705
32756 16378
5134 10269
11198 22397
18283 9141
42488 21244
52663 26331
65195 32597
10603 21207
18853 37707
28873 14436
28117 56234
54445 27222
58779 29389
3483 6967
30818 61636
18388 9194
65884 32942
54751 27375
39403 19701
5070 10141
62670 31335
62270 31135
29008 58016
62738 31369
27119 54239
36848 18424
59528 29764
20585 10292
32318 16159
18415 9207
45266 22633
15558 31116
29667 59335
64330 32165
31547 63094
19570 39141
20262 40524
1682 3365
20533 41066
28174 14087
8689 4344
25477 12738
45999 22999
14749 29499
4328 8656
5341 10683
11091 5545
32862 65724
25125 50251
15580 31160
9336 18672
10433 20866
66014 33007
24158 12079
26390 13195
7403 3701
19606 39213
29685 59370
23870 11935
16452 32904
5734 11468
26241 13120
12392 24785
17896 35793
31674 63348
29236 58472
48523 24261
16027 32054
69256 34628
16192 32385
12066 6033
835 1670
18904 37809
3056 6112
12204 24408
691 345
10180 20361
13450 26901
39746 19873
32820 65640
925 1850
28543 57086
27319 13659
46468 23234
69098 34549
39307 19653
6115 12231
8604 17209
31854 63708
11767 23535
10301 20602
34323 68647
26849 53698
58627 29313
13704 6852
28588 14294
6839 13678
4820 9641
14895 7447
47204 23602
15495 7747
63474 31737
16183 8091
14885 29770
51796 25898
51674 25837
3353 6706
35835 17917
4277 2138
42399 21199
35998 17999
9000 4500
47228 23614
7766 15532
29458 58916
12765 6382
28051 56102
4178 8356
7043 14086
22308 11154
8076 16153
46824 23412
21161 42322
30672 61345
62597 31298
19752 39504
21295 10647
1274 637
22674 45349
40742 20371
9874 19748
24730 49460
2620 1310
24199 48399
34492 68985
4186 2093
55123 27561
26871 13435
12650 6325
19464 38928
40255 20127
30352 60705
19965 39931
21167 42334
8357 4178
19731 39462
35991 17995
30745 15372
19345 9672
8037 16074
13695 27391
50069 25034
27924 13962
30471 60943
9254 18509
15710 31420
13607 27215
22682 45365
18009 36019
27040 13520
18765 37531
48563 24281
48653 24326
56030 28015
59962 29981
10018 5009
26979 13489
38830 19415
3264 6528
50027 25013
19322 38644
58770 29385
17448 34896
9904 4952
6269 12539
12815 6407
31633 15816
54146 27073
14770 7385
51761 25880
47992 23996
200 401
8745 4372
28054 56109
3479 1739
36348 18174
6703 13406
26305 13152
33825 67651
58646 29323
57934 28967
56141 28070
20822 41645
1377 688
34545 17272
9184 18368
11287 22574
3841 1920
37226 18613
9809 19618
25365 50730
21354 42708
14872 29744
44215 22107
7685 15371
41080 20540
56665 28332
45472 22736
4000 2000
13866 6933
23055 11527
28097 56195
17790 8895
5445 10891
26124 52248
64972 32486
21144 10572
42887 21443
30927 61855
19295 38591
38402 19201
34113 68227
8051 16102
43784 21892
27129 13564
55214 27607
1513 3027
17962 35925
14856 29712
59759 29879
35682 17841
34963 17481
14545 7272
41546 20773
46196 23098
9345 4672
29258 58517
45590 22795
68212 34106
39114 19557
29387 58775
30309 60619
28565 14282
24797 49594
4588 9177
8631 17262
60654 30327
21594 10797
24447 12223
26344 52689
7205 14410
47321 23660
12757 25515
4220 2110
18708 37416
13364 26729
1412 706
18963 37926
43833 21916
11129 5564
20137 40275
32290 64581
6267 12535
26624 13312
10423 5211
27660 55321
27046 13523
40243 20121
19926 39853
33862 16931
37802 18901
20916 41833
54978 27489
22528 45056
16305 32610
57033 28516
4591 9183
19887 9943
31169 15584
38335 19167
34132 68265
18549 37098
8303 4151
2363 1181
6347 12695
60521 30260
31565 63130
20491 40983
35711 17855
20613 41227
40274 20137
16629 33259
46692 23346
29628 59256
59303 29651
5390 10780
2135 4270
58972 29486
52349 26174
49227 24613
14560 29121
32339 64678
13868 27736
63892 31946
16367 32734
13262 26525
24430 48861
27798 13899
67656 33828
67162 33581
16439 8219
31538 63076
5208 2604
14491 28983
6827 13655
30254 60509
31763 63526
35482 17741
18621 9310
22098 44196
37026 18513
7382 14765
5984 11969
43309 21654
14983 7491
39525 19762
42646 21323
21933 43867
7544 15089
14696 29393
11951 23902
30399 60798
7001 14002
23082 11541
32479 64959
945 1891
30970 61941
19576 9788
19057 38115
16453 32907
12670 25341
9759 4879
32937 16468
16374 32749
4413 8826
31244 62488
4953 2476
4919 9838
62689 31344
22657 45315
3322 1661
29207 58414
9520 19040
21910 10955
24611 12305
35389 17694
61512 30756
46536 23268
16716 8358
25169 50339
16598 8299
4510 9020
31655 63310
68582 34291
1306 2613
68458 34229
37593 18796
34471 17235
63440 31720
18956 9478
10399 20798
13025 26050
7061 3530
13675 27350
623 1246
24117 48235
63254 31627
36540 18270
34075 68150
20513 41027
8649 17298
28305 56610
34207 68415
53501 26750
62034 31017
66913 33456
7511 15023
28408 56816
36222 18111
14781 29562
29464 14732
6268 12536
33687 67374
21465 10732
1463 731
6993 3496
19325 9662
58651 29325
1003 2006
6659 13319
65991 32995
24964 49928
11813 5906
27059 54119
32197 64395
4062 8125
25560 51120
26181 52362
36557 18278
32074 64149
25587 12793
3302 6605
21862 43724
335 167
67231 33615
22207 44414
43239 21619
57663 28831
43596 21798
23097 46194
28139 14069
9524 19048
46049 23024
29403 58807
13322 26645
62207 31103
57522 28761
45506 22753
8727 17454
23552 47104
35868 17934
19507 9753
30484 60969
39744 19872
27237 54474
31450 62901
11 22
5087 10175
15293 30586
24289 48578
61352 30676
21523 10761
18144 9072
3469 6938
42357 21178
37606 18803
32055 64111
5157 10314
37625 18812
25310 50620
18010 9005
6478 12956
35614 17807
13640 27280
59697 29848
31370 62741
26162 52325
13969 6984
24383 12191
48060 24030
26322 13161
15788 7894
4948 2474
354 709
39865 19932
42263 21131
2015 1007
29930 59860
21147 10573
845 422
24952 12476
59503 29751
38797 19398
1108 554
34660 17330
10098 20196
28337 56675
43574 21787
31380 15690
10818 5409
49026 24513
52778 26389
21803 10901
1460 2921
6536 3268
51618 25809
16240 32481
2175 1087
2443 4886
8153 4076
11084 22169
31225 15612
29802 59605
24103 48207
6844 13689
3012 6025
9876 19753
36741 18370
31536 63073
21319 42639
26894 53788
20043 40086
54003 27001
22498 44996
39998 19999
33267 66535
27977 55955
33136 66273
52511 26255
25872 12936
11959 5979
29560 59120
21974 43949
259 519
21875 43750
18161 36322
616 1232
39425 19712
253 506
30788 61577
36516 18258
40583 20291
27468 54937
68239 34119
32556 16278
32485 64970
43624 21812
21955 10977
27285 54570
118 237
9655 19311
30396 60792
15279 30558
7997 15995
20423 40846
21085 42170
20511 41022
4866 9733
26028 52056
13590 27180
52709 26354
682 1365
16090 8045
15477 30955
3718 7437
21689 10844
18193 9096
53783 26891
23544 47088
33122 16561
62480 31240
1866 3733
11267 5633
4001 8002
758 1516
16521 33043
59869 29934
16660 33321
12074 6037
11736 23473
11341 5670
7025 14050
12951 6475
26553 53106
25764 51528
30343 60686
4728 2364
5828 11657
2089 1044
27239 13619
18416 9208
57908 28954
52586 26293
23207 11603
44322 22161
26590 53180
12126 6063
5392 10784
10751 21502
4651 9302
68202 34101
61923 30961
42445 21222
67882 33941
5699 11398
22103 44207
64116 32058
31730 63460
57574 28787
37166 18583
22167 11083
30619 61239
28510 57020
27333 13666
13660 27321
12396 24792
39552 19776
2577 5155
10089 20179
28064 14032
40007 20003
4077 8154
46453 23226
25871 12935
4943 9886
46595 23297
16364 8182
49282 24641
10274 20548
38043 19021
21713 43427
24960 49920
43637 21818
6536 13072
22097 11048
19243 9621
16137 8068
661 330
7285 14570
6106 12213
13973 6986
21320 42640
9492 18985
14138 7069
31171 15585
49386 24693
18414 36829
51995 25997
5415 10831
7273 14546
28784 14392
22737 11368
24180 12090
5783 11567
27229 54458
68047 34023
10561 5280
41095 20547
26275 13137
60078 30039
1803 901
33142 66284
22466 44932
19220 9610
12685 6342
12002 24005
27337 54674
4595 2297
11956 23912
21618 10809
3377 6755
29471 14735
16735 8367
30502 61004
13408 26816
36219 18109
23559 47119
34849 17424
28293 56586
20127 10063
60590 30295
55043 27521
63071 31535
45671 22835
46855 23427
29431 58863
36841 18420
16594 33188
28863 57726
28886 14443
25966 51933
3065 6130
5506 11013
46890 23445
29821 14910
68089 34044
40440 20220
9124 4562
49856 24928
63572 31786
25253 50507
18016 36032
30261 60523
17377 8688
61709 30854
15450 30901
68509 34254
55464 27732
25269 12634
15639 31279
4370 2185
15544 31089
14778 29557
9252 18504
8446 16893
4903 9806
42069 21034
52880 26440
9431 18863
58963 29481
18128 9064
44772 22386
35091 17545
21014 42028
1093 2187
33300 66600
17015 34030
33530 67061
15014 30029
15566 7783
21408 10704
25526 51052
63900 31950
23538 47077
61256 30628
56321 28160
24595 12297
2699 5399
59210 29605
28367 14183
37816 18908
4037 8075
16257 32514
14045 7022
44394 22197
31088 62177
63343 31671
1236 2473
30605 15302
31096 15548
56330 28165
62826 31413
4922 2461
13741 27483
60838 30419
13400 26801
13236 26472
25476 50953
9650 19301
27280 54561
24895 12447
62495 31247
28839 57679
32397 64795
15922 31844
9239 4619
18416 36832
51583 25791
25308 50616
14301 28603
52031 26015
56 113
55770 27885
22011 11005
8311 4155
3700 7400
60719 30359
3730 7461
39836 19918
29999 59998
38767 19383
29193 58386
34846 17423
9316 18633
59440 29720
32733 16366
57870 28935
19575 39151
29980 59961
6249 12499
6234 3117
20089 40179
24408 48817
17802 8901
18414 9207
44003 22001
8307 16614
27279 54559
22172 44344
36028 18014
31701 63403
1264 2529
43062 21531
30144 60289
51458 25729
2790 5581
39355 19677
9478 4739
24866 49732
43109 21554
63228 31614
38233 19116
15075 30150
66639 33319
24047 48094
3707 1853
19371 38742
21325 42651
32574 16287
20503 41006
37120 18560
5340 10681
59111 29555
14038 7019
56449 28224
29655 59310
14604 29208
5838 2919
44736 22368
29282 58564
49228 24614
32117 64235
41780 20890
48710 24355
21305 42610
8252 4126
68834 34417
13496 26993
16532 33065
5100 2550
17709 8854
5082 2541
52234 26117
23560 47120
10608 21217
44268 22134
5461 10923
12997 25995
33181 16590
38904 19452
15062 30124
44041 22020
5779 11559
23058 46117
35139 17569
11885 23770
62784 31392
5255 2627
35734 17867
55354 27677
56754 28377
18223 36446
7005 14010
53279 26639
11905 23811
33752 16876
2971 5943
51424 25712
22130 44261
26844 53689
17797 35594
5162 10325
47498 23749
37389 18694
47724 23862
16647 33294
14452 28905
24666 49332
54347 27173
5678 11356
60244 30122
17457 34914
25278 12639
11347 5673
38420 19210
1194 2388
6060 12120
14547 29095
17151 34303
25703 51407
1674 3348
17389 34779
6287 12574
23620 47240
42977 21488
21586 43172
26489 13244
32892 65785
59416 29708
29870 59740
17129 34258
56953 28476
22602 45204
14075 7037
60936 30468
33545 67090
5094 10188
2353 1176
10272 20544
46698 23349
11887 23774
15029 30059
37121 18560
31190 62380
34324 17162
1829 3658
4610 9220
48477 24238
59007 29503
1213 606
48267 24133
46523 23261
25091 50182
22815 45630
26519 53039
13912 27825
12611 6305
8589 17178
43041 21520
47742 23871
39753 19876
42555 21277
34863 17431
16553 33107
20389 40779
14080 7040
25089 50178
53820 26910
38597 19298
31263 62527
14018 28036
4006 8013
25186 50373
62629 31314
32357 64715
3122 1561
19413 9706
21548 43097
12319 6159
69208 34604
2913 5827
59791 29895
13473 6736
13218 6609
23185 11592
14595 29190
10518 21037
25531 12765
8698 17396
1563 3127
31690 63381
58167 29083
112 224
29312 58624
35457 17728
15403 30806
14174 7087
31699 15849
29766 59532
19751 39502
6597 3298
6082 12164
17752 8876
19502 39004
21301 42602
49175 24587
6836 13673
18795 9397
23487 11743
6350 12700
47001 23500
17739 35479
38227 19113
12750 25501
11547 23095
32618 16309
23182 46365
14507 29014
24589 49178
46788 23394
6200 3100
2286 1143
3340 1670
30211 15105
66819 33409
41540 20770
16691 8345
23219 46438
21950 43900
3570 7140
31097 62194
66158 33079
32090 16045
1476 738
24450 48900
16176 8088
23701 47402
1097 548
49546 24773
457 915
15314 30628
627 1254
68621 34310
19849 9924
33272 66545
29504 59008
40744 20372
20948 10474
42040 21020
11625 23251
6021 3010
2106 1053
44788 22394
3310 6621
9452 4726
15253 7626
34237 17118
31740 15870
45857 22928
30280 15140
57326 28663
56285 28142
11351 5675
14835 7417
47825 23912
24249 48499
23044 46088
41968 20984
32676 65352
18875 9437
23767 47534
55558 27779
54813 27406
7637 15275
547 1094
46415 23207
34869 17434
1514 3029
28513 57027
42239 21119
59518 29759
7239 3619
17035 8517
49741 24870
57938 28969
23363 11681
53810 26905
63169 31584
30434 60869
25445 12722
35369 17684
32615 65230
4381 8762
26292 13146
5387 10774
24652 49305
3838 1919
27137 13568
42120 21060
9639 4819
5029 10058
60095 30047
50553 25276
19563 9781
13604 27208
14968 7484
2561 1280
6419 12839
25939 12969
23834 47669
16633 33266
25500 12750
14466 28932
46621 23310
44751 22375
2657 5315
8225 4112
34877 17438
18889 9444
18869 9434
33272 66544
18276 36552
6652 13305
4156 8312
43087 21543
10192 20384
6170 12341
31852 15926
39673 19836
25827 51655
33125 66251
23884 11942
52270 26135
1240 2480
5375 2687
56740 28370
8816 4408
42850 21425
2609 5218
17053 34107
9221 18443
34090 68181
30528 61056
10764 21528
34263 68526
28522 57044
24719 49438
55032 27516
4629 9259
5550 11100
15949 31899
33113 16556
30847 61694
7320 14641
20854 41708
23879 47759
63413 31706
63274 31637
24382 12191
58439 29219
17157 34315
50864 25432
23853 11926
5505 2752
21791 43582
31878 15939
16223 8111
66927 33463
55916 27958
47167 23583
28756 14378
2258 4517
20087 10043
38280 19140
63997 31998
1243 2487
60731 30365
1699 3399
14590 29181
52650 26325
8902 4451
33156 66313
12988 25977
28381 56762
30215 15107
23203 46406
3417 6835
33517 16758
32138 64277
4582 2291
13027 6513
12934 25869
21548 43096
16487 32974
5800 11601
851 1702
52712 26356
10057 20114
19646 39293
5189 10379
20692 41385
27946 55893
26679 53358
19014 38028
19737 39475
19878 39757
58322 29161
34061 68122
35692 17846
14785 7392
24532 12266
39657 19828
30054 60108
17147 8573
8487 16974
2704 5409
11204 22409
6170 12340
19137 9568
6458 12916
34789 17394
24595 49191
62546 31273
49941 24970
26435 52871
31546 63093
37305 18652
52824 26412
810 405
7657 15314
64304 32152
12834 25668
30571 15285
30649 61299
7532 3766
2469 4938
24777 12388
20441 10220
23054 11527
38668 19334
21283 42566
23465 46931
6024 3012
67335 33667
50667 25333
31918 63836
9976 4988
7611 15223
20665 41331
13332 26665
39995 19997
25747 51494
17623 35247
6687 13375
30125 15062
29021 58043
13988 27977
14110 28220
8381 16763
50544 25272
24784 49569
60018 30009
40137 20068
19884 39769
4029 8058
23847 47695
34198 68396
6508 13016
19978 39956
7178 14356
13944 27888
14393 7196
6573 13146
29779 14889
33409 16704
62609 31304
31688 15844
27019 54038
54510 27255
27254 13627
2523 1261
39185 19592
19592 39184
57646 28823
32904 65808
35696 17848
12915 6457
54907 27453
46263 23131
7524 3762
395 790
30777 15388
65091 32545
20510 10255
6517 3258
30980 15490
52467 26233
5902 11805
12300 24601
33981 67962
10193 5096
14569 7284
58984 29492
453 906
58614 29307
3436 6873
6780 13561
5196 2598
15811 31623
55635 27817
3876 7752
19554 39109
27788 55577
15837 7918
34312 68624
10711 21422
21279 10639
20527 41054
11230 5615
50299 25149
45974 22987
28797 57595
21349 42699
19665 39331
33708 67416
19005 38011
25772 51544
10373 20747
36454 18227
16823 33646
26604 13302
8397 16795
25326 12663
44574 22287
7975 3987
15422 7711
6739 13479
31424 62848
8032 16065
37380 18690
19390 9695
25457 12728
29881 14940
18292 9146
39366 19683
23211 46422
4779 9559
2886 1443
27625 13812
3756 7513
4426 8852
51876 25938
32584 65168
16825 33651
44719 22359
13778 27556
18695 37391
20113 40227
12137 6068
30003 60006
2793 5587
4631 2315
6587 3293
664 1329
31942 63884
13280 26560
23796 11898
28677 57354
22277 44555
63239 31619
4580 2290
14565 29130
63302 31651
40510 20255
33147 16573
53655 26827
22468 11234
362 181
5020 10040
5081 2540
22759 11379
15297 30595
36772 18386
29201 14600
67563 33781
45626 22813
1458 2916
13689 27379
37070 18535
30916 61832
30119 60238
11843 23686
14832 29664
21828 43657
50389 25194
1139 2278
28872 14436
14783 29566
21006 42012
2605 5211
67197 33598
55448 27724
12875 25750
16843 8421
5438 10877
16873 8436
39680 19840
9252 4626
1806 903
47677 23838
23575 47150
20340 40681
18733 37467
29261 58522
3458 6917
5831 11662
19298 9649
4279 8558
29995 14997
34397 68794
27133 54266
21783 43567
51054 25527
31888 63776
19950 39900
13758 27516
15426 30852
23789 47578
30573 61147
33157 66314
68355 34177
33849 67698
387 774
29687 59375
20130 40261
33761 16880
1325 662
2797 1398
29673 59346
40516 20258
13805 27611
23425 46850
6272 12544
19923 39846
27959 55919
6334 12668
44121 22060
23766 47533
9181 18363
33648 16824
34170 17085
7861 3930
25154 50309
28603 57206
5853 2926
2279 4559
15635 31271
63949 31974
9789 4894
1423 2847
19801 39602
30532 61065
19994 39988
62051 31025
66308 33154
27851 55702
19604 9802
51020 25510
52445 26222
31744 15872
27068 13534
9323 4661
21402 42805
48148 24074
35680 17840
24640 49280
20365 40730
46691 23345
14528 29057
9717 4858
13941 27882
52595 26297
4419 8838
18045 9022
38364 19182
51831 25915
6710 3355
22493 44986
11966 5983
5014 10029
42988 21494
45988 22994
12893 6446
3363 1681
30411 15205
19283 38566
35473 17736
17714 35428
11683 23366
41417 20708
51097 25548
12510 6255
39169 19584
68569 34284
17200 8600
5227 10454
18175 36351
50380 25190
683 1367
391 195
9421 18843
27244 54489
66778 33389
27082 13541
5395 2697
18366 36733
8652 17304
21833 10916
17319 8659
17521 35043
12432 24864
5445 2722
55687 27843
24122 12061
14980 7490
49013 24506
21512 10756
2925 5850
59741 29870
55237 27618
6681 13362
13922 6961
40306 20153
7405 3702
12493 6246
37761 18880
10021 20042
25208 50416
16704 8352
3296 6593
7418 14836
41974 20987
29310 14655
63283 31641
12005 6002
35260 17630
4813 9626
33939 67879
10658 21316
15997 31995
304 152
32499 64999
34535 69070
7944 3972
33612 16806
62333 31166
35744 17872
5322 10645
44961 22480
23762 47524
34454 68908
17225 34451
9100 4550
23105 46211
17331 8665
25777 51555
61143 30571
1454 2908
2274 4548
17193 34387
2154 1077
44455 22227
22192 11096
2952 1476
9278 18557
15238 7619
28378 14189
51203 25601
12849 25699
44092 22046
60294 30147
32474 16237
27687 13843
31889 15944
54218 27109
31215 15607
18843 37686
56621 28310
28255 56510
39320 19660
12230 24461
27746 13873
11972 23945
35485 17742
51848 25924
18536 37072
47999 23999
21799 43598
8471 16943
9032 18064
65995 32997
67786 33893
53998 26999
25748 51496
25597 51195
32228 64456
61325 30662
69058 34529
29518 59036
39958 19979
1805 902
59280 29640
25836 51672
5475 10951
50970 25485
68037 34018
18112 9056
41442 20721
8483 4241
26126 13063
56286 28143
10092 20184
20453 10226
31661 15830
67721 33860
6154 12308
10678 5339
1124 2249
7018 3509
28769 57539
7697 15395
13999 6999
3203 6407
34874 17437
59231 29615
26309 13154
22926 11463
50424 25212
21682 43365
34074 68148
57590 28795
21200 42400
17426 8713
23910 47820
9592 19184
19884 9942
19099 38198
12486 6243
34607 69215
7948 15897
35448 17724
122 61
42709 21354
15129 30258
40655 20327
24459 48919
27352 13676
1208 2416
43150 21575
14700 29401
46308 23154
25137 12568
30007 15003
22656 45313
7769 15538
18037 36074
32636 65272
21332 10666
19528 39057
48924 24462
41088 20544
1788 894
6194 12389
14998 7499
32646 65292
16361 8180
12453 24906
45364 22682
57075 28537
56492 28246
19517 39034
63355 31677
13054 26109
5655 11311
16550 8275
53879 26939
57152 28576
31642 63285
23640 47281
20615 41230
35843 17921
23730 47460
40958 20479
63832 31916
3580 1790
40729 20364
13612 27225
2970 5941
4918 9837
17662 8831
29821 59643
31512 15756
52742 26371
4362 8725
24501 49003
14289 7144
17376 34752
43177 21588
9856 4928
31783 63566
32075 16037
22657 45314
3902 1951
43438 21719
18495 36990
43077 21538
56823 28411
31091 62182
5986 11973
14340 28680
12702 6351
14495 7247
32422 64845
15751 31503
27110 13555
46971 23485
25553 51107
10737 21475
66645 33322
56006 28003
15748 31497
27857 55715
3343 1671
2935 5870
15594 31188
60449 30224
10605 21211
18114 9057
22553 45106
19932 9966
20365 10182
11421 5710
8347 16695
16938 8469
3181 6362
17348 34697
60550 30275
18695 37390
34222 17111
32349 64699
28737 14368
12256 24513
3701 1850
441 220
11835 23671
6891 13783
39681 19840
11716 23432
7562 15124
67437 33718
50735 25367
43692 21846
6706 13412
3690 1845
40868 20434
31061 62122
55251 27625
34317 17158
26337 52675
25588 51176
11960 23921
8914 17829
58203 29101
68776 34388
16876 33753
32316 64633
21502 43004
34285 68571
62664 31332
34005 17002
946 1892
40683 20341
18449 36899
287 143
4296 8592
24539 49079
31144 15572
31048 62096
24324 48648
9112 4556
41905 20952
33538 16769
12315 6157
49980 24990
47556 23778
26219 52438
12898 25796
34460 68921
28900 14450
9984 19969
40558 20279
20599 41199
16434 32869
12417 6208
29387 58774
25458 50916
7334 14669
9020 18041
45557 22778
1393 2786
8654 17308
16325 8162
14284 28568
6647 3323
12433 24867
27985 55970
10858 5429
5866 11733
5520 2760
57542 28771
68979 34489
20057 40115
8598 4299
40957 20478
24253 12126
33818 67637
30482 15241
42992 21496
30253 60506
9717 19435
20130 10065
4105 8210
46017 23008
32741 65483
36271 18135
30704 15352
11865 23731
59925 29962
24177 12088
29466 58933
29954 14977
32737 65475
30899 15449
39481 19740
67297 33648
53415 26707
23548 47097
36241 18120
26245 52491
10824 21648
14181 28362
16632 8316
2728 5456
3426 6853
25383 50767
66576 33288
12549 6274
25231 50463
18687 37375
11131 5565
61129 30564
31804 15902
218 437
1959 979
58395 29197
9758 19517
15039 30079
7310 14620
10775 21550
27672 13836
28184 14092
18066 9033
97 195
2351 4702
43540 21770
40256 20128
20822 41644
33208 66417
1249 624
9557 19114
13872 27745
16746 33493
25024 50048
2599 5198
28167 56335
46737 23368
29737 14868
8509 17018
67888 33944
27719 55439
4903 9807
13550 27100
5984 2992
6690 13381
41076 20538
11304 22609
5931 2965
41100 20550
24620 49241
22355 44710
8870 4435
21252 42505
7020 14041
3662 7325
57834 28917
802 1604
24009 48019
22251 44503
2790 1395
2777 5554
62392 31196
13969 27939
23854 47708
12599 25199
32836 65672
33195 66390
29091 14545
4210 8420
18288 36576
28398 14199
10625 5312
20239 40479
3147 6295
21482 10741
24121 48243
5376 2688
56488 28244
29359 14679
16766 33532
14544 29089
19853 39706
10206 20413
32686 65372
31015 15507
46238 23119
57483 28741
42165 21082
15245 30491
14565 29131
21193 10596
32089 64179
12530 6265
67723 33861
19000 9500
50744 25372
17755 35510
9959 19918
8703 4351
6296 12593
24922 12461
29069 58138
16739 33478
7920 15840
19795 39591
49285 24642
3668 7336
13291 26583
19042 9521
2151 1075
56500 28250
6578 13157
22888 45776
2866 5733
16125 32250
50448 25224
23179 46359
2414 4828
7580 3790
53107 26553
21427 42854
56106 28053
1178 2357
67089 33544
27263 54526
7240 14481
2789 1394
37283 18641
5219 2609
60002 30001
22390 11195
10743 21487
62757 31378
34328 17164
15319 7659
23524 47049
50550 25275
11574 23149
46093 23046
21087 10543
21675 43350
6357 12714
1707 3415
28952 57905
19331 9665
39009 19504
4668 9336
18797 9398
46539 23269
35025 17512
13434 26868
60599 30299
26015 13007
59978 29989
22996 11498
11474 5737
47897 23948
54378 27189
6862 13724
31760 63520
55881 27940
26378 13189
17259 8629
58636 29318
24881 12440
22974 45949
12986 25972
56576 28288
7709 15419
17271 8635
27399 13699
33388 66776
6491 12983
28229 56458
22433 44867
34824 17412
16472 8236
27825 55650
2881 1440
26045 52091
20187 40374
14267 7133
43406 21703
24897 49794
62904 31452
14855 29710
10856 21712
11188 22377
872 1744
16147 32295
53597 26798
57088 28544
50472 25236
52337 26168
2136 4272
24428 48857
16152 32305
5663 11326
18938 37876
24490 48981
37074 18537
28676 57352
25599 51198
5970 2985
2331 4663
41186 20593
54351 27175
30514 61029
13852 27704
3193 6386
33619 67239
23401 46803
21317 42634
25992 12996
92 46
16204 32408
17101 34202
11728 5864
27620 55240
21329 10664
29210 58421
661 1323
25827 12913
12969 25938
8814 4407
49469 24734
68417 34208
333 666
10023 20046
9552 4776
2627 1313
22162 44325
6344 12689
60933 30466
28403 56806
6260 12520
19992 39985
60794 30397
19543 9771
14786 7393
13179 26358
25943 51886
10820 5410
15237 30474
24350 48701
7390 14780
24924 12462
13732 27464
30699 61398
17751 35503
2558 5116
20500 41001
32622 16311
26106 52213
2897 1448
45913 22956
24910 49820
30700 61401
2333 4667
21805 10902
942 1885
30209 15104
19614 39229
10371 20742
23988 47976
6246 3123
62280 31140
67796 33898
22661 45323
4951 2475
21460 10730
58214 29107
62134 31067
30507 61015
58112 29056
555 1111
29593 14796
6581 13162
19643 39286
69300 34650
201 403
51081 25540
14513 29026
21086 42173
8088 16177
38523 19261
28342 14171
5786 11572
14172 28344
22259 11129
69087 34543
24708 49417
2156 1078
33752 67504
581 290
30350 60700
45547 22773
1836 3673
27243 54486
36809 18404
28957 14478
56298 28149
30400 15200
32451 16225
9411 18823
33820 67641
49702 24851
65365 32682
23706 47413
54238 27119
11589 5794
26101 52203
25814 51629
49751 24875
50112 25056
41928 20964
15081 30162
68620 34310
37204 18602
52617 26308
25769 51539
34248 17124
22548 45096
41458 20729
9462 18924
30409 60819
14969 7484
48280 24140
6357 3178
54295 27147
66075 33037
14886 29773
25532 51064
25397 50795
33938 67876
61521 30760
1665 3330
8871 17742
2349 1174
5300 2650
11391 22783
21371 10685
55865 27932
11561 5780
17526 35052
54249 27124
1726 863
18799 37599
12434 24868
18990 37980
6210 12421
12289 24579
34323 17161
9615 19231
30882 61764
47819 23909
7603 15207
47882 23941
29253 58506
21097 42195
26990 53981
28329 14164
32583 65166
26752 53505
60559 30279
56755 28377
21742 10871
7433 14867
39116 19558
33417 16708
32094 64188
32921 65842
37139 18569
33409 66818
45524 22762
19355 38711
34372 17186
43602 21801
47877 23938
15380 30760
144 72
59421 29710
57228 28614
18087 9043
27732 13866
3627 1813
28809 57619
45268 22634
55828 27914
30433 60867
3672 7345
34292 17146
48082 24041
29097 58195
26831 13415
55310 27655
10161 20323
56598 28299
6392 3196
17733 8866
29078 14539
57064 28532
53804 26902
4497 8994
30874 61749
9375 18751
12321 6160
16219 32439
20650 10325
40089 20044
29404 14702
23831 11915
2189 4379
17604 35209
67923 33961
36759 18379
49617 24808
7012 3506
35583 17791
32049 64099
22844 11422
45201 22600
35954 17977
16745 33490
31937 63875
30308 15154
34498 68997
12955 25910
1825 912
67790 33895
28065 56130
1432 716
3374 6749
32945 16472
63178 31589
23351 46702
17244 34488
15913 7956
48747 24373
7486 3743
115 57
14913 7456
9268 18536
48692 24346
20868 41736
18760 37520
20741 41483
14535 29070
41234 20617
13643 27287
65532 32766
19369 9684
36428 18214
31741 63482
9842 4921
48905 24452
69308 34654
54968 27484
33085 66171
2312 4625
7066 14132
20044 10022
21008 42017
60107 30053
15291 30582
52233 26116
22704 11352
24113 48227
30764 61529
142 285
28565 57130
32653 16326
17873 35746
670 1340
19818 39637
22084 44169
39412 19706
3220 1610
4966 2483
35047 17523
38450 19225
55004 27502
67781 33890
28253 56506
25926 12963
14892 7446
17655 35310
27795 55590
17656 8828
55071 27535
44288 22144
17890 35781
59797 29898
11502 23005
44443 22221
24903 12451
37649 18824
10585 5292
8191 4095
30253 15126
29681 59362
15665 31330
23498 46996
19361 9680
4667 9334
16688 33376
38505 19252
63523 31761
62891 31445
9844 19689
39347 19673
11891 23783
29240 58480
35544 17772
11541 23083
33546 67093
31577 63155
15792 31584
17127 8563
19582 39164
63908 31954
66820 33410
31638 15819
24474 48948
18585 37170
34374 17187
2439 4878
48904 24452
34157 17078
3634 7268
10173 5086
21045 42090
26819 53638
414 828
14929 29858
32428 16214
13177 26354
1331 665
53124 26562
13665 6832
12391 6195
9798 19597
21865 43731
29317 14658
13089 26179
10279 5139
33110 66220
5141 10283
16814 33628
15587 31175
48187 24093
20194 10097
21777 43554
18940 37881
4596 9192
33137 16568
51436 25718
4730 2365
1906 3812
19302 38604
39390 19695
54941 27470
23832 47665
67118 33559
6013 3006
9123 18246
13443 26886
13898 27797
53521 26760
46586 23293
25616 51233
24802 49605
1077 538
29212 58424
33382 66764
7622 15244
22381 44762
4244 2122
39414 19707
31332 62665
34598 69196
35455 17727
23892 47785
13294 26589
6125 12251
2145 4291
22883 11441
20936 41873
33723 67446
10785 21571
1531 3062
23046 46092
44627 22313
5147 10294
22919 45838
7822 15645
1821 910
16206 32413
31066 62133
30811 15405
25040 50081
29095 58190
18103 9051
56340 28170
694 1389
4085 2042
30427 60855
4119 2059
67070 33535
8241 16483
36893 18446
16889 33779
35100 17550
61445 30722
24567 49134
8560 17121
26107 13053
48793 24396
25071 12535
12372 24745
9661 19323
29797 59595
19778 39556
34113 68226
62961 31480
62140 31070
32517 16258
32555 65111
17162 34325
62564 31282
5801 11603
35765 17882
32518 65037
854 1708
15850 7925
21613 43226
4683 9366
10183 20366
5784 2892
56237 28118
24812 49624
13321 26642
12107 6053
57156 28578
24250 12125
8489 4244
16018 8009
19661 39323
68753 34376
63609 31804
7335 3667
4153 8307
25807 51615
24409 48819
63557 31778
21738 43476
68883 34441
16902 33805
19878 9939
1091 545
66738 33369
12353 24706
26113 13056
955 1911
20154 40308
2270 4540
49659 24829
14683 29367
13280 26561
20635 41270
15909 31818
20761 41522
20440 40881
5038 10077
57321 28660
9640 19280
18418 36836
49251 24625
31799 15899
34276 68552
5211 10422
11247 5623
2413 4827
36760 18380
30617 61235
11470 22940
9980 19960
28291 56582
17509 35018
5061 10122
45976 22988
3147 1573
19243 38487
32668 65336
62872 31436
25362 12681
33086 66172
68134 34067
14470 28940
23606 11803
58598 29299
7514 15028
68394 34197
1497 2994
33410 16705
15231 7615
10813 21626
14498 28996
3532 7065
28586 57173
33720 67440
18061 9030
1896 3792
14224 28449
1557 3114
46012 23006
11591 23183
17067 34134
9149 18298
16017 8008
6849 3424
19361 38722
15281 30563
65963 32981
16419 32839
22632 45265
9117 4558
1356 678
10099 5049
32254 64509
10345 20690
20030 10015
33873 16936
29529 14764
58874 29437
11989 5994
14316 7158
59722 29861
26318 52637
43533 21766
67187 33593
4046 8092
14631 29263
33663 16831
66558 33279
6434 3217
51080 25540
28662 57325
16641 8320
24716 12358
68363 34181
3325 1662
23462 46924
34476 17238
8679 17358
25714 51429
40624 20312
9501 4750
62484 31242
3928 7856
24739 49479
22759 45518
34834 17417
28728 57456
23610 47220
7059 14118
12196 24392
31774 15887
6404 12809
28886 57773
6721 13443
22770 45541
33178 66356
20213 10106
65912 32956
34244 68488
21468 10734
56303 28151
48462 24231
26629 53259
4474 2237
6140 3070
12873 25746
18100 9050
47206 23603
67168 33584
57237 28618
54534 27267
26242 52485
25217 12608
51467 25733
13277 26554
22044 44089
33679 67358
10732 5366
8860 17721
3157 6315
17761 35522
14682 7341
26909 53819
45564 22782
31285 62571
16546 8273
10928 21857
13615 27231
54263 27131
27907 55814
48029 24014
32370 64740
23235 11617
345 690
11658 5829
14278 7139
61429 30714
4429 2214
21017 42035
6261 12523
27473 13736
30537 61075
61367 30683
33605 67210
5927 11855
7253 14506
16032 8016
336 168
29569 59138
34063 68127
26549 53098
10642 21285
6286 12572
50376 25188
4817 9635
6003 12006
49 98
25250 50501
50151 25075
25318 12659
2511 5022
15903 31807
24845 12422
936 1873
37865 18932
65732 32866
64254 32127
17027 34055
22695 11347
26878 53756
777 1555
21527 43054
153 307
22317 44634
25999 51998
54488 27244
11361 22723
15611 31223
40854 20427
64169 32084
16691 33382
5660 11320
9506 19013
4747 9494
9239 18478
16157 8078
18676 9338
317 635
32149 16074
392 785
8918 17836
34881 17440
17211 34423
17498 34997
65067 32533
24831 12415
8078 16156
20400 40800
2112 4225
3303 6607
31225 62451
31778 15889
24817 49635
15557 7778
38795 19397
53768 26884
63106 31553
28042 56085
22057 44114
1455 2910
23825 11912
5741 11483
29678 59356
48622 24311
3868 1934
45165 22582
34180 68360
14951 7475
11169 22338
15847 31695
38840 19420
58248 29124
957 1914
601 300
17012 8506
21089 42179
34658 69316
1650 3300
23545 11772
47446 23723
56113 28056
3471 6943
28499 56999
32136 64273
65041 32520
62774 31387
2062 4125
49489 24744
45250 22625
6168 3084
29379 58758
30163 15081
35263 17631
32895 65791
41576 20788
17276 34553
20769 10384
20823 10411
14295 7147
31721 63442
12512 25025
23840 47680
25541 51083
10344 20689
49722 24861
3515 7030
64281 32140
15146 30292
3160 1580
23097 11548
23523 11761
36800 18400
23497 46994
25373 12686
61518 30759
42665 21332
6055 12110
27071 54143
8754 17508
38534 19267
14762 29524
16073 32147
23312 46625
23130 46260
29709 14854
68525 34262
6172 3086
44737 22368
2841 5682
40188 20094
22687 45374
6094 3047
36243 18121
21351 10675
17079 8539
29542 14771
5470 2735
19525 39051
9201 4600
25742 51484
32345 16172
29541 59083
16037 32074
3639 1819
3488 6976
63555 31777
25489 50979
66168 33084
9669 19338
63837 31918
12910 25820
21838 10919
45652 22826
49573 24786
31813 63626
23191 11595
10897 21794
24188 12094
15812 31625
13345 26690
68909 34454
52341 26170
26608 53217
65716 32858
59338 29669
62002 31001
55954 27977
62457 31228
15144 30289
34414 17207
7428 14857
28756 57513
25184 50368
22683 45366
36835 18417
23439 46879
22458 44916
9539 19078
7672 15345
30217 15108
18091 9045
17605 35211
34094 68188
21403 42807
22198 11099
3830 7661
33265 66531
43558 21779
25222 50444
12456 24912
24575 49150
12068 24136
55667 27833
5928 11856
20367 40734
27488 54976
4845 2422
9587 4793
6585 3292
31460 15730
37347 18673
297 594
35183 17591
12761 25522
39276 19638
59300 29650
31863 15931
19791 9895
28257 56514
32302 64605
30798 61596
16099 32198
60560 30280
56160 28080
67008 33504
13878 27757
12629 25258
13439 26878
517 1035
23755 47510
23639 47278
27927 55854
45305 22652
4327 8655
27429 54858
5958 2979
13118 26236
43289 21644
4855 9711
8871 4435
52894 26447
20499 40998
14031 28062
25391 50782
8786 4393
32561 65122
13699 6849
1616 808
45240 22620
24491 48983
21140 42280
15158 30316
18711 9355
8865 4432
26605 53210
12495 24990
27413 54826
28436 14218
13074 26149
27461 54923
45189 22594
64584 32292
12232 24465
3007 1503
30422 15211
11705 23411
34348 17174
27750 13875
17701 35403
47855 23927
2353 4707
10463 5231
4905 9810
65447 32723
62230 31115
19678 39356
14432 28864
21160 10580
26516 53032
30382 60764
5242 10485
33669 67339
24909 49819
19197 9598
12283 6141
60168 30084
44459 22229
29217 14608
25001 50003
12829 25658
42578 21289
30421 60842
54443 27221
13972 27945
58529 29264
9364 18729
11277 22554
13464 26929
45779 22889
68482 34241
46525 23262
65466 32733
3160 6320
16397 32794
10620 21240
3570 1785
25426 50852
14953 29907
619 1239
26656 53313
17203 8601
13519 6759
32536 16268
18553 9276
16285 32571
65713 32856
32336 64673
27118 54236
31283 62566
11019 22038
29944 59889
17554 35108
22972 11486
5867 11734
29213 14606
16151 8075
20083 10041
40001 20000
15230 30461
2376 4753
20424 40848
58782 29391
40131 20065
28503 14251
34624 69249
46353 23176
48561 24280
66205 33102
11401 22803
14886 29772
29972 59945
60642 30321
13542 27084
749 1498
55174 27587
18242 36485
7786 15572
62920 31460
58371 29185
7946 3973
20390 10195
52785 26392
10040 20081
12963 6481
19053 38107
1423 2846
3040 1520
63951 31975
17170 8585
21822 43645
45137 22568
65212 32606
62909 31454
28645 57290
31118 62236
11210 5605
27730 55461
6554 3277
3152 6304
3312 6625
22949 11474
30736 61473
11669 23338
4274 8549
13471 6735
26477 13238
45540 22770
13830 27661
15457 30914
12119 24239
15721 31443
12247 24494
31808 15904
58096 29048
18241 36483
55271 27635
7045 14091
13948 27896
25086 12543
19779 39558
24126 48252
14202 28404
28154 56309
8368 4184
17992 8996
40462 20231
51518 25759
40904 20452
951 1902
597 1195
45207 22603
23399 46799
34787 17393
26918 53836
44780 22390
39671 19835
16888 33776
65236 32618
9483 18967
12165 24330
60136 30068
7764 15529
5957 11914
8514 4257
42037 21018
59545 29772
9393 18786
845 1691
19863 9931
47962 23981
17546 35093
16411 32823
19771 9885
4952 2476
30913 61827
34870 17435
34249 68498
5459 10919
7618 15236
16254 32508
27217 54435
54705 27352
7402 3701
22915 45830
50353 25176
33620 16810
19551 39102
22467 44935
14583 7291
54159 27079
6104 12208
30743 61487
44622 22311
16915 8457
63943 31971
57432 28716
26486 52973
25284 50569
19895 39790
1571 3143
38259 19129
18793 37587
34318 17159
9159 18318
17828 35656
20386 40773
68263 34131
9677 19355
3879 7759
44692 22346
5585 2792
7597 15195
4512 9024
62170 31085
59626 29813
18933 9466
17787 35575
1131 565
20401 40803
9346 18692
17170 34340
28894 57788
34205 17102
5274 10548
14773 7386
11652 23304
18900 37800
32483 64966
1834 3669
14962 29924
67614 33807
65694 32847
23571 11785
14455 7227
3396 1698
17027 8513
67071 33535
33803 16901
2964 5929
13124 26248
48370 24185
1142 2285
50267 25133
50857 25428
3231 6463
58909 29454
11520 23040
32301 64602
8454 4227
2595 5191
905 1811
35620 17810
19963 39927
9161 18323
30544 61089
2145 4290
61813 30906
24749 49498
21565 43131
2169 4339
47965 23982
5432 2716
5314 10628
22973 45947
3929 7859
36580 18290
6668 13336
19577 39154
15047 30094
22405 44811
8707 4353
452 905
30127 60255
64052 32026
50453 25226
14508 29017
33742 67485
51335 25667
11466 22932
58937 29468
29314 58628
6275 12550
4584 9169
3866 1933
30080 15040
29172 58344
58539 29269
25352 50704
53219 26609
8121 16242
6126 12253
16940 33880
59385 29692
16191 32383
21407 42815
9952 19904
50052 25026
8018 16036
11677 5838
36885 18442
32944 16472
51030 25515
3558 1779
5654 11309
27084 54168
25839 51679
326 653
41106 20553
7995 15991
22491 11245
21147 42294
26382 52765
56446 28223
58824 29412
24341 12170
54691 27345
22514 11257
67478 33739
12212 6106
9283 4641
5417 10835
29388 14694
14583 29166
67613 33806
28297 56594
9352 4676
28621 14310
55528 27764
21126 42253
26480 52960
18984 37969
62653 31326
13359 26719
23431 46862
21575 43151
3233 6466
30095 60190
27819 13909
20876 41753
5662 11324
10160 20320
6350 12701
60518 30259
25465 50930
46810 23405
8935 4467
32883 65767
11981 23962
12635 25271
21104 10552
56360 28180
793 396
16754 33509
13368 26736
8657 17315
8699 17399
57797 28898
22976 45952
57025 28512
6024 12048
21890 10945
20509 41019
19728 9864
27383 13691
55902 27951
21571 43142
59908 29954
9868 19737
56962 28481
18174 36349
18386 36773
39838 19919
20391 40783
9996 4998
22506 11253
24708 12354
25888 12944
62978 31489
6983 13967
10146 5073
10842 5421
22418 44837
44653 22326
29609 14804
7330 14661
31309 15654
17357 34715
18376 9188
22093 44186
9217 4608
31919 63839
1302 2605
23590 47180
26455 52910
58234 29117
6522 13044
56073 28036
16302 32605
26499 52999
36791 18395
55507 27753
36394 18197
8392 4196
32926 65852
18033 36066
8161 16323
1468 2936
29128 58256
19902 39805
16139 32279
23756 11878
32885 65771
35105 17552
13554 27109
9433 18866
15913 31826
19990 9995
17983 8991
17315 34630
52522 26261
4850 2425
28423 14211
13242 26484
51977 25988
64408 32204
30008 60017
34579 17289
29104 14552
52328 26164
5511 11023
48427 24213
2483 1241
11316 22632
3178 1589
21845 10922
65793 32896
67292 33646
22104 44209
8874 17748
16374 8187
21728 10864
28902 57804
26195 52390
11849 23699
27701 55403
24672 12336
40082 20041
28027 56055
31918 15959
22133 44266
27764 13882
50736 25368
13671 27342
33619 67238
14648 7324
23230 11615
1771 3542
42230 21115
7848 15696
13156 26313
24128 48256
22463 44927
32427 64855
53253 26626
22194 11097
32101 16050
17116 34232
7917 15835
6437 12875
57764 28882
11215 22430
61586 30793
21423 10711
31252 15626
9198 18397
59553 29776
32421 16210
16351 32703
28931 57862
5100 10200
13026 6513
22177 44355
57565 28782
52916 26458
10957 21914
15353 30707
31481 15740
35540 17770
15543 7771
11232 22465
68457 34228
31534 63069
57041 28520
11552 23104
66201 33100
56978 28489
22049 44099
33678 67356
27259 13629
14548 7274
33268 16634
39399 19699
24238 12119
23063 46126
26734 13367
45410 22705
32077 64155
50898 25449
5504 11009
20006 40013
22007 44014
49993 24996
29852 59704
26791 13395
35411 17705
11569 23139
22703 45406
3569 7139
69162 34581
25923 51846
28414 14207
19772 39545
30258 60517
10485 20970
4171 8343
56794 28397
10405 20811
32774 16387
18247 9123
7321 14643
49012 24506
11543 23087
8273 4136
4657 9315
1903 3807
62950 31475
22589 45178
19755 39510
54958 27479
65708 32854
23826 47653
14866 29732
63760 31880
9768 19536
46794 23397
965 1931
24839 49679
14279 28559
55397 27698
28416 14208
16873 33747
24877 49755
9693 19386
25237 50474
189 379
12924 25849
3449 1724
7454 14909
27823 13911
35513 17756
23022 11511
21114 42229
68930 34465
13548 27096
20901 41802
12440 6220
40785 20392
543 1086
52216 26108
36202 18101
40016 20008
45992 22996
66004 33002
17973 35946
20376 40753
22368 11184
21835 10917
10190 5095
10766 5383
52029 26014
41369 20684
13563 6781
4221 2110
18675 37351
11075 22151
37748 18874
21760 10880
67373 33686
48812 24406
7683 15366
57882 28941
7700 15401
33686 67372
7547 3773
9516 4758
9187 18375
20829 41659
32804 65608
1196 2392
17765 35530
32477 64954
12779 25558
33517 67035
63955 31977
15310 7655
3957 7915
22527 11263
29436 58873
42909 21454
40359 20179
36877 18438
7934 15869
19644 9822
68 137
26742 13371
18593 37187
32055 64110
9986 4993
20605 41210
5664 11328
67390 33695
21288 42577
13884 6942
21982 43965
103 51
26443 52886
16760 8380
28659 14329
18501 9250
8932 17865
28743 57486
7257 3628
27055 13527
51821 25910
15256 30513
8620 17240
747 373
2580 5160
17461 8730
5415 10830
49538 24769
9484 4742
9902 19804
44420 22210
18533 37067
7962 15924
2958 5916
42918 21459
7038 14076
11832 5916
31163 62326
16910 33821
16914 33829
49886 24943
44254 22127
24717 12358
11992 5996
3163 6327
643 321
55417 27708
65968 32984
32048 16024
1562 3125
3116 1558
20281 10140
24344 12172
4790 9580
63384 31692
23791 47583
55181 27590
15814 7907
34368 17184
60428 30214
25591 51183
6064 3032
30852 61705
25557 51115
31750 63500
19185 38370
9785 4892
26721 53442
31490 62980
23218 46436
16722 33444
24537 49075
33852 16926
28387 14193
31578 63157
48665 24332
44649 22324
3880 7761
22442 11221
26564 53128
27076 13538
17092 34184
64720 32360
4517 9034
65015 32507
31810 63621
33355 66711
13416 6708
22394 44789
10871 21743
27047 13523
51343 25671
14170 7085
24936 12468
36340 18170
26596 53192
13014 26029
33602 67204
22789 45578
32297 16148
8818 17636
67663 33831
52147 26073
32965 65930
52443 26221
53865 26932
14614 29228
27768 13884
64181 32090
22250 44501
68426 34213
65681 32840
57794 28897
3065 6131
53544 26772
1968 3937
10610 5305
16935 8467
21552 43105
11344 5672
55248 27624
34014 68028
13718 6859
40203 20101
59702 29851
15112 30224
49397 24698
28836 14418
33177 16588
17732 35464
1724 862
4283 8566
31033 15516
54835 27417
5145 10290
12314 6157
27354 13677
9142 18285
62923 31461
3916 7832
24543 49086
18510 37021
18752 37504
40234 20117
64332 32166
16725 33450
6150 12301
12541 6270
16189 8094
13576 6788
23240 46481
11248 5624
63741 31870
9928 19856
53653 26826
30617 61234
38808 19404
13958 6979
42014 21007
10778 5389
8714 17428
24582 49165
4659 9318
33396 16698
15468 7734
18783 37566
30067 60134
20543 41086
32661 65323
1107 553
63017 31508
3126 6252
27543 13771
46537 23268
30739 61478
15181 30362
26999 13499
29298 14649
33623 67246
27149 13574
32318 64636
31121 62243
63439 31719
63445 31722
1787 893
16377 8188
60182 30091
26798 13399
29044 58089
6875 3437
9490 4745
26464 52929
24239 48479
30931 61863
11066 22132
10685 5342
14269 7134
27646 55293
12470 6235
42481 21240
24407 48814
22832 45664
31890 15945
48284 24142
3925 7851
39387 19693
44174 22087
2495 4990
39518 19759
8503 17006
18056 36112
59876 29938
48869 24434
32876 16438
5661 11322
38493 19246
38837 19418
64807 32403
65109 32554
15803 7901
26931 13465
634 1269
6418 12837
34402 68805
15755 31511
59005 29502
8518 4259
69047 34523
46307 23153
32532 65064
16375 8187
8765 4382
32627 65255
67076 33538
21155 42311
8923 17846
16904 33809
44648 22324
6677 3338
6048 12097
42436 21218
19303 38607
51122 25561
24045 48091
15297 7648
24644 49288
2897 5795
426 852
859 1719
41221 20610
54797 27398
39314 19657
8041 16083
28483 14241
23166 46332
33677 16838
7041 14082
9734 19468
5419 2709
8762 17524
10799 21598
18877 9438
22194 44389
63612 31806
705 1411
46684 23342
52379 26189
33878 67756
5269 10539
8804 17608
8434 16869
67893 33946
7608 3804
57627 28813
28649 57299
26334 52669
47869 23934
66872 33436
60123 30061
43262 21631
62462 31231
57076 28538
3548 1774
30082 60164
21103 10551
24494 48988
27395 54790
7605 15211
45943 22971
12644 25288
17845 35690
16536 33073
4727 9454
37514 18757
29522 59044
18552 37104
9235 18471
7915 15830
27094 13547
52919 26459
31496 62993
24453 48906
62688 31344
10462 20925
50629 25314
21278 10639
26093 52186
11848 5924
9320 18641
27122 54245
6507 13015
19505 39011
8381 4190
31230 15615
20038 10019
4761 9522
28111 56222
17505 35011
57146 28573
26569 53138
31403 62806
31456 15728
23237 11618
3379 6759
9909 4954
30226 15113
60124 30062
27948 55897
61931 30965
14967 7483
8766 17532
30056 60112
14808 29616
60545 30272
21610 43220
7041 3520
1935 3871
31418 15709
3312 1656
32448 64896
4456 8912
6561 13123
66910 33455
59491 29745
30620 15310
22635 45270
30919 15459
3280 6561
16853 33707
16523 33046
2998 5997
32851 65703
61715 30857
40319 20159
48898 24449
7544 15088
37880 18940
58743 29371
12480 6240
25494 50989
19156 38313
10956 5478
18120 9060
14283 7141
28273 56547
28420 14210
9601 19202
20630 10315
39017 19508
31099 15549
26475 52951
48057 24028
16059 32118
809 1619
62770 31385
11073 5536
65314 32657
57052 28526
15247 7623
7890 15780
33927 67854
15634 31268
23512 47025
6310 12621
11445 22891
22855 11427
19543 39087
25981 51963
28430 56861
27171 54342
63292 31646
20715 10357
7335 14670
52393 26196
43858 21929
11280 22560
18625 9312
47382 23691
18487 36974
10382 5191
62150 31075
26355 52711
23915 11957
41294 20647
17209 34418
7676 15352
35633 17816
15063 7531
15656 31313
29549 59098
4777 9554
18373 36747
68014 34007
947 473
15111 30223
16091 8045
33773 67547
11689 23378
34476 68952
8993 4496
47778 23889
16738 33476
5075 2537
6741 3370
5947 11894
49608 24804
846 1692
24766 12383
18811 9405
55943 27971
68449 34224
10672 21345
28557 57115
66542 33271
23457 46914
29790 59581
23058 46116
28915 14457
23260 11630
33547 67094
22254 11127
55082 27541
54291 27145
22110 11055
34294 68588
60531 30265
31919 63838
25955 12977
31922 63844
5102 2551
34314 68628
28206 56413
6330 12661
7069 14139
30804 61609
56394 28197
528 1057
30195 60391
57792 28896
25393 50787
57642 28821
23672 47344
15263 30527
17448 8724
14948 29896
12949 25899
5376 10752
46624 23312
132 265
15181 30363
1912 3825
50117 25058
29005 14502
28424 56848
13307 6653
29235 58470
12861 6430
3767 7535
25731 51463
2181 4363
27719 13859
1025 512
833 1667
23777 11888
27871 55743
6233 12467
9383 4691
62126 31063
15088 30177
34589 69179
41289 20644
16848 33696
2492 4984
15197 7598
15622 31245
26267 13133
25791 51582
16427 32854
13813 27626
67182 33591
22222 44445
32574 65149
20592 41184
2589 5179
9531 19063
2512 1256
57070 28535
23809 47618
30529 15264
39075 19537
27573 55147
33858 67716
17195 34390
58822 29411
29731 59463
13419 26839
35313 17656
9526 19052
1071 535
24209 48418
41132 20566
34587 69174
16379 8189
63863 31931
34408 68816
4749 9499
24196 48392
21531 10765
2657 5314
18036 36073
34102 17051
31161 15580
15769 31538
3969 7939
23388 11694
31190 62381
24440 12220
7113 14227
44415 22207
7550 3775
32974 65948
32662 65325
39372 19686
27979 55959
42775 21387
30281 15140
8056 4028
12697 25394
43018 21509
51371 25685
606 303
57324 28662
9617 19234
27938 13969
22309 44619
6932 13865
22290 11145
30442 60884
11381 5690
12273 24546
43185 21592
40382 20191
19275 38551
45362 22681
38841 19420
16101 8050
33350 66700
13355 26711
17125 8562
45214 22607
4048 8097
55149 27574
22731 45462
7569 15139
2905 5810
12025 24050
29459 58919
14836 29672
21460 42921
58260 29130
47875 23937
1471 735
22155 11077
6106 3053
9855 19711
10609 5304
6448 12896
16259 32518
27368 54736
1622 3244
11345 22690
42193 21096
2999 5999
22525 45050
25145 50290
4560 9120
47535 23767
69323 34661
21360 42720
55452 27726
5960 11920
23584 47169
11877 23754
40537 20268
37633 18816
9230 4615
5577 2788
24682 12341
18464 36928
5443 10887
9112 18225
27418 54836
56542 28271
57843 28921
6200 12401
61381 30690
60487 30243
5858 11716
42202 21101
53776 26888
14838 29677
56974 28487
42096 21048
24901 49803
30653 15326
41177 20588
31101 62203
9034 18069
26411 52823
7148 3574
26655 53310
21478 10739
59344 29672
63120 31560
68941 34470
7868 15736
64220 32110
24429 48859
16291 32582
53291 26645
68878 34439
12747 6373
31030 62061
20719 41438
9016 4508
23323 46646
21759 43518
17175 34351
4098 2049
25016 50032
4306 2153
6092 3046
6073 12146
21508 43016
16502 33005
3553 1776
54203 27101
6237 12475
18458 9229
31644 63288
12515 6257
50284 25142
4189 8379
736 1473
62925 31462
28780 57561
27202 13601
16496 32992
2552 5104
9945 4972
918 459
16213 8106
17382 34764
30038 15019
29524 59049
55936 27968
12813 6406
52515 26257
2222 4445
23935 47870
62934 31467
23527 47055
47333 23666
10762 21525
27401 13700
26360 52720
9958 19917
34187 68375
27025 13512
11049 22099
12578 25157
19855 39710
2731 5462
21514 43029
13554 27108
5999 11999
6443 3221
8626 17253
14224 7112
23073 46146
12433 24866
23916 11958
67524 33762
19920 39840
29777 59555
11462 22925
47670 23835
14187 28375
60694 30347
60801 30400
5096 2548
40578 20289
46054 23027
30026 60052
32942 16471
4318 8636
8479 4239
34594 69189
4146 2073
3344 1672
20426 40852
14034 7017
30736 61472
9119 4559
14828 7414
53250 26625
8410 16821
26306 52612
59494 29747
13296 6648
13392 26784
3779 7559
57003 28501
67710 33855
64363 32181
32427 64854
8775 17551
49499 24749
32641 65283
16241 32483
48518 24259
23790 11895
28005 56010
6957 3478
29093 58187
170 340
66354 33177
54702 27351
24646 12323
11643 23286
25062 12531
27716 55433
20898 10449
26670 13335
33029 66059
4907 9814
11003 22006
28225 56450
62733 31366
22761 11380
20791 41582
4415 8831
19012 9506
24954 49908
45321 22660
6785 13571
26236 52473
2768 1384
43908 21954
4792 9584
28254 14127
15821 31643
6942 13885
28067 56134
6215 3107
52524 26262
22074 44148
27767 13883
9799 4899
7302 3651
30638 61276
15120 7560
65687 32843
20177 40354
13685 6842
29429 58859
7053 3526
8426 16852
69304 34652
9083 18166
10900 5450
4885 9771
24760 49521
4630 2315
38408 19204
36017 18008
8459 4229
756 1512
33405 66811
5516 11033
20655 41310
17364 34728
2948 5897
39541 19770
27650 13825
39476 19738
36695 18347
58465 29232
28618 57236
31580 63161
41993 20996
881 1762
9955 19911
4896 2448
25705 12852
34219 68439
36323 18161
14905 7452
58860 29430
77 155
54201 27100
44226 22113
41260 20630
8641 17282
32724 65449
27879 55758
889 1778
2651 5303
26952 53905
34031 68063
4931 2465
7459 14919
65950 32975
29548 14774
49443 24721
27774 55549
12931 25862
67639 33819
22149 44299
59186 29593
15333 30667
4579 9158
33137 66275
45242 22621
14089 7044
571 285
2539 1269
16600 8300
29215 58431
10301 5150
12018 24037
23917 47835
25557 12778
16337 8168
7356 14712
60600 30300
209 418
3806 7612
11008 22016
50933 25466
29475 58950
28861 57723
19300 38601
14878 29756
11575 5787
52409 26204
2062 1031
19668 39337
19044 38088
14350 28700
54039 27019
21141 42283
30102 15051
55501 27750
32325 64650
55097 27548
11611 5805
32810 65620
22140 44281
36248 18124
42895 21447
13954 27909
37 18
16349 8174
10523 5261
23731 47463
15743 31486
15966 7983
12090 24181
10566 5283
14747 29495
64356 32178
21545 43090
2051 4103
20188 40377
6922 13844
41929 20964
21528 43057
4 9
21052 42104
30314 60629
7135 14270
28082 56164
33182 66365
23220 11610
35699 17849
48606 24303
7900 15800
22434 44869
21848 43697
28741 57482
3904 7809
13964 6982
19599 39199
30934 61869
32833 65667
17215 8607
2259 1129
17763 35527
21471 10735
49822 24911
16345 32691
12247 24495
8486 16972
13011 26023
54605 27302
28288 14144
68062 34031
14943 29886
66934 33467
41751 20875
19598 39197
13764 27528
17568 35136
4661 2330
9265 18530
6296 3148
13065 26131
48670 24335
15033 7516
5692 2846
19283 38567
14821 7410
62287 31143
342 685
28061 56122
27077 54154
13946 6973
13622 27245
10756 5378
17230 34461
20924 10462
27783 55567
14433 28867
16906 33813
46224 23112
7561 3780
14701 29402
23898 47796
1481 2963
31382 62764
8942 17885
30591 61183
5180 10360
31633 63267
22995 45991
63597 31798
15146 30293
11402 22805
56322 28161
22708 45417
60749 30374
38067 19033
21946 10973
31899 63798
17210 8605
25409 50819
258 517
23844 11922
26100 13050
26265 52531
8935 17871
29990 59980
16945 33890
21212 42424
2955 5910
51154 25577
61215 30607
46247 23123
38891 19445
6192 12384
53271 26635
56477 28238
2408 4817
25682 51365
16084 8042
6763 13526
23562 47125
12378 24756
42584 21292
6972 13945
4689 9379
16962 33924
59229 29614
19828 39656
3653 1826
3936 1968
53790 26895
15337 30675
44142 22071
21148 42296
40024 20012
6118 3059
11122 5561
14758 29517
1262 631
19 38
67486 33743
16345 8172
11930 23861
7907 15815
32281 64563
17943 35886
27142 54285
47852 23926
40717 20358
5988 11976
4235 2117
6004 12009
15387 7693
27196 54393
28698 57397
64924 32462
23651 47302
9873 19747
22645 45291
27880 55761
17363 34727
28562 57125
21478 42956
55 27
29674 59349
76 153
19342 9671
34595 69190
16789 33579
30211 60422
18157 36315
16717 33434
10761 5380
9515 19030
34512 69025
18056 36113
20634 41268
14191 7095
8753 17506
33342 66684
44102 22051
45550 22775
1639 3279
22111 11055
20713 41427
9181 4590
20974 41949
15541 31083
24110 48220
8577 17154
9122 4561
2397 4794
3691 7382
5109 10219
20949 41899
2809 5619
19419 38838
64541 32270
68421 34210
24316 48633
59496 29748
6501 13003
11885 5942
68428 34214
32394 64788
53027 26513
6228 12457
24567 12283
68156 34078
19641 9820
44561 22280
18463 36927
63722 31861
32471 64943
60537 30268
43384 21692
56027 28013
62142 31071
22592 45184
16368 32737
5709 11418
10005 20010
17283 8641
27643 55287
63959 31979
41600 20800
1962 981
36707 18353
8798 4399
27154 13577
34253 68506
33459 66918
33192 66385
26676 13338
31162 62324
14533 29067
29015 58030
33788 67577
63415 31707
12924 25848
6297 12595
33192 66384
25038 50076
23035 11517
21209 42418
25205 12602
29196 14598
40618 20309
33690 67381
51423 25711
21483 42967
9326 4663
44466 22233
32673 65347
8124 16249
42024 21012
24477 48954
2600 1300
967 483
40240 20120
18973 37946
10933 21867
16609 33218
13723 27447
68201 34100
62589 31294
44128 22064
60199 30099
59006 29503
33298 16649
5842 11684
20261 40522
24858 12429
21797 43595
33138 16569
1783 3566
28473 14236
3652 7304
6576 13153
16475 32950
1307 653
14299 28599
63312 31656
50649 25324
59414 29707
46476 23238
16146 8073
18651 9325
53357 26678
24363 48726
3641 7283
22680 11340
21263 10631
3344 6688
185 92
27563 55127
18093 36186
33436 16718
3966 7933
47391 23695
16371 8185
10513 21027
59896 29948
45635 22817
67829 33914
4406 8812
27070 54141
34173 17086
56626 28313
12093 24187
54683 27341
65380 32690
12460 24921
18477 36955
2908 5816
58483 29241
45464 22732
9690 19380
23230 46460
61078 30539
9532 4766
65664 32832
28505 57010
52978 26489
41891 20945
21991 10995
15927 31855
30196 60392
16758 33516
3535 7071
10338 20676
57774 28887
21043 42086
24255 48511
5197 10394
51548 25774
5255 10510
5945 11890
35115 17557
10869 5434
18906 37812
56367 28183
8396 4198
17005 34011
27329 54659
64983 32491
7212 14425
22989 11494
28669 14334
37079 18539
33031 66063
27884 55768
19026 9513
31205 15602
44750 22375
12878 6439
23107 11553
1738 3477
15493 30987
32892 16446
11761 5880
10552 5276
26023 52046
54660 27330
659 329
11191 22383
5489 10979
31335 15667
33860 16930
18876 37753
24478 48956
59309 29654
10497 20995
1138 569
54070 27035
66419 33209
48661 24330
763 381
41274 20637
40148 20074
59117 29558
6549 13099
12095 24190
25650 51300
17614 8807
5589 2794
10818 21637
27470 54940
39171 19585
16630 8315
9721 4860
8438 16876
17217 8608
14924 7462
56950 28475
9880 19760
5326 10652
23850 11925
24621 49243
15382 30764
60232 30116
8840 17680
34203 68406
66470 33235
2176 4352
9284 18568
25737 12868
3919 7839
46163 23081
28004 56009
32001 16000
10952 21904
20813 41627
11147 22294
21682 10841
62821 31410
12581 6290
54026 27013
17840 8920
19086 9543
14580 29161
34612 69224
18803 9401
9668 19337
24071 48142
24842 12421
31509 63018
8504 17008
3941 7883
16720 33441
6934 3467
34258 68516
12117 24234
23893 11946
23057 11528
22489 44979
25023 12511
7889 15779
15219 30439
15198 7599
8633 4316
26281 13140
30481 60962
14015 28031
24948 49896
68241 34120
25012 12506
43299 21649
33983 67967
1245 2491
32222 64444
50231 25115
59715 29857
27844 55688
31628 63257
37220 18610
37744 18872
1138 2277
27159 13579
57879 28939
14233 7116
63964 31982
20333 10166
15764 31529
25950 51900
4315 8631
32186 64372
22220 44440
64836 32418
8791 17582
2507 5015
27633 13816
20707 10353
29809 59619
14901 7450
23010 46021
9804 4902
4656 2328
19408 38817
28997 57994
67861 33930
30772 61544
16870 33740
55945 27972
28985 57970
10928 21856
31684 15842
45637 22818
11530 5765
11983 5991
4019 2009
32878 16439
33875 67750
20206 10103
26201 13100
50786 25393
4830 9661
20079 10039
33480 66961
16663 8331
64172 32086
4598 2299
16369 8184
62970 31485
29991 59983
1159 2319
29252 58505
22603 45206
8305 4152
33993 16996
19637 39275
32587 65175
27312 54625
56581 28290
23396 11698
32403 64806
51866 25933
28885 57771
33879 67759
49277 24638
33464 66928
12826 25653
65598 32799
10447 20894
53885 26942
23408 46817
36837 18418
35486 17743
8377 4188
20766 41533
28591 57183
28688 57376
1161 2323
13422 26845
5009 2504
2478 1239
8562 17124
59521 29760
28566 57133
10010 20020
26035 52070
40634 20317
17328 34656
34616 69233
14791 29582
44506 22253
67757 33878
7132 3566
4927 2463
24752 49504
30753 61506
30289 60578
45060 22530
16825 33650
5015 10030
14363 28726
10148 5074
10243 20487
31728 63456
57962 28981
4297 8595
16261 32522
11987 5993
23221 46442
19294 38589
65556 32778
19693 9846
10595 21190
17918 8959
68810 34405
26043 52087
9065 18131
21664 43329
21639 10819
16834 8417
20234 40469
11128 5564
23392 11696
27304 54609
34338 68677
10814 21629
11682 23365
20867 41734
6130 12261
20474 40948
43038 21519
11043 5521
10500 21000
25337 12668
22344 44688
4281 2140
6806 13613
504 252
22317 11158
40549 20274
7813 15627
22413 11206
68716 34358
25725 51450
6684 13369
12508 25017
5008 10016
24170 12085
22290 44581
17506 35013
26152 52304
21810 43621
27954 55909
15586 7793
25528 51056
7390 14781
29826 59652
14603 29207
16012 32024
415 207
10786 5393
41911 20955
22330 44661
15073 30147
23590 47181
1242 621
60690 30345
8447 16894
21122 10561
24946 49893
10221 5110
13901 27802
10033 20067
13710 27420
57424 28712
29082 14541
27075 54150
64908 32454
13794 27589
61444 30722
24871 49743
20424 40849
17565 35130
39147 19573
22240 44481
15853 31706
20448 10224
55462 27731
9495 18990
34140 17070
28417 14208
29504 14752
9385 18771
18237 36474
32952 65904
4664 9328
25585 51171
16507 33015
8319 16639
7369 14739
17749 35498
24703 49406
23367 46734
33166 66332
2260 4520
10187 20375
45687 22843
50876 25438
41919 20959
25893 12946
43169 21584
68287 34143
26764 53528
23942 47885
13784 27569
28165 56331
47863 23931
21411 42823
15082 30164
31714 63429
12797 25594
23312 11656
1633 816
63375 31687
56774 28387
3575 7150
64475 32237
16686 8343
42501 21250
25392 50785
37019 18509
19625 39251
28375 56750
61619 30809
7664 15328
33467 66935
3743 1871
23593 11796
33534 16767
21458 42917
14039 7019
34582 69164
7316 14632
20074 10037
25978 51956
47542 23771
61425 30712
26422 52845
8187 4093
5807 2903
3098 6197
11298 22597
35603 17801
31933 15966
22295 11147
19832 39665
13223 26446
53216 26608
6789 3394
65127 32563
6069 12139
29519 14759
10934 21868
2939 5879
13908 6954
5029 2514
6925 13851
23459 46918
30991 61982
69139 34569
24530 12265
59788 29894
33739 16869
56377 28188
10916 5458
33123 16561
12235 24471
24099 12049
4389 8779
53563 26781
397 795
15035 7517
18180 36361
32126 64252
53826 26913
34444 68888
33777 16888
17207 8603
23489 46979
211 422
8338 4169
6890 3445
14474 28949
55304 27652
26868 53736
8247 16495
44410 22205
11679 23359
3491 6983
53955 26977
31357 15678
45226 22613
23079 11539
24461 48923
20957 10478
16040 8020
36314 18157
33845 67690
15547 31095
7469 14938
2036 4073
24723 49446
16538 33077
14162 7081
8802 17604
21418 42836
18187 36375
27998 55997
36380 18190
20895 10447
66730 33365
8306 4153
54460 27230
23687 47375
18601 37203
1170 585
42135 21067
5000 10001
7000 14000
24636 49272
10492 20985
27656 13828
33338 16669
9300 18600
25044 50088
16002 8001
5110 10220
23863 11931
3211 6423
7338 3669
54221 27110
38027 19013
34825 17412
63196 31598
2587 1293
10475 20950
12681 6340
25584 12792
10712 21424
7148 14297
63743 31871
20221 40443
22356 44712
26383 52766
52023 26011
3784 7569
18132 36265
50985 25492
65587 32793
24085 48171
16816 33632
32514 65029
27093 13546
18709 37418
26058 13029
34667 17333
18313 36626
34161 68322
17901 8950
27824 13912
5778 11557
24676 49353
55677 27838
5084 10169
51974 25987
18585 37171
7980 3990
1991 3982
11657 23315
21984 43969
51941 25970
26202 52405
10030 20060
14126 28253
306 612
33030 16515
5376 10753
640 320
20979 41959
40430 20215
48815 24407
4684 2342
16193 8096
57833 28916
43786 21893
27822 55645
24998 49996
43144 21572
30550 61101
26469 52939
1794 3589
572 286
20580 41160
23291 46583
12927 25854
44775 22387
13386 6693
4597 2298
56011 28005
46910 23455
49297 24648
1683 3366
68961 34480
18156 36313
15340 7670
17681 35362
43155 21577
32280 64561
19183 38366
50700 25350
62223 31111
6258 3129
17580 35161
8258 16516
6869 13739
17459 34918
485 242
3013 6027
44911 22455
3190 6380
37725 18862
9392 18784
13684 6842
59849 29924
67045 33522
19994 39989
68931 34465
50709 25354
15958 7979
9062 18124
9696 19392
14279 7139
65317 32658
52587 26293
5857 11714
54688 27344
55060 27530
8787 17575
11519 23038
27490 54981
4304 8609
6650 13300
15951 31903
493 246
25073 50146
22982 45964
16823 8411
24663 49327
14183 28366
7594 15189
3864 7728
39206 19603
19320 38640
58666 29333
23813 11906
18834 9417
22310 11155
8839 4419
5200 10401
65751 32875
27061 13530
33256 66513
23514 11757
35416 17708
3571 1785
64744 32372
22112 44224
34038 68076
870 1740
9089 4544
32238 64476
24086 48172
61155 30577
54161 27080
64837 32418
28909 57818
58574 29287
28392 56785
67873 33936
69044 34522
8742 17484
12251 24502
64178 32089
46944 23472
42004 21002
23353 11676
18461 9230
2623 5246
30740 61481
63605 31802
32625 16312
21381 10690
57538 28769
55799 27899
36326 18163
31576 63153
67364 33682
29583 59167
5117 10234
32679 16339
48751 24375
22780 45561
8170 4085
46835 23417
17350 34700
57694 28847
34546 69092
38412 19206
33627 16813
12273 24547
62003 31001
22951 45902
63089 31544
310 621
24530 49060
27126 13563
27786 13893
26445 13222
29740 59481
14038 28077
17673 8836
16732 8366
28264 14132
3122 6244
15073 30146
1190 2380
4466 8932
12993 6496
9386 4693
18463 9231
1422 2844
57582 28791
21915 43831
4427 8854
27605 55210
2103 1051
16312 8156
67056 33528
15089 30179
32815 16407
29473 58947
4195 8390
411 205
30417 60835
83 167
27150 54300
34776 17388
11815 23631
32714 65428
15440 7720
31300 62600
16207 8103
6863 13727
24937 12468
66272 33136
33531 16765
28659 57319
11925 23851
30779 61559
31369 62739
54611 27305
31679 15839
13146 26293
12624 25248
28633 57267
28703 57406
33460 66920
14585 29170
46573 23286
58091 29045
56943 28471
2427 1213
25707 12853
43201 21600
28136 56273
16195 8097
8163 16326
51140 25570
30997 61995
12274 6137
6891 13782
3458 6916
12740 25481
48929 24464
14062 7031
6658 13317
42175 21087
29626 59253
25640 51280
8153 16306
17497 34995
39648 19824
7399 14798
305 610
42508 21254
9922 19845
28075 56151
27237 13618
22679 11339
65497 32748
19570 39140
9285 18571
1009 504
431 862
45109 22554
4422 2211
52096 26048
11565 5782
61630 30815
24860 49720
2878 5757
4757 9515
2310 1155
20309 40619
5035 10070
45933 22966
23541 47083
50402 25201
17165 8582
20194 40388
17904 8952
28978 57956
9752 4876
27919 55838
39968 19984
49124 24562
30096 60192
9785 19570
36455 18227
61171 30585
50106 25053
18623 9311
60896 30448
59423 29711
16633 33267
43733 21866
67628 33814
22082 44164
525 1050
10653 21306
3914 1957
4444 2222
28504 14252
17047 34095
25881 12940
49435 24717
25694 51388
25134 50269
6756 13513
20180 40360
29112 58224
46864 23432
27159 54319
33551 67103
37524 18762
30581 15290
10419 20839
41945 20972
67708 33854
11792 23585
53354 26677
37108 18554
5262 2631
66885 33442
24092 48185
14541 7270
34250 68500
5732 11465
15465 30931
13647 27294
65662 32831
33694 67389
21837 10918
13488 6744
11973 23947
24648 49296
35327 17663
28251 56503
33170 66340
19866 9933
21981 43963
46733 23366
28443 56886
34227 68455
37491 18745
34774 17387
28497 56994
8762 17525
16808 33617
866 1732
4343 8686
31666 63332
3324 1662
26834 53669
9277 4638
53994 26997
10816 21632
41467 20733
29209 14604
7196 3598
2950 5901
14680 29361
42127 21063
26086 52172
1828 3656
61698 30849
28365 14182
55279 27639
2001 1000
39468 19734
14247 28494
64374 32187
63085 31542
8140 16281
22339 11169
26148 13074
26624 53248
5932 11865
10050 20101
28144 14072
26869 53739
22117 11058
15478 7739
4620 2310
28199 14099
5299 2649
9448 18896
62870 31435
19610 39221
35033 17516
20993 10496
22957 11478
1907 3814
15595 31191
3608 7216
20211 40423
16806 8403
28025 14012
4657 2328
59289 29644
13086 26173
2316 4633
4463 8927
33336 66673
34857 17428
39566 19783
37810 18905
32144 64288
9906 4953
7563 15126
29121 58242
67143 33571
25955 51910
68544 34272
4436 8872
17433 34867
30048 60096
23325 46651
28381 56763
27015 54031
42673 21336
37003 18501
33295 16647
65247 32623
3694 7389
51163 25581
3581 7163
14508 29016
50441 25220
11555 23111
56707 28353
15676 7838
32791 65582
45985 22992
4790 2395
48862 24431
2014 4029
5579 11158
30575 15287
34228 17114
18183 36367
20936 41872
22487 44974
26527 13263
29156 14578
54604 27302
8972 17944
21668 43336
19813 39627
13541 27083
9687 19375
16461 32923
18785 9392
30393 15196
11329 5664
47900 23950
34882 17441
27058 54116
35565 17782
23838 11919
9690 19381
30455 60910
3765 1882
2754 1377
16524 33048
47462 23731
7705 15411
19245 38490
21593 10796
26538 13269
20459 10229
16332 32665
63210 31605
20745 41491
19763 9881
15541 31082
17988 35976
52906 26453
47752 23876
1487 743
28864 57728
30735 61471
16864 33729
14877 7438
36856 18428
28985 14492
61180 30590
1318 659
14345 28690
57781 28890
32983 65967
11200 22401
5879 11758
50055 25027
66907 33453
31884 15942
6169 12338
42810 21405
32238 16119
65674 32837
270 541
34307 17153
46140 23070
28409 56818
28895 57790
14200 28401
17272 34544
21667 43335
21106 42212
2139 4279
32528 65056
26652 53304
11532 23065
20317 10158
38704 19352
15271 30542
27651 55303
15407 7703
11204 5602
17462 34924
29625 59250
27507 55014
2020 4040
31159 15579
19998 9999
67851 33925
49646 24823
16794 8397
33923 67846
24653 49306
12193 24387
2968 5936
21455 42911
5130 10260
15323 30647
5175 10351
8556 17112
61122 30561
24644 49289
7348 14697
8059 4029
1419 2838
31422 62845
30994 61988
65155 32577
16006 32013
11109 5554
29092 58185
25826 12913
9354 4677
11602 23205
40486 20243
8782 17564
27451 13725
44890 22445
34163 68327
14793 29586
23418 46836
10634 21269
23529 47058
991 495
22033 11016
11803 5901
23579 47159
44522 22261
59687 29843
59633 29816
6119 12239
21907 43814
7758 15517
28834 57669
16891 33782
11030 5515
23004 46008
25932 12966
27194 13597
18653 37307
9846 4923
13108 26216
12348 24697
27636 13818
12316 24632
63806 31903
69032 34516
56505 28252
51855 25927
24723 49447
15027 30055
27792 55584
24651 49303
5054 10108
4110 8220
42042 21021
33027 16513
42323 21161
17718 35437
4316 2158
4660 9320
27245 54491
68198 34099
58803 29401
19956 39912
51708 25854
51019 25509
48595 24297
19961 39923
5907 2953
18026 36053
67074 33537
10647 21294
27489 54979
42180 21090
32602 16301
8122 4061
23453 46907
56726 28363
28316 14158
31943 15971
50503 25251
36403 18201
56364 28182
57696 28848
11569 5784
43182 21591
50612 25306
44296 22148
5563 11127
26832 53664
19754 39508
17222 34445
41105 20552
8540 17081
42164 21082
8660 17320
3103 6207
19110 38220
23907 11953
49467 24733
63276 31638
7800 3900
67002 33501
29956 59912
23699 47399
11906 23812
15640 31280
25250 12625
12665 6332
4361 8722
66034 33017
22237 44474
64743 32371
16659 33318
1309 2619
36896 18448
15036 7518
33778 67556
28662 14331
7211 3605
2089 4178
7552 3776
15116 7558
60597 30298
18238 36476
46390 23195
65953 32976
12707 25415
7493 3746
5306 10613
34424 68849
1820 910
11382 22764
51892 25946
58674 29337
9729 19458
23947 47894
36712 18356
9548 19097
62987 31493
32667 65334
38159 19079
1907 953
848 424
6990 13980
17586 35173
60679 30339
634 317
4494 8989
16995 8497
4381 2190
19710 39420
29785 14892
32683 65367
19663 39327
2422 1211
32808 65616
32664 16332
9904 19808
51410 25705
66649 33324
5903 11807
10188 20376
53191 26595
33918 67836
33183 66367
645 322
584 1169
5638 2819
18098 36197
20758 41516
5103 2551
58731 29365
3868 7736
1897 3795
16706 33412
16275 32551
17084 8542
36583 18291
31468 62937
8246 16493
21335 42670
17472 34945
66503 33251
4563 9127
13777 27555
33901 67803
3144 6289
58397 29198
50958 25479
31259 62518
69055 34527
17343 8671
7664 15329
33962 16981
10363 5181
63615 31807
60766 30383
18267 36535
7805 15610
19400 38801
6024 12049
21802 43605
32009 16004
51522 25761
28671 57343
26336 52673
15697 31395
58760 29380
20554 41108
53929 26964
18343 36686
7541 15082
4524 9048
9075 4537
7665 15330
15973 31947
27962 55924
37404 18702
37927 18963
29713 59426
53379 26689
4471 2235
8477 16955
23786 47572
23977 47955
7124 14249
3540 7080
14370 28741
51589 25794
53158 26579
12654 6327
36959 18479
21306 42613
43902 21951
29793 14896
38189 19094
35652 17826
30312 15156
29768 59536
39842 19921
38934 19467
49964 24982
16565 33130
20692 10346
50244 25122
24473 48946
11164 5582
44313 22156
18635 9317
4030 8061
18105 9052
28952 14476
20550 10275
11456 22913
33506 16753
45340 22670
1773 3547
27537 13768
11300 5650
26065 52131
19829 39659
31587 63174
60526 30263
8735 4367
12312 24625
13497 26994
13004 6502
5929 11859
20947 41895
19125 38250
19886 9943
16849 8424
39290 19645
221 442
13064 26129
8044 4022
12466 24933
15057 30114
20158 40317
4802 9604
64468 32234
8218 16436
17296 34592
26143 52287
3861 7722
44892 22446
12391 24783
32401 16200
4506 9013
3806 1903
34797 17398
8249 4124
31210 15605
19288 38576
24856 49712
20926 41853
18940 9470
56847 28423
51422 25711
19271 38543
29767 59534
56715 28357
62813 31406
11257 5628
28390 56781
24552 49105
6205 3102
27421 54842
7173 3586
16627 8313
33532 67065
50680 25340
16418 32836
16170 32341
10746 21492
24365 48730
19338 38676
31251 15625
5321 2660
2862 5725
25953 51907
14135 28270
18534 37068
8681 17362
26755 53510
18577 9288
46984 23492
22036 44072
24725 49451
26442 52885
7084 3542
15274 7637
27111 13555
60197 30098
53143 26571
13478 6739
29238 14619
16217 32434
64147 32073
6793 3396
43442 21721
19106 38212
42649 21324
35491 17745
53110 26555
36551 18275
17572 35144
4031 8062
21765 10882
50384 25192
28292 56584
26385 13192
25547 51095
24378 12189
383 191
3957 1978
63172 31586
78 157
13420 26840
64336 32168
22376 44752
48097 24048
7532 15064
20355 40710
49031 24515
19194 38388
46201 23100
33694 67388
18784 37568
41777 20888
17637 8818
8416 16833
25045 12522
65436 32718
28247 56494
39914 19957
23559 11779
45946 22973
8120 16241
6434 12869
12029 24058
49761 24880
486 973
435 217
11770 23540
10101 20202
5267 2633
51906 25953
21695 10847
32845 65691
21131 42262
43916 21958
3332 1666
50624 25312
61600 30800
2354 1177
15004 30008
29850 59700
4917 9834
61955 30977
1733 3466
17798 8899
54212 27106
52220 26110
29378 58757
44674 22337
68451 34225
67559 33779
7050 3525
27603 55207
4895 9790
22124 11062
1255 627
27331 13665
7333 14667
40097 20048
36138 18069
2548 5097
19412 38825
10890 21781
36736 18368
6430 12860
16862 33724
10821 5410
42005 21002
24374 48749
20608 10304
13927 27854
50990 25495
59295 29647
12282 24564
15105 30210
50271 25135
6618 13236
15147 30294
65051 32525
20518 10259
22720 45440
20911 10455
14784 29568
31142 15571
16327 8163
7844 15689
22856 11428
31937 15968
62200 31100
9573 4786
47703 23851
26185 13092
14727 7363
32783 65567
30074 60149
26418 52836
44955 22477
21831 43662
55564 27782
5946 2973
18507 37015
69183 34591
9189 4594
22427 11213
62905 31452
62309 31154
33170 66341
6905 13811
22149 11074
7325 14651
28949 57899
21313 42626
57821 28910
9331 18663
16106 32212
46267 23133
918 1837
28919 14459
64866 32433
25538 12769
33558 67117
61115 30557
11249 22499
7131 14263
20276 10138
55372 27686
18557 37115
11682 23364
9344 18689
7961 15922
34002 68005
56596 28298
33513 67027
22137 44274
10705 5352
35409 17704
33727 67455
16692 33385
14189 28379
45879 22939
6176 3088
5481 10963
67588 33794
1151 575
68130 34065
22892 45784
25020 50041
43269 21634
16323 32647
17514 35028
1749 874
68760 34380
27689 55378
16775 8387
5556 11113
48095 24047
52327 26163
23531 47063
30433 60866
10458 20916
62850 31425
20170 40341
18272 9136
63885 31942
52301 26150
25406 12703
12217 24435
9280 18561
12879 25759
22585 45170
12727 6363
10063 20126
59429 29714
31252 62504
66877 33438
62745 31372
30609 61219
23920 47841
14917 29834
23681 11840
3993 7986
2473 4947
1497 2995
63138 31569
10547 5273
27932 55864
31232 62464
20845 10422
2111 4222
16318 8159
51179 25589
21902 10951
16923 33846
68553 34276
45158 22579
6026 3013
31542 15771
18034 9017
30094 60188
8954 17908
57529 28764
24000 12000
29411 14705
12737 6368
5021 10042
1384 2769
45261 22630
15598 31196
32170 64341
26954 13477
48586 24293
30708 61416
63980 31990
60028 30014
54678 27339
36473 18236
32211 16105
26016 52032
24649 12324
27197 54394
17388 34777
34558 17279
18370 36740
19144 38289
22247 44495
38102 19051
21187 10593
27805 13902
47779 23889
20890 41781
30819 61639
43604 21802
7890 3945
18552 37105
21091 42182
41545 20772
21542 43085
48779 24389
58440 29220
31788 63577
20842 41684
19640 39281
11241 22483
14482 7241
10310 20621
31150 15575
9118 4559
20567 41135
42717 21358
11869 23738
34689 17344
4020 2010
35117 17558
29900 59800
27212 54425
17956 35912
43725 21862
5860 2930
1379 2759
50662 25331
66621 33310
15727 7863
14662 7331
13372 6686
9898 19797
28220 56441
6045 12090
30899 61798
17057 8528
11940 5970
30586 61172
30233 60466
42561 21280
68356 34178
8848 17696
1860 3720
11524 5762
19655 39311
10640 21281
27916 55832
2749 1374
4071 2035
33677 67355
25153 12576
69176 34588
19798 39596
34692 17346
46169 23084
29080 58160
8032 16064
3105 6210
3179 6358
25623 51246
36589 18294
15325 7662
14571 29143
48888 24444
63920 31960
54464 27232
9685 19370
991 1983
16654 33309
32994 65989
17675 35351
32200 64400
9644 19289
14876 29753
38255 19127
40390 20195
8977 4488
15104 7552
16451 8225
24740 49481
13981 6990
11637 5818
33681 16840
4746 9492
26979 53959
29235 14617
11967 23935
38757 19378
56372 28186
30255 60511
25670 51341
69281 34640
45570 22785
15289 30578
31926 63853
51699 25849
33755 16877
18007 9003
33144 16572
9344 18688
1969 984
30151 60303
17056 34112
17919 8959
16473 8236
7195 3597
24865 49730
23132 46264
19182 38365
6808 3404
23550 47100
61090 30545
20286 40573
37752 18876
20670 41340
20591 41182
8783 17566
41475 20737
23057 46115
31235 62471
4565 9130
19152 9576
32020 16010
19643 39287
17442 34884
39698 19849
11119 5559
25469 50939
28310 56620
23415 11707
13525 27050
31603 63207
48546 24273
1908 954
32504 65008
42266 21133
2782 1391
23730 11865
21653 43307
26016 52033
67661 33830
45438 22719
46559 23279
65728 32864
33367 66734
24218 48436
12642 6321
5978 11956
33935 67871
6246 12492
68743 34371
607 303
1366 2733
18656 9328
50049 25024
22215 11107
38655 19327
25854 51709
7097 14194
34205 68410
30785 15392
29882 59765
41683 20841
32662 16331
6436 12872
22683 11341
10104 5052
4711 9422
65892 32946
66204 33102
31959 63918
15452 30905
16467 32934
19805 39610
8632 4316
25564 51129
3931 1965
58251 29125
3082 6164
54889 27444
49201 24600
11939 23878
67081 33540
16115 32231
66129 33064
27193 54387
18194 36388
8703 17406
20344 10172
13573 27146
37597 18798
9788 4894
19756 9878
44398 22199
35672 17836
44827 22413
58028 29014
18444 9222
36089 18044
26669 53339
68262 34131
10904 21809
37342 18671
16362 32725
35213 17606
21786 10893
8793 17586
11656 23313
38427 19213
26654 13327
31656 63313
12715 25430
4831 2415
23113 46226
20858 41717
18528 9264
16886 8443
32106 64212
29986 59972
34204 17102
24201 48402
25478 50956
33645 67291
23974 11987
1551 775
34009 17004
7174 3587
34576 69153
33469 16734
52899 26449
14762 29525
24850 49700
3443 6887
462 924
8553 17106
11131 22262
26314 13157
50515 25257
9165 18330
11824 23648
58335 29167
7085 14171
15363 30726
33855 16927
21974 10987
6242 12484
16132 32265
67219 33609
52354 26177
2428 4857
62388 31194
32235 64471
14676 29352
31136 62273
8625 17251
53794 26897
29646 59292
318 637
11772 23544
6178 3089
60313 30156
1285 2571
17276 8638
12195 6097
8941 17883
18542 37084
33753 67507
41970 20985
14968 29937
30295 15147
19130 38261
15274 30548
6016 12033
4688 9376
36449 18224
39341 19670
9452 18904
17064 34129
4125 8251
5030 2515
26143 52286
22540 11270
61287 30643
29151 58302
24367 48735
20511 10255
17420 34841
11208 22416
11172 22345
47108 23554
27731 13865
5121 10242
5785 11571
21661 43323
18978 9489
27387 54775
887 1774
62238 31119
24835 49671
5883 2941
17307 34614
8501 17002
56393 28196
43295 21647
6441 12882
51497 25748
12604 25208
44358 22179
23634 11817
19938 39876
26467 13233
48111 24055
9829 19659
1576 788
42151 21075
1169 2338
3303 1651
68050 34025
34191 68383
31200 62401
36995 18497
61365 30682
13291 26582
20861 41723
11063 22126
8776 4388
21608 10804
26625 13312
34149 68299
15939 31879
65460 32730
7734 15469
30066 15033
55125 27562
65543 32771
14630 29260
3683 7366
26320 52640
2727 5455
39664 19832
40370 20185
5066 2533
11444 22889
22382 44765
33568 67137
9523 19046
37053 18526
58029 29014
804 402
20767 41535
1657 3314
35748 17874
58304 29152
46725 23362
28069 56139
41595 20797
57608 28804
2213 1106
3630 7261
10136 20272
63796 31898
45930 22965
18860 9430
931 1862
31501 63002
26724 53449
62706 31353
55380 27690
3531 1765
53243 26621
21038 10519
9580 19161
11565 23131
6040 12080
48144 24072
60389 30194
18448 9224
37762 18881
21366 10683
14677 29355
47839 23919
46130 23065
28195 14097
6480 3240
17284 34568
12159 24318
3704 1852
29854 59709
32835 65670
2037 4074
2066 4132
4173 8346
37788 18894
26257 13128
34548 17274
723 1446
39911 19955
53881 26940
68773 34386
29247 58495
67409 33704
25386 50772
20027 10013
16310 32621
64309 32154
31284 15642
45486 22743
25126 50252
29880 14940
3206 1603
18851 9425
12756 25513
58800 29400
22424 44849
9101 18202
2872 5744
5028 2514
29808 59617
23580 47160
17057 34115
42009 21004
63087 31543
65634 32817
29173 14586
27568 55136
5712 11425
50404 25202
33421 16710
11032 22064
1991 3983
29942 59885
45179 22589
5908 11817
25000 50001
10940 21880
19491 38983
20254 10127
44101 22050
618 1237
62989 31494
14256 28513
42093 21046
68990 34495
22599 11299
27007 13503
12320 6160
26138 52277
24566 49132
50708 25354
20656 10328
11768 23536
30416 60832
22513 45026
25372 12686
64081 32040
28342 56685
18065 36131
11538 23077
29105 58210
4523 2261
27162 54324
62343 31171
464 928
55510 27755
13144 26289
24220 48440
20496 40993
23707 47415
4785 9570
32046 64092
64801 32400
28928 57856
5114 10229
17993 8996
33850 67700
30949 15474
7507 15014
26328 13164
9598 4799
37586 18793
3323 6646
12964 6482
44600 22300
21604 43208
3741 7482
11646 23292
31565 63131
7527 15054
32242 16121
30190 60381
38678 19339
15697 31394
24118 48236
27921 55843
34664 17332
36035 18017
30798 61597
29835 14917
18208 36417
26377 52754
57453 28726
12120 24241
51404 25702
8344 16689
7226 14452
2087 1043
29380 58761
11767 5883
5761 2880
15099 30199
31484 62968
21585 43171
26834 13417
56538 28269
45758 22879
35585 17792
56904 28452
12805 25610
27143 54286
32863 65726
29428 58857
8938 4469
26237 52475
45237 22618
26684 13342
9777 19555
30478 60957
11187 5593
3297 6594
2823 5646
33589 16794
30181 60363
16838 8419
66967 33483
11196 5598
21266 42532
6459 12919
6474 12948
33867 67734
3834 7668
1257 628
20875 41750
31783 63567
67800 33900
19449 38898
62642 31321
19621 9810
46518 23259
67601 33800
18598 9299
28511 57023
37675 18837
26666 53333
3044 1522
3365 6731
62539 31269
10292 20584
27526 55053
47481 23740
42442 21221
17543 35087
7363 3681
38598 19299
32240 64481
41636 20818
21306 42612
18297 36595
11922 23845
45840 22920
8623 17246
20778 10389
18670 37341
15215 30431
7360 14721
49592 24796
12199 24399
63316 31658
39499 19749
20796 10398
48287 24143
17977 8988
16170 8085
34092 68185
61278 30639
47117 23558
14986 7493
25523 12761
10402 20804
5026 10052
16730 33460
18171 9085
47598 23799
8470 16940
27414 54828
32214 64429
23203 11601
26297 13148
55119 27559
66007 33003
8578 17157
20849 41698
19216 38433
9447 18895
62977 31488
8410 4205
60142 30071
58677 29338
36324 18162
34839 17419
12820 25640
60508 30254
20000 10000
17256 34512
13746 27493
26131 52263
7784 15569
39780 19890
29862 14931
33501 67003
28720 57440
40376 20188
44872 22436
3145 6291
12819 6409
9783 19567
3286 1643
4600 9200
48154 24077
7317 14635
27549 13774
33056 66113
67509 33754
34219 17109
6654 3327
28186 14093
28469 56938
24754 12377
46917 23458
12327 6163
7418 14837
59147 29573
34430 68861
15815 31631
43305 21652
65245 32622
890 1781
3696 7393
17997 35995
28076 14038
27184 54369
36822 18411
14758 7379
30309 15154
26026 52053
55069 27534
32601 65202
22029 11014
17771 35542
11394 22788
13922 27845
9372 18744
26412 13206
30786 61572
30089 15044
13401 26802
3932 1966
14715 29431
20302 10151
2283 4567
11406 22813
18995 37990
4964 9929
8461 4230
33383 16691
40943 20471
59024 29512
38339 19169
29563 59126
22549 11274
26682 53364
14569 29138
4406 8813
52381 26190
65306 32653
33397 66794
30680 15340
8522 17045
3177 1588
25617 51234
13652 27305
4252 2126
27060 54120
38926 19463
57903 28951
11048 5524
2175 4350
28029 56059
34590 69181
61661 30830
8420 16840
11256 5628
13254 26509
12678 6339
17545 35090
23972 47944
46978 23489
30613 61227
6612 3306
54776 27388
45747 22873
13422 6711
17711 35423
10963 21927
10991 21982
9631 4815
33960 67921
33437 66875
23792 47584
32364 64728
19436 38872
22174 44349
25139 50278
30938 15469
1554 777
24446 48892
31045 15522
4985 9971
62555 31277
17282 34565
35134 17567
4612 9225
44802 22401
63006 31503
4648 9296
3347 1673
2612 5224
721 1442
11467 22934
496 248
68602 34301
50274 25137
23657 11828
4515 9030
32636 65273
64353 32176
17061 34123
64642 32321
17611 35222
24898 49797
20756 41513
3866 7733
429 859
15982 7991
19830 39660
66481 33240
7079 3539
67809 33904
15175 7587
12174 24348
11846 5923
35285 17642
18851 37703
4865 2432
20403 10201
16205 32410
6166 12333
676 1353
63422 31711
25417 50835
1539 769
39173 19586
9966 4983
45169 22584
62459 31229
18296 9148
46236 23118
26993 53986
15583 31167
32377 64755
34558 69117
12742 6371
12687 25375
5956 11912
31352 62705
23304 46609
88 44
39467 19733
32577 16288
52413 26206
31816 63632
20382 10191
20247 10123
16800 33601
24134 48269
18773 9386
23991 47982
41313 20656
50064 25032
16793 33587
60253 30126
16036 32073
32548 65096
68384 34192
25266 50532
24165 12082
19595 39191
30427 15213
12640 6320
10575 21150
35071 17535
8116 4058
12701 25402
34093 68186
18931 37863
12936 6468
1152 2304
33125 66250
20888 41776
5930 11861
4767 2383
46478 23239
18077 36154
25974 12987
36330 18165
25765 51531
17954 8977
22532 45065
54877 27438
10087 20175
6683 13367
51957 25978
46870 23435
36909 18454
33496 66993
20075 10037
30319 60638
57104 28552
23654 47308
32332 64665
16708 8354
17244 34489
2384 4768
31341 62683
50665 25332
18923 9461
36067 18033
23792 47585
8146 4073
23254 46509
2248 4497
23633 11816
11342 22684
14941 29883
27861 13930
34435 68870
16537 33074
28958 57917
16660 33320
51654 25827
18722 37445
57394 28697
48689 24344
20406 10203
5651 11303
49371 24685
30636 61272
6000 12000
39641 19820
5085 2542
26741 13370
3530 1765
35526 17763
27923 55847
60776 30388
34213 68427
30276 60552
19259 9629
22557 45115
25309 12654
25685 51370
10754 21509
17552 35104
25155 50310
62622 31311
13445 6722
3017 6034
64259 32129
60913 30456
9847 19695
23480 46961
27997 13998
30152 60304
60779 30389
5188 10376
14584 29169
38660 19330
62468 31234
19457 38914
22365 11182
28817 14408
23615 11807
39262 19631
31531 63063
65327 32663
45391 22695
20906 10453
7562 15125
41168 20584
15026 30052
34197 17098
25870 51741
11012 22025
32571 65142
12758 6379
24455 48910
66028 33014
10183 5091
12076 24153
59357 29678
55042 27521
46141 23070
57946 28973
34318 68637
11566 5783
45715 22857
22096 44193
32998 16499
3182 1591
28656 57313
26136 13068
7870 3935
12997 6498
29515 59030
17232 34465
27742 13871
37112 18556
9440 18880
23957 47915
27115 13557
25615 12807
4862 9725
59067 29533
16684 33368
1986 3972
776 1552
6380 12760
19326 38653
20239 40478
66016 33008
64969 32484
59369 29684
6997 3498
25770 51540
51857 25928
17593 35187
31884 63768
22941 45882
19471 38943
15537 31075
25054 50108
8955 17910
37429 18714
8765 17531
1049 524
49949 24974
12767 6383
27309 54618
14448 28897
32232 64464
20588 41176
51587 25793
2121 1060
35625 17812
42916 21458
21308 42617
10886 21773
34790 17395
29871 59742
23355 46711
10255 5127
19373 9686
19762 39524
10923 21846
5548 11096
6241 12482
50830 25415
68625 34312
34225 68450
63236 31618
1928 3856
10262 20525
22935 11467
54594 27297
29545 59090
20972 41944
36184 18092
68453 34226
18305 36610
5509 11018
30228 15114
28738 57476
392 784
24361 12180
44982 22491
12178 24356
1685 842
25111 50223
30734 61468
7612 15224
31111 15555
14723 29446
32033 64066
6551 3275
12563 6281
49387 24693
15742 7871
19413 38827
6543 13086
29185 58370
19442 38884
4881 2440
39459 19729
2931 1465
5138 2569
9487 18975
64470 32235
58708 29354
19039 38078
35184 17592
32550 65100
54637 27318
7765 3882
9832 19664
25461 12730
5121 2560
16227 32455
39230 19615
55066 27533
23887 47775
21536 43072
14788 29576
6918 3459
57420 28710
25647 51294
7754 15508
15180 30361
29800 59601
29102 14551
50994 25497
33361 66722
23177 46354
43849 21924
1074 2148
32322 64645
1056 2113
46866 23433
26943 53886
29461 58922
56822 28411
807 1615
64093 32046
22384 44769
6238 12476
19911 39822
37925 18962
7670 3835
54729 27364
26989 13494
59865 29932
27458 13729
19823 39646
31473 62946
45537 22768
39318 19659
24106 48213
15551 31103
5620 2810
29595 59191
57452 28726
27988 13994
51390 25695
11806 23613
69175 34587
13752 6876
59031 29515
63423 31711
21636 43273
61756 30878
11133 22266
30117 15058
11844 23688
19417 38835
17278 34557
15456 7728
37995 18997
11914 23828
65053 32526
10118 20237
44724 22362
34552 17276
27900 55801
35081 17540
63545 31772
2337 1168
55694 27847
66963 33481
20676 41353
46809 23404
62241 31120
7990 15981
28258 56516
50572 25286
28975 57951
6882 13765
63498 31749
18155 36311
47189 23594
18938 37877
15268 30536
16382 32764
25166 50333
13564 6782
3219 6439
47280 23640
9090 4545
20625 41250
63531 31765
11633 23266
10254 5127
27830 55661
29597 14798
65723 32861
60625 30312
8940 17881
3518 7036
2604 5209
52111 26055
27236 54473
27315 13657
271 543
67384 33692
11690 5845
63889 31944
28528 57057
29634 59268
20585 41171
20852 10426
32287 64575
12162 24324
677 1355
16542 33085
60570 30285
12246 6123
2984 1492
9793 19586
26692 53385
28969 57939
2998 1499
5423 10847
29041 58083
48713 24356
32412 64825
19841 39682
40895 20447
55411 27705
51686 25843
11502 5751
16737 33474
65586 32793
10082 20164
30536 61072
52682 26341
31090 15545
11473 22947
16234 8117
1555 3110
37728 18864
32123 64247
14849 7424
23227 46454
11564 23129
61108 30554
29681 14840
5643 11287
27139 54278
45720 22860
3362 1681
11366 22733
18787 37574
31950 63901
39478 19739
59411 29705
54550 27275
19091 38183
11811 23622
22209 44419
2526 5052
55740 27870
13959 6979
19639 39278
10014 20028
20805 41611
59211 29605
4307 8614
33612 67224
47048 23524
54009 27004
68899 34449
6910 13821
12931 25863
30911 61823
27532 55065
22311 44623
20535 10267
46483 23241
4986 9972
33833 67667
42538 21269
33252 16626
1055 2110
5550 11101
20464 40928
22009 11004
51594 25797
24996 49992
31566 15783
22740 11370
42979 21489
10404 20808
15419 30839
24260 48520
60033 30016
12612 25224
14335 28671
18576 37152
4053 8107
54446 27223
49345 24672
6978 13956
10351 20703
5099 10198
5480 2740
12518 6259
32264 64529
56522 28261
56076 28038
19900 39801
55495 27747
52199 26099
47941 23970
25424 12712
12680 6340
12920 6460
1310 655
11974 5987
28814 57628
8740 17480
22059 44118
20937 10468
1219 609
3781 7562
3334 6668
35031 17515
28409 56819
33260 66521
24138 48276
58945 29472
4599 2299
61373 30686
22084 44168
21587 43175
27866 55733
30767 15383
15813 31626
29845 14922
7832 15664
14205 28411
14070 28140
26269 52539
2286 4572
23287 46574
11624 5812
11666 23332
280 560
1655 827
6114 12228
58 117
3200 6400
16182 8091
1034 2068
28289 56578
12329 6164
4459 8919
23077 46154
14254 28509
69252 34626
26428 52856
13194 6597
1627 3255
11039 22078
23423 46847
15627 31255
37530 18765
21029 42058
32567 65134
13917 27835
31012 15506
49972 24986
23072 46144
44910 22455
67844 33922
34482 17241
45028 22514
11872 23745
16598 33197
24820 12410
30736 15368
16058 32116
45433 22716
19251 38502
21624 43249
5551 11102
19487 38975
5915 2957
24585 49171
28100 56201
17017 34034
38785 19392
28407 14203
48044 24022
30836 15418
17074 34149
24524 49048
33414 16707
55554 27777
41350 20675
4313 8626
8871 17743
5861 2930
29287 58575
55511 27755
32531 16265
33669 16834
19777 39555
5982 11964
63004 31502
25057 50115
35113 17556
28685 57371
33944 16972
11395 5697
65533 32766
37817 18908
534 1069
10243 20486
52982 26491
57851 28925
35723 17861
33428 66856
12152 24304
21378 10689
19339 38679
8373 16746
22793 11396
4490 8981
17422 8711
2125 1062
61703 30851
33198 66396
6335 12671
19147 38294
4833 2416
48678 24339
3327 6655
35243 17621
64040 32020
48429 24214
1802 3605
33151 66303
1563 781
44969 22484
8230 16461
47639 23819
57867 28933
28991 57983
24007 48015
63973 31986
14882 7441
14936 29873
51226 25613
45230 22615
15255 30511
8300 16601
55142 27571
12248 6124
24802 49604
17637 35274
13480 26961
8296 16593
30292 60584
59816 29908
26651 53302
16177 32355
28331 56663
1778 3556
34251 68502
1339 2679
4185 2092
53663 26831
2439 1219
69057 34528
18469 36939
1741 3483
13990 27980
9558 19116
1549 774
13299 6649
12136 6068
21438 42877
7441 14883
44409 22204
23719 47439
9919 19838
1006 2013
5932 2966
65289 32644
30401 60803
28074 14037
48224 24112
15845 31691
28361 56722
12800 25601
43936 21968
6294 12588
18204 9102
52006 26003
2251 1125
10079 20159
32813 16406
9851 19702
7152 14305
29585 59170
1191 595
33565 67130
62370 31185
1893 946
21638 43276
9488 4744
48349 24174
45811 22905
21219 42438
10738 5369
42480 21240
3215 6430
51076 25538
68230 34115
8843 17687
23543 47086
5122 10244
3365 6730
32343 64686
38999 19499
28506 14253
32788 65576
22054 44109
33626 67252
44278 22139
3497 6995
42408 21204
47476 23738
50690 25345
19455 9727
33509 67018
33091 66182
33993 67987
2833 5667
4144 2072
28234 56469
26177 52355
23361 46722
55072 27536
20659 10329
63055 31527
43978 21989
4114 8228
8696 17392
57840 28920
15 7
12187 24374
31856 15928
7503 3751
25853 12926
53151 26575
63917 31958
11623 23247
171 85
1302 2604
14493 7246
8947 17894
68082 34041
16860 33721
38217 19108
37930 18965
9635 19270
17401 34803
5483 10966
8497 4248
62992 31496
13371 6685
18393 36787
19096 9548
40917 20458
49248 24624
2043 4087
57229 28614
58663 29331
10450 20901
48347 24173
10420 20841
16365 32731
8943 17887
4904 9809
45962 22981
18580 37160
63936 31968
34421 17210
28154 56308
11149 22299
40893 20446
19968 39937
17101 8550
24765 49530
20133 40267
28264 56528
1503 3006
11697 23394
2815 1407
23585 47170
33618 16809
43334 21667
31513 63026
21803 43606
25357 12678
25281 12640
32821 16410
8637 17275
30747 61495
878 1756
48601 24300
9231 18462
61262 30631
42055 21027
25835 51671
7373 14746
1315 2630
68969 34484
25467 12733
27088 54177
20491 40982
58265 29132
27226 54453
15484 30969
11557 23114
28578 14289
21229 42459
23461 46922
25178 50356
20734 41469
19942 39884
37904 18952
54357 27178
9286 18573
23144 46288
56777 28388
31601 63203
3358 6717
6489 3244
5900 11800
51755 25877
16810 33621
65824 32912
6839 3419
16899 33798
18577 37154
39684 19842
16247 8123
12370 6185
11692 5846
38117 19058
19808 39617
27833 13916
54507 27253
67985 33992
16050 32100
35676 17838
29133 58266
6414 3207
64414 32207
27518 55036
4302 2151
4206 2103
29334 58668
25478 12739
21393 10696
54807 27403
57165 28582
18976 37952
10378 5189
14213 7106
13727 27454
29015 58031
26850 13425
28447 56895
22173 44347
32160 64321
20658 41316
4378 2189
58305 29152
2534 1267
15752 7876
11054 22108
31472 62944
7254 14509
54885 27442
14417 28834
45823 22911
34239 68478
15424 7712
8366 4183
24338 12169
14427 28854
32003 16001
41248 20624
59474 29737
4464 8928
11144 5572
2408 1204
3485 1742
27498 54996
32008 64016
69265 34632
46715 23357
34313 68627
31233 62466
53471 26735
15042 30084
26791 53583
28972 57945
18102 9051
9374 18748
34812 17406
8730 4365
12145 24291
18282 36565
45319 22659
3724 1862
22066 44132
6031 3015
17479 34958
4987 2493
27554 13777
38955 19477
24383 48767
2479 4958
10185 5092
3660 7320
30418 15209
15980 7990
7752 15505
25350 12675
44055 22027
15638 31276
27596 55192
22288 44576
45692 22846
18838 37677
15150 30300
27653 55307
16360 8180
51997 25998
24587 49174
19649 39298
30104 60209
39426 19713
28349 56698
50135 25067
29413 58826
4111 2055
1046 2092
314 157
22662 45324
29867 14933
36566 18283
25424 50849
32389 16194
29737 59475
11294 22589
14727 29455
26505 13252
30613 15306
36530 18265
17712 35425
28392 56784
59021 29510
11745 5872
21449 42899
33058 66116
275 550
14433 28866
11700 23401
31644 63289
52920 26460
5495 10991
62652 31326
518 1037
4636 9272
67123 33561
16635 33270
7971 3985
25870 12935
28410 14205
60846 30423
46556 23278
6653 13306
21751 43502
2648 5296
51254 25627
64977 32488
5046 10093
10377 20754
25106 50212
17097 8548
31334 62668
2969 5938
10066 5033
25822 51644
20727 10363
7928 15857
24002 48004
40761 20380
12806 25613
24814 49629
33611 67223
59488 29744
30277 15138
22780 45560
31322 62645
13116 26233
10588 21176
37694 18847
30923 61847
20896 41793
8087 16174
5369 2684
46503 23251
663 331
49536 24768
1094 2189
8545 17091
27298 13649
37039 18519
9660 4830
56958 28479
16889 33778
23548 11774
23225 46450
42243 21121
14539 29079
21175 42351
21044 42088
17826 8913
24626 49252
10464 20929
5822 11644
66575 33287
9342 4671
67766 33883
35009 17504
45794 22897
8151 16303
32097 64195
44357 22178
23094 11547
10176 5088
27235 54471
28942 57885
3124 6249
27721 55443
62984 31492
8077 16154
34412 68825
6906 13813
4727 9455
32194 16097
24076 48153
36503 18251
33787 16893
33432 66864
30228 60457
433 866
15515 31030
29683 14841
25019 12509
32779 65558
41917 20958
63421 31710
50413 25206
44645 22322
30797 61594
15631 7815
16077 8038
28615 14307
19572 9786
64796 32398
25110 50221
7926 15853
63896 31948
26730 13365
27071 13535
1779 3559
20711 41423
22834 45668
49072 24536
22059 11029
32048 64096
25234 50468
2083 4166
37338 18669
31062 62125
23141 46282
10621 5310
10750 21500
32034 64068
27391 54783
56735 28367
15613 31226
30942 15471
13116 26232
55568 27784
14718 29437
64192 32096
22019 11009
10253 5126
21992 10996
14696 29392
5165 2582
16571 33143
28623 57246
26367 52735
25130 12565
30358 15179
64763 32381
65971 32985
7158 3579
16985 33971
2864 5729
12937 6468
3455 6910
19268 38537
17649 35298
34664 69328
30268 15134
33534 67069
23466 46933
20651 10325
16648 33297
17807 8903
52019 26009
44874 22437
17174 8587
10768 21536
22154 44308
15928 31857
26337 52674
16661 33322
27873 55746
18825 9412
23325 11662
33361 16680
18215 9107
66808 33404
35277 17638
27132 54264
52086 26043
15774 7887
28835 57670
17336 34672
17478 34957
11190 22380
58907 29453
29875 59751
24256 48513
25191 50382
29484 58968
8580 17161
64428 32214
7805 3902
9667 4833
9539 4769
15171 30343
34860 17430
67095 33547
24225 12112
8350 16701
55480 27740
44801 22400
54587 27293
61329 30664
26485 13242
32315 64630
30849 15424
33592 67184
19001 9500
5549 2774
1403 2806
28591 57182
23706 11853
32143 16071
19924 39848
35570 17785
14523 29046
38378 19189
48882 24441
2600 5200
27518 13759
49082 24541
1990 3980
28664 14332
7160 3580
29940 14970
7327 14654
8001 16003
14284 28569
19467 38935
8639 4319
54340 27170
21611 43223
34326 17163
6382 3191
3286 6572
16750 8375
13473 26946
24807 12403
46753 23376
21845 43690
28847 57695
48310 24155
29606 59213
24837 49675
37669 18834
29087 58174
4395 8790
32688 65377
54271 27135
28191 14095
12187 6093
22669 45338
36484 18242
14 7
57359 28679
39955 19977
26944 13472
29477 58954
56 112
11038 22076
7515 3757
20251 40503
30373 15186
17471 34942
10828 21656
28644 57289
21053 10526
18325 9162
30927 61854
34013 68027
10002 20005
39674 19837
20658 41317
10490 5245
14326 28653
41388 20694
59179 29589
5893 2946
4570 2285
22321 44642
26787 13393
31277 15638
5216 10432
36084 18042
29529 59059
2115 4230
4877 9755
59154 29577
34451 68902
43197 21598
45606 22803
24364 12182
812 406
22554 45108
18016 36033
27853 55706
40919 20459
14822 29644
100 201
34181 17090
16140 32280
7102 3551
42397 21198
19550 9775
2528 5056
24359 48719
50180 25090
23402 46804
5223 2611
10293 20587
447 223
61907 30953
33291 66583
54388 27194
21003 42007
18760 9380
23995 11997
53769 26884
7152 3576
21959 43918
6243 12487
30646 61292
574 1148
6240 12481
26501 53002
9316 18632
16562 33125
24181 48363
55705 27852
33114 66229
25011 50023
62604 31302
19486 38973
60648 30324
66054 33027
3892 1946
6412 12825
2080 4161
43100 21550
2061 1030
29222 58444
35325 17662
6154 3077
15124 30248
34043 17021
43465 21732
62528 31264
27341 54682
19573 9786
13268 6634
16525 33051
59226 29613
27298 54597
2545 5091
14488 28976
3665 7330
23319 46638
26581 53163
26745 13372
60377 30188
32233 64466
25740 51480
17473 34946
22078 44157
17824 35648
3905 7810
21720 43440
24832 49664
21091 10545
24942 49884
24251 12125
28757 57514
37449 18724
46428 23214
18601 9300
32182 16091
21257 10628
51738 25869
68416 34208
33577 67155
669 1338
7145 14291
29603 59206
67079 33539
2330 4660
29434 58868
23226 11613
64152 32076
62508 31254
13885 27770
16883 33766
50014 25007
9388 18777
1317 2634
21179 42359
55139 27569
65055 32527
19002 38004
13544 6772
56563 28281
29903 59806
33904 67808
18262 9131
61979 30989
36696 18348
32125 64251
27440 54881
12414 6207
31685 63371
3348 6697
63034 31517
32475 64950
5311 2655
7972 15944
16225 32450
56990 28495
15550 31101
16338 32677
2641 5283
27523 13761
12809 25619
13810 27621
8712 4356
3703 1851
52927 26463
26045 13022
27080 13540
61342 30671
61878 30939
65526 32763
8623 4311
27862 13931
36101 18050
10424 20849
54832 27416
25511 12755
69260 34630
31208 15604
10508 21016
30730 15365
64579 32289
15519 7759
31215 62431
4994 9988
35941 17970
3495 6990
6439 12879
5705 11411
34469 68938
32287 16143
10321 20643
12735 6367
55007 27503
10774 21548
32689 65378
3320 1660
19920 9960
3 1
1368 2737
7962 3981
6788 13577
8439 16878
49050 24525
25028 12514
4103 8207
26794 53588
3694 1847
27467 13733
14221 28442
15103 30207
66716 33358
29366 58733
30396 60793
27620 55241
1631 3262
8412 16824
69147 34573
17489 34979
22733 45466
1544 772
14309 28619
4273 2136
60247 30123
40732 20366
26103 52206
32784 65568
27711 13855
13065 6532
55923 27961
12275 6137
15883 31767
11970 23941
29211 58423
29323 58647
30994 15497
26136 52272
23951 47903
18000 9000
17570 35140
15662 7831
68290 34145
40499 20249
44229 22114
26654 53309
16663 33326
26303 52606
12054 6027
23265 46531
45797 22898
53 107
507 1014
37348 18674
20252 40505
67583 33791
6515 3257
26680 53360
11412 5706
25979 51958
15891 7945
25386 12693
17817 35635
45549 22774
5764 2882
14924 29849
9399 18799
22112 44225
982 491
35651 17825
45354 22677
11337 5668
16931 8465
468 937
18160 9080
63883 31941
904 1809
8045 4022
45012 22506
17915 35831
47648 23824
34434 17217
60254 30127
51925 25962
40851 20425
1730 865
45095 22547
47696 23848
18381 36763
4297 2148
59873 29936
17368 8684
8801 17602
31887 15943
65474 32737
6572 13144
23189 11594
34613 17306
4059 2029
20546 41092
39743 19871
11360 22721
51269 25634
333 166
46043 23021
21719 43439
10743 21486
10927 21855
39319 19659
22672 45344
12988 6494
41703 20851
3925 7850
26422 52844
4750 9500
17649 35299
1025 2051
6467 12935
16860 8430
12268 24537
15504 31009
5674 11348
30748 15374
68755 34377
15458 30916
6714 3357
40833 20416
27253 54506
14900 29800
26591 53183
11442 22885
32076 16038
3261 1630
30778 61556
55836 27918
67990 33995
44273 22136
7589 15178
34032 68064
5540 2770
11570 23140
5600 11200
63046 31523
21963 10981
45254 22627
17512 35024
54381 27190
11000 5500
31188 62377
4996 9992
5403 10806
8375 4187
20713 41426
32334 64669
8715 4357
39271 19635
67636 33818
16658 33316
60249 30124
16299 8149
6522 13045
18921 9460
14800 29601
57492 28746
2176 1088
7267 14534
3076 6153
46916 23458
11554 5777
25407 12703
19596 39192
31312 15656
67722 33861
5762 11525
4557 9115
22809 45619
27014 54028
49811 24905
34032 17016
52153 26076
31392 62785
15544 7772
48599 24299
14587 7293
13569 27138
22925 45850
29311 14655
8354 4177
9817 19635
24886 49773
31963 63927
5629 11259
31540 63081
23222 11611
37511 18755
37153 18576
34493 17246
11177 22354
6783 13566
30591 15295
14198 28397
12972 6486
11761 23522
1838 3677
21440 10720
28427 14213
60620 30310
11413 5706
14525 7262
33114 66228
20468 40937
43247 21623
14478 28956
3106 6212
33823 16911
4974 9948
15562 31124
35666 17833
12029 6014
33403 66807
45920 22960
17059 34118
443 221
16396 8198
20096 40192
33556 16778
22050 44100
29982 59964
11760 5880
30900 61800
26352 13176
59113 29556
3879 7758
24588 49177
14526 29053
1204 602
25817 12908
2717 5434
2560 5120
7446 3723
4046 2023
752 376
588 1177
26026 13013
30493 15246
60352 30176
27179 54358
13696 6848
58923 29461
1488 2976
53176 26588
34271 17135
19065 38130
44572 22286
6837 13674
46097 23048
42365 21182
13556 27113
14989 29979
21664 43328
29602 59204
13485 6742
13780 6890
27653 55306
11390 5695
7875 15750
26326 52652
15079 30159
3269 6539
54320 27160
15163 7581
55709 27854
53255 26627
17611 8805
26420 13210
13899 6949
52714 26357
2215 4431
54532 27266
30213 60426
2258 4516
57933 28966
11252 22504
23834 47668
66323 33161
13397 6698
47776 23888
29977 59955
6139 12279
37658 18829
22781 45563
25064 50128
41173 20586
4132 8264
24922 49845
65371 32685
45118 22559
66530 33265
23891 47782
27454 54908
33033 16516
4120 2060
49232 24616
34098 17049
28131 56263
24856 49713
20359 10179
2752 1376
30659 15329
3072 1536
10079 5039
15152 30305
34053 68106
11879 5939
45616 22808
9974 19948
22051 11025
10839 5419
10382 20764
30249 15124
776 1553
29832 59665
20612 10306
3745 7490
30569 61139
28427 56854
41166 20583
14254 7127
33745 67491
52582 26291
16050 8025
34032 68065
28399 56798
30039 60079
10921 21843
9673 19346
34586 69173
66992 33496
11411 22822
29156 58312
50712 25356
7151 14303
36423 18211
15156 30313
24176 48352
57366 28683
2727 1363
8452 16904
30724 15362
30283 60567
51262 25631
791 1582
19881 39762
9063 18126
4694 9389
11384 22769
51015 25507
10870 21741
12363 6181
22333 44667
15485 30971
43687 21843
9755 19510
23471 46943
27430 54860
9428 4714
20170 10085
40064 20032
55067 27533
5206 2603
6251 12502
51200 25600
19176 38352
27861 55723
9675 4837
28323 56647
29122 14561
11838 5919
1539 3078
22760 45521
11665 23330
12885 25770
16389 8194
21995 43990
2615 1307
51369 25684
5197 10395
19931 39862
58846 29423
5345 10691
3179 1589
21606 43213
6828 3414
2506 5012
24569 12284
26257 52514
4876 2438
49156 24578
29879 59758
51864 25932
854 1709
16557 8278
44535 22267
18935 37870
25920 51840
23490 46981
59323 29661
17379 34759
47336 23668
24365 48731
32445 16222
12405 24811
16179 32359
32336 16168
10059 20118
43675 21837
202 404
14865 29730
56641 28320
32811 16405
8264 16529
4571 9142
14345 7172
16803 33606
19848 39697
2984 5968
27520 55040
63693 31846
7338 14677
9124 18248
36636 18318
11989 23979
2205 4410
31257 62515
18780 37560
24346 48693
8227 16454
13937 27874
21155 42310
5278 10556
27275 13637
32375 16187
9490 18981
25472 12736
21752 10876
25373 50747
28853 14426
10947 21895
12768 6384
27066 54132
19062 38125
19433 9716
65636 32818
7968 3984
41287 20643
14566 7283
2684 5368
29891 59782
37235 18617
3970 7940
68843 34421
38683 19341
11744 23488
24258 12129
57518 28759
7121 14243
23795 47590
5447 2723
57389 28694
26507 53014
30533 15266
5811 2905
48705 24352
24030 48061
42462 21231
27192 13596
17505 8752
34624 17312
54338 27169
5392 2696
5924 2962
12331 24663
29055 58111
2906 5812
15666 31333
13226 26452
913 1826
13755 27511
44020 22010
44665 22332
66557 33278
9298 18596
10583 21166
62339 31169
41962 20981
30606 61213
8216 4108
21941 10970
19873 39747
45945 22972
30240 60481
2372 1186
62301 31150
55048 27524
12603 25206
26048 13024
38205 19102
3726 7453
29030 58061
15322 7661
32547 65094
13007 26014
33466 66932
41729 20864
8971 17942
10777 5388
30759 15379
11032 22065
3386 6773
23443 46886
21833 43666
30694 61389
29550 14775
24256 12128
33963 67926
9707 19414
19279 9639
8955 17911
11952 23904
27127 54254
1980 3961
64014 32007
4848 2424
21120 10560
27542 13771
26361 13180
4673 2336
31214 15607
30065 15032
54359 27179
10080 20161
30204 60408
52994 26497
8559 17119
49161 24580
21996 43993
7257 14514
20219 40438
22915 45831
66 133
10477 20954
30998 15499
14130 28260
1265 2530
54160 27080
44087 22043
68032 34016
47023 23511
16209 32419
37374 18687
53319 26659
23481 46963
31140 62281
58332 29166
40489 20244
51712 25856
16628 33257
19228 9614
11139 22278
30071 60143
31997 63994
48329 24164
34302 68605
31601 63202
631 315
10617 5308
28098 14049
30029 60058
47552 23776
4763 9527
38270 19135
16788 8394
10160 5080
3738 1869
2840 5680
25015 50030
32216 64433
60161 30080
20149 40299
10591 5295
30186 15093
8138 16277
34630 69261
3857 7715
20573 41147
40419 20209
15091 7545
1967 3935
4551 9102
58216 29108
17807 35615
8744 17489
32455 64911
21774 43548
7979 15959
12877 25755
10407 20815
24078 12039
4057 8115
69015 34507
5887 11775
14338 28676
7343 14686
29266 58533
41877 20938
27947 55895
23398 11699
12329 24658
9622 4811
14196 28392
27823 55647
52138 26069
5268 2634
32610 65221
15427 7713
11165 22331
3340 6680
31221 62443
14223 28447
20432 40865
47754 23877
55662 27831
60645 30322
20699 41399
55426 27713
42682 21341
6063 3031
41536 20768
30305 60611
61296 30648
16024 32049
66832 33416
25673 51346
22709 11354
68496 34248
13062 6531
45064 22532
32842 65685
3400 1700
23800 11900
13327 6663
19622 39244
58509 29254
55059 27529
11461 22922
12992 25984
51338 25669
17145 34291
41619 20809
42875 21437
52146 26073
32600 16300
8247 4123
4174 8349
13451 6725
61186 30593
10277 5138
63696 31848
40539 20269
3974 7948
38196 19098
8157 4078
3024 6049
32922 16461
4366 8732
19175 38350
30452 60904
23928 47856
37077 18538
14114 7057
6356 3178
7762 15525
17804 35608
19274 38548
3350 6700
31648 63296
20292 40584
3285 1642
37279 18639
41826 20913
6203 3101
17731 35462
2637 5275
60440 30220
25024 12512
65806 32903
15145 7572
13096 26192
28693 14346
2032 4065
3198 6396
63786 31893
27841 55682
26441 52883
16518 8259
26963 53926
56747 28373
15269 30539
48163 24081
34506 17253
53778 26889
14108 7054
1917 958
37573 18786
494 989
19248 38497
40346 20173
13427 26855
26675 53351
49120 24560
27348 54696
7268 14536
4089 8178
29062 58124
57097 28548
63058 31529
43451 21725
51952 25976
23679 47359
8175 16350
22917 11458
2955 1477
26497 52995
25148 50296
33567 16783
20639 41279
21666 43332
1171 2342
43800 21900
33018 66037
45511 22755
43232 21616
9987 19975
1615 3230
23314 46628
46285 23142
14948 29897
19437 9718
28549 14274
47864 23932
55141 27570
14817 7408
13904 27809
25836 12918
10537 5268
52436 26218
39295 19647
27965 13982
7297 14594
20378 10189
21900 10950
61865 30932
63795 31897
4849 9698
46542 23271
26889 13444
51101 25550
2953 1476
59575 29787
53459 26729
40107 20053
61535 30767
46351 23175
26904 53808
24350 12175
8695 4347
39537 19768
24981 49963
30626 15313
36882 18441
68264 34132
22232 44464
22795 11397
1492 2985
48917 24458
3060 6120
32696 65393
14003 28007
32353 64707
35875 17937
5411 10822
13906 27813
15010 30020
40934 20467
9031 18062
3432 6864
34980 17490
45770 22885
33522 16761
5961 11922
2639 5278
7995 3997
23389 46779
29511 14755
12621 25243
30776 15388
32242 64484
22636 45273
12558 6279
25368 50737
49108 24554
17947 35895
64628 32314
27834 13917
3713 7426
19299 38599
15898 31796
34610 69221
62865 31432
2858 5717
16553 8276
53268 26634
14198 28396
14215 7107
10679 5339
21870 43741
22840 45680
6743 13487
24168 12084
4017 8034
20147 40295
6058 12116
31181 62362
14840 29680
44708 22354
28178 56357
10742 21485
13001 6500
43311 21655
3309 6619
4051 2025
30843 61687
16606 33213
51559 25779
38156 19078
60369 30184
32732 16366
8408 4204
39871 19935
20168 40337
31375 15687
58552 29276
30960 15480
27455 54910
5628 2814
16164 32328
64618 32309
19431 38863
4935 9871
59587 29793
37868 18934
22337 11168
4920 2460
24526 49052
44676 22338
15144 7572
65958 32979
5310 10620
33450 66900
1593 796
48809 24404
55206 27603
11326 22653
14695 29391
60349 30174
16232 32464
39906 19953
37448 18724
20364 40728
56404 28202
34521 17260
3620 7241
25218 12609
12641 6320
28212 14106
18746 37493
32662 65324
31385 15692
67875 33937
49179 24589
11161 22322
57824 28912
9692 19384
31593 63186
52238 26119
53785 26892
26911 53822
5270 2635
26574 53149
26786 53573
31325 15662
68527 34263
24934 49868
3185 6371
49731 24865
10723 5361
29967 59935
25161 50322
57388 28694
48519 24259
8968 17936
54761 27380
16651 33302
16636 33272
9822 4911
9009 18019
29794 59589
7010 3505
33984 67968
28992 57984
26210 13105
11356 22713
45386 22693
488 977
24180 48360
27514 13757
30749 61499
31125 62250
5208 10416
37585 18792
14654 29308
36777 18388
14219 28438
50263 25131
10092 20185
60477 30238
65688 32844
13640 6820
52631 26315
55033 27516
29699 14849
27226 13613
959 479
62045 31022
53534 26767
21096 42192
10076 20152
13211 26422
27013 54027
24245 12122
16662 33324
58 29
11628 23256
7020 3510
13194 26389
29739 59479
22184 44368
12976 25952
2356 4712
33979 67958
22016 44033
3946 7893
30149 60298
30030 60061
16048 32097
3268 1634
132 66
5884 11769
49233 24616
12045 24090
21784 43569
20870 41740
21812 10906
11191 5595
3901 7802
24765 49531
23855 47710
22769 45539
27249 54499
51526 25763
436 872
14633 29266
32086 64173
30095 15047
68859 34429
14746 29492
2428 1214
49418 24709
15031 30063
21244 10622
1579 3159
24967 12483
21390 42780
20880 10440
3798 7597
9638 19277
63027 31513
38857 19428
13918 27837
11095 22190
23573 47147
3374 1687
9330 4665
20222 40444
28806 57613
19750 39501
32019 64039
11449 5724
18843 37687
21152 42305
20485 40970
45034 22517
7149 14299
1691 3383
58447 29223
65500 32750
19507 39015
33814 16907
47231 23615
22584 45168
16051 32102
14429 7214
19205 38410
32901 16450
30031 60062
51100 25550
31029 15514
4013 8027
29802 59604
1955 3910
728 1457
31044 62089
11209 22419
23773 11886
56611 28305
64088 32044
24417 48834
10701 21402
33355 66710
52071 26035
2867 5735
5722 11444
5664 2832
33054 16527
22086 44173
41720 20860
44159 22079
3988 7977
57382 28691
20862 41724
18164 36328
21696 43392
15064 30128
23973 47947
58038 29019
18380 9190
33311 16655
29031 14515
53701 26850
35794 17897
63763 31881
42503 21251
7465 14930
44794 22397
47984 23992
38468 19234
19395 38791
19022 38044
4612 9224
13605 27211
23687 47374
25148 50297
20705 41411
11127 22255
34109 68219
21100 42201
57541 28770
15178 30356
16574 33148
17729 35459
13314 26628
53283 26641
16481 32963
11823 23646
24460 12230
28556 14278
30268 60536
23864 47729
512 256
4546 2273
58082 29041
22313 11156
44720 22360
32379 64758
62636 31318
23872 47745
28758 57516
57303 28651
34724 17362
30838 15419
25969 51939
14454 7227
9441 18882
52797 26398
38467 19233
29801 14900
52628 26314
2195 4391
33570 67140
13937 6968
20342 10171
21815 43630
22745 45491
19919 39839
19958 9979
5875 11750
52057 26028
53203 26601
66307 33153
14833 29667
55601 27800
18100 36200
27257 54514
24704 49408
57556 28778
6076 12152
28696 14348
17370 8685
5937 2968
23010 46020
25070 12535
27184 54368
25765 51530
28547 57094
5902 11804
38751 19375
25377 12688
18422 9211
11215 5607
18450 36901
10331 20663
47161 23580
34353 17176
55280 27640
18100 36201
12221 6110
54492 27246
58340 29170
47056 23528
14868 29736
11342 5671
26011 52022
11372 5686
27708 55416
30573 61146
17559 8779
20341 10170
56852 28426
60769 30384
22339 44678
12168 24336
65783 32891
37821 18910
26813 53626
35231 17615
31076 15538
21123 10561
26282 52565
24579 49159
66892 33446
63529 31764
26603 53207
10226 5113
38151 19075
21537 43074
18585 9292
32452 64905
25835 12917
33283 66566
32707 65415
5725 11451
6075 12151
23817 47634
48843 24421
3268 6537
148 296
4455 8911
36233 18116
15926 31853
62588 31294
12177 24355
61324 30662
60220 30110
14085 28171
42753 21376
25562 51125
11303 22606
25795 12897
39628 19814
38453 19226
20184 40369
17134 8567
37083 18541
30369 60739
9694 19388
17831 8915
42920 21460
27656 55312
30590 15295
1466 2933
62675 31337
47255 23627
25632 51264
22333 11166
13377 6688
42620 21310
7818 3909
60750 30375
26128 13064
16084 32168
18047 36095
24767 12383
2033 1016
56026 28013
58976 29488
36672 18336
29674 59348
46723 23361
30138 15069
1754 877
7941 15883
3428 6856
28553 14276
18867 37734
33507 67015
32745 16372
52944 26472
33422 66844
45653 22826
57144 28572
5241 2620
65665 32832
11331 22662
7840 15681
12244 24488
21770 43541
1745 872
9107 18214
5332 10665
12722 6361
15635 7817
25555 12777
53577 26788
48129 24064
13142 6571
3725 7450
57678 28839
33208 16604
27294 54588
18572 37145
68590 34295
45869 22934
61091 30545
52846 26423
32892 65784
1651 3302
23815 47630
29612 59225
25707 51414
58838 29419
44809 22404
26998 13499
6754 13509
10488 5244
56672 28336
53445 26722
673 1346
14240 7120
32121 64243
60151 30075
13801 27602
12643 25286
6531 3265
49033 24516
57066 28533
6897 13794
12545 25090
19293 38586
45022 22511
15301 30602
37575 18787
36362 18181
51976 25988
30 61
5907 11814
30347 15173
11823 5911
10993 21987
2492 4985
44068 22034
6636 13272
27513 13756
28602 57205
5155 10311
61448 30724
22143 11071
16070 32140
27860 55720
30569 61138
6488 3244
41593 20796
38997 19498
15546 31092
62240 31120
12660 25321
25496 12748
17173 34346
2048 4096
50425 25212
30114 60229
16354 32709
60245 30122
30315 15157
8073 4036
69217 34608
27249 54498
22343 44686
23378 46756
17703 8851
3054 1527
7751 3875
11920 23840
49087 24543
6511 13023
41476 20738
41094 20547
26411 52822
14846 7423
18185 9092
1028 2056
2988 5977
44320 22160
12280 6140
17219 34439
59419 29709
37210 18605
31697 15848
12692 6346
30684 15342
33847 67695
32697 65394
24105 48210
45461 22730
29736 59473
7719 15438
42152 21076
25542 51085
44328 22164
22443 44887
32890 65780
34993 17496
24142 12071
57812 28906
18628 37257
3832 7665
12811 6405
29242 14621
46758 23379
2789 5578
5917 11835
26659 13329
33406 66813
47702 23851
33303 66607
33939 16969
10857 21714
31797 15898
10280 5140
5142 10284
27322 54645
60448 30224
13980 27960
42029 21014
26446 52893
32392 64784
44154 22077
67199 33599
13144 26288
22978 45956
19031 38062
66579 33289
12210 24421
20670 10335
6007 12014
840 420
14830 29660
15377 7688
18030 36060
19356 38712
25180 50361
26664 13332
4188 2094
2175 4351
30610 61221
9248 4624
44508 22254
3134 6269
31875 63751
57400 28700
39269 19634
16062 32125
12978 25956
47758 23879
16019 32038
5538 11077
20096 40193
28368 14184
14130 28261
65366 32683
9006 18012
1317 658
2431 4862
68018 34009
17859 35718
17989 8994
27275 54551
12857 25714
27974 13987
647 323
9752 19504
32936 16468
11663 23327
7941 3970
8145 4072
32276 64552
46168 23084
24976 49953
1179 2358
23244 46488
4162 8325
66736 33368
12330 24660
61151 30575
33955 16977
54575 27287
19183 9591
569 1139
57210 28605
17697 35395
25908 12954
7361 3680
23362 11681
59498 29749
14313 28626
24542 49085
40301 20150
10565 21131
32009 64019
9162 18324
12229 24459
22281 11140
2980 1490
13289 6644
18303 36607
23238 11619
20094 10047
5704 11409
11698 23397
63665 31832
28002 14001
20802 41604
62306 31153
28046 56093
54345 27172
21909 43819
15832 31665
8572 4286
62438 31219
3375 6750
32269 16134
13270 26540
3672 1836
35937 17968
10288 5144
33758 67517
3231 6462
29449 58898
6884 13768
58876 29438
33737 16868
4955 9910
760 380
26270 52540
896 448
671 1342
24306 12153
23748 11874
19058 38116
11205 22410
3167 1583
62262 31131
34617 69235
17503 8751
22790 45581
4502 9004
45763 22881
18995 9497
22371 44742
60960 30480
17077 8538
29199 58399
13595 6797
37355 18677
27818 13909
45312 22656
20251 10125
12250 6125
31604 63208
25158 50316
21878 43757
24123 48247
53274 26637
6828 13657
51042 25521
28548 57096
24921 49843
21804 43609
13659 6829
27128 54257
66298 33149
49703 24851
14872 29745
5348 2674
3414 1707
3087 1543
21840 43681
9352 18705
13683 27367
26391 52782
12897 25794
29784 59569
50281 25140
21491 42983
31337 15668
21178 10589
67186 33593
17701 8850
5080 10161
10327 5163
32902 65805
17301 34603
16992 33985
2090 4180
58168 29084
7074 14149
15569 31139
12313 24627
28836 57673
27182 13591
189 378
12712 25425
14667 29335
27146 54293
21336 42672
44160 22080
22414 44829
8916 4458
12211 24423
6005 3002
30323 60647
60180 30090
6912 13824
22094 44188
21179 10589
155 311
12533 25066
5680 11360
10395 20790
61120 30560
54367 27183
24400 48801
33221 16610
60772 30386
39119 19559
9259 18519
21791 10895
39950 19975
6426 12852
41845 20922
56227 28113
53922 26961
50256 25128
42674 21337
13471 26942
4828 9656
16025 32051
18897 9448
30937 61875
13289 26578
48961 24480
52988 26494
1684 842
47620 23810
11831 5915
98 197
1595 797
5098 2549
25323 50646
31835 63670
24351 12175
5409 10819
61514 30757
22353 44706
21959 10979
25381 50762
37315 18657
9155 18311
2234 1117
52326 26163
33090 66180
25692 51384
33800 16900
9620 19241
25730 12865
20804 41608
5088 2544
41815 20907
19750 39500
18035 36070
29942 14971
7699 15399
12657 6328
24837 12418
14001 28003
59538 29769
493 986
13779 6889
12515 25030
25179 50358
1386 2772
64910 32455
14897 7448
14473 7236
33843 67686
4017 2008
49135 24567
46210 23105
28166 14083
56844 28422
27807 13903
40823 20411
45330 22665
29518 59037
19913 39826
66319 33159
6132 3066
25722 51444
33310 66620
27126 54253
65661 32830
28735 14367
26327 13163
3550 7100
7857 15714
18493 36986
811 1622
19360 38720
11320 22641
13753 6876
62614 31307
40826 20413
25410 50821
11110 22220
9597 19194
11192 22384
60291 30145
33423 66846
19377 38755
25273 50547
3864 1932
15660 31320
24728 12364
5974 11948
32416 16208
31501 63003
64717 32358
6472 3236
5113 10227
24940 12470
5215 10431
10996 21993
37973 18986
42662 21331
332 166
38546 19273
16837 8418
24168 48337
29227 58455
13567 6783
25273 12636
57593 28796
30138 60276
24570 49140
26377 13188
1703 851
27373 54747
9703 19406
37746 18873
31626 63253
12709 6354
1829 3659
13195 6597
11756 23513
66353 33176
21971 10985
25301 50602
29945 59890
23938 11969
9994 19989
68892 34446
13376 6688
57046 28523
27888 55776
19407 38814
59086 29543
9396 18792
570 285
3751 1875
24735 49471
6331 3165
15141 7570
25456 50913
5790 2895
32494 64989
34066 68132
23003 11501
4764 9529
20816 10408
24899 12449
18401 36802
3462 6924
31141 15570
50056 25028
42609 21304
7945 3972
14997 7498
7381 3690
40325 20162
67085 33542
31220 62440
18292 36585
28804 14402
26096 52192
52232 26116
30069 60139
1343 2686
4670 9341
60086 30043
47287 23643
36171 18085
8025 16051
32982 65964
69320 34660
4927 9855
32671 16335
6078 12157
64783 32391
2127 1063
62827 31413
13072 26144
13955 27910
15849 7924
65266 32633
62469 31234
9609 19219
62390 31195
31823 15911
9143 18286
29913 59826
44095 22047
13593 6796
29205 58410
37603 18801
26118 13059
36830 18415
22708 11354
29764 14882
32739 16369
14395 28791
46882 23441
26815 53630
13660 6830
12459 6229
22464 11232
49100 24550
17410 34821
9372 4686
28369 56739
16258 8129
17682 8841
22417 11208
33533 16766
16126 8063
7739 3869
61746 30873
33366 16683
5305 2652
30861 61722
28163 56327
33666 67333
2224 1112
21260 42520
16448 32896
1509 3018
23729 47458
53428 26714
37197 18598
11990 23980
25563 51126
17082 34165
3411 6823
49070 24535
34420 68841
62353 31176
27212 54424
11560 23121
40046 20023
25665 51331
1777 3555
27882 55764
26183 52366
18405 36810
37741 18870
739 1478
19500 39000
27985 13992
18134 9067
19078 38157
5686 2843
1727 3455
210 421
22175 44351
763 1526
25578 12789
55228 27614
31424 62849
57449 28724
6833 3416
28859 57718
9404 18809
39061 19530
17150 8575
57074 28537
30845 61690
26423 52847
47520 23760
11088 5544
27415 13707
33841 67682
20209 10104
50937 25468
4659 9319
51553 25776
27648 13824
19094 9547
9529 19059
14013 28027
51013 25506
1965 3930
24358 48716
10491 20982
324 648
30976 15488
21926 43852
20747 41495
32241 64483
5258 2629
43805 21902
51844 25922
1039 519
10861 21722
24211 48423
7557 3778
29863 59727
10699 5349
47367 23683
13303 26607
17434 8717
22097 44194
64526 32263
2576 5152
27857 55714
46050 23025
27780 55560
18580 37161
64691 32345
20142 10071
22159 44318
3755 7510
15172 7586
13678 27357
20146 40292
39268 19634
37036 18518
61530 30765
19801 9900
12900 25800
33588 16794
22128 44256
34358 68717
53614 26807
11148 5574
33638 67276
57031 28515
10944 21888
47859 23929
9782 4891
8114 4057
30197 60394
34062 68124
25860 12930
41351 20675
14419 28839
50078 25039
7482 14964
37965 18982
54965 27482
5726 2863
34408 68817
31743 63486
61152 30576
33455 16727
23963 47926
65753 32876
33079 66159
13940 27881
22423 44846
57171 28585
53077 26538
54685 27342
23330 46661
33171 16585
11981 23963
8235 4117
13767 27535
6994 13989
10764 5382
1028 2057
26021 13010
53142 26571
28685 57370
42638 21319
21495 42990
5682 11365
19648 39297
10910 5455
311 622
335 671
22287 44575
19567 39135
32829 65658
9403 18806
9724 19449
42149 21074
7416 14832
6310 3155
9718 19436
9109 4554
27157 13578
47940 23970
26599 53199
28467 56935
25025 50051
28033 56067
58342 29171
59862 29931
33025 66051
22203 44406
31334 15667
31780 63560
27329 13664
7477 3738
14006 7003
41836 20918
35943 17971
68730 34365
10633 21267
44161 22080
60338 30169
47085 23542
34601 17300
25109 50218
9309 18618
24405 48810
11674 5837
12656 25312
65401 32700
32122 64244
10326 20652
2716 5433
32645 16322
50689 25344
31530 63061
25422 12711
29904 59808
16531 33062
19881 9940
20277 40554
17236 8618
22902 11451
2201 4403
24987 12493
42353 21176
46389 23194
37123 18561
17947 8973
16506 33012
4941 9882
35983 17991
22728 45456
10342 20684
13528 6764
30903 15451
15429 30858
6365 3182
13361 6680
4669 9338
47614 23807
67802 33901
19620 39240
6220 12441
26957 13478
18352 9176
17482 34965
42567 21283
21976 10988
34084 17042
21816 43632
45596 22798
25496 50993
25826 51652
56206 28103
31137 62274
11998 23997
34609 69219
18341 9170
7402 14805
15706 7853
7419 3709
40098 20049
8077 4038
14187 28374
2773 1386
11652 23305
5814 11628
31081 62162
15651 31302
14099 7049
46686 23343
63400 31700
16753 33507
23999 47998
32172 64345
13488 26976
52387 26193
25017 50034
13806 6903
11640 23281
41042 20521
33061 66123
19158 38317
31920 15960
65159 32579
33830 67660
16975 8487
4206 8413
5047 10095
1215 2431
34961 17480
27045 54090
44836 22418
44167 22083
34843 17421
39895 19947
2503 1251
35269 17634
66502 33251
15139 30278
51323 25661
53893 26946
8023 16046
16662 8331
34369 68739
1769 3538
9349 18699
3970 1985
14091 28182
65118 32559
2018 4036
22026 44053
34006 68012
59766 29883
14665 29331
4533 9066
19273 9636
7523 15046
26578 53156
45799 22899
28840 57680
24148 12074
66247 33123
68966 34483
22477 11238
26677 13338
33541 67083
54153 27076
5350 10700
56683 28341
22126 44253
17557 8778
34151 17075
7708 15417
47803 23901
46832 23416
27892 13946
14521 29043
27020 54041
22451 44903
45429 22714
13193 6596
26290 52581
59459 29729
9261 4630
3815 7631
54752 27376
13430 6715
12027 24054
63064 31532
6205 12410
12873 6436
10006 20013
23340 46681
53338 26669
6136 3068
23608 47217
20451 10225
59548 29774
8869 4434
119 238
47599 23799
10038 5019
9821 19642
58751 29375
35752 17876
53921 26960
30412 15206
45812 22906
24175 48350
9821 19643
47545 23772
66830 33415
42769 21384
31966 63933
24160 48320
25876 12938
9358 18717
30825 61650
8548 17096
30252 15126
3099 6198
62799 31399
47386 23693
29892 59784
18891 37783
19739 39479
30035 15017
1636 818
12945 25891
13142 26284
23677 47355
155 310
33444 66888
25521 51043
5942 11884
8513 4256
48604 24302
626 1253
14453 28906
8994 17988
16540 33081
9646 19293
39172 19586
8696 4348
1582 3164
68967 34483
10364 20729
32530 65061
52382 26191
32675 16337
56444 28222
38343 19171
31270 15635
68095 34047
34391 68782
33103 66206
18982 9491
23775 47550
52888 26444
4684 9368
30991 15495
24954 12477
69040 34520
16234 32468
24558 12279
39210 19605
28181 14090
25603 51207
7319 3659
15679 7839
14622 29245
12760 25520
23256 46512
9644 19288
14078 7039
64562 32281
18457 9228
17347 34695
10175 20351
3516 7032
31463 62926
30177 60355
29246 58492
39097 19548
25190 50381
3944 1972
6993 13986
22125 44250
23476 46953
65140 32570
50644 25322
19160 38320
22380 44760
30463 60927
61842 30921
63584 31792
51847 25923
46085 23042
14808 29617
12591 6295
8749 17498
24114 12057
3407 6815
33791 67582
3631 7263
6573 13147
32693 16346
56523 28261
57019 28509
10568 5284
3633 1816
7385 3692
17256 34513
43693 21846
30709 61419
27444 54888
28717 57435
1085 2170
16467 8233
10214 20428
199 398
8419 16839
8382 16764
44267 22133
32208 64417
26890 13445
1294 647
12806 6403
13690 27381
50141 25070
41890 20945
10513 21026
67510 33755
61953 30976
32555 65110
59009 29504
3687 7375
14308 28616
2371 4742
51893 25946
57463 28731
12926 6463
6950 3475
6814 13628
48994 24497
23841 11920
61728 30864
12902 6451
12052 24105
21156 42313
65339 32669
18404 36808
68812 34406
18993 9496
24012 48025
37674 18837
225 112
25990 51980
7463 14926
28579 57159
34049 68098
17467 34935
43769 21884
21617 10808
21080 10540
57419 28709
20735 10367
56396 28198
24793 49587
8727 17455
52761 26380
15155 30311
16550 33101
12648 25296
29835 59671
15021 7510
28041 56083
38639 19319
7959 3979
55437 27718
21680 10840
43337 21668
3320 6640
9647 19295
33980 16990
44201 22100
38575 19287
31629 63258
17653 8826
18981 37962
22076 44152
17349 34698
33235 66471
28240 14120
27654 55308
19631 9815
8214 4107
13532 6766
22212 44425
961 1923
4380 8760
10477 5238
16018 32037
67116 33558
20733 10366
3492 6984
14482 28965
20752 10376
11950 23900
10081 20163
64055 32027
8525 17050
27872 55745
20807 10403
36242 18121
45959 22979
31187 62374
23108 46216
17280 8640
8979 4489
63754 31877
32987 65974
57219 28609
27669 55338
11847 23694
10717 21435
28376 56753
21916 43832
31484 62969
23903 47806
43130 21565
64177 32088
14209 28418
26676 53353
43876 21938
8823 4411
3336 1668
33763 16881
16666 33332
49194 24597
7791 15582
20033 10016
31811 63622
34098 68197
21745 43490
6116 12233
15138 30276
34723 17361
13842 6921
28101 56203
22721 45443
15875 31750
11528 5764
33909 67819
27466 13733
20481 40962
54564 27282
69018 34509
59347 29673
15503 7751
16770 8385
66845 33422
52196 26098
225 450
7207 3603
53285 26642
18087 36174
15548 7774
855 1711
43422 21711
13021 26042
14605 29211
29466 14733
9738 4869
65519 32759
23670 11835
17182 8591
20555 41110
16021 8010
59596 29798
12255 24511
24927 12463
10304 5152
9541 19083
49357 24678
30111 15055
8412 16825
15965 7982
67167 33583
27541 55083
31423 62846
4469 2234
20969 41939
875 1751
13436 6718
14995 7497
13911 6955
34316 17158
26018 52037
6000 12001
4305 2152
5126 10252
2224 4448
15789 31579
30788 61576
30900 61801
6793 13587
62797 31398
11784 23569
21198 10599
21704 43409
58837 29418
2147 4294
5821 11642
16640 33281
19675 9837
20541 41083
14671 29342
43367 21683
27792 55585
21436 10718
8844 17688
28153 56307
31400 62801
33121 66243
66110 33055
45912 22956
33168 16584
57438 28719
7523 3761
52430 26215
10258 5129
31284 62569
32454 64909
46190 23095
32800 16400
21380 10690
29508 14754
17096 34192
25228 50457
67791 33895
7259 3629
1874 3748
12767 25535
20108 40216
53828 26914
29237 58474
30199 60399
41647 20823
66971 33485
2853 5706
3044 6088
23171 46342
5398 10797
11556 23113
4173 2086
13843 27686
4544 2272
49410 24705
35349 17674
3230 6461
32349 16174
49112 24556
3264 6529
16968 33937
22680 45360
54405 27202
60730 30365
41782 20891
50138 25069
24398 48796
10228 5114
26496 52993
12573 25147
25891 51783
37670 18835
5877 11755
12842 25685
52260 26130
6262 3131
50320 25160
18245 36490
1062 531
12077 24154
197 394
11791 5895
3217 1608
32708 65417
27142 13571
45865 22932
20861 10430
8452 16905
31065 62130
23884 47768
68774 34387
21813 43627
23733 47466
18483 36967
22122 44245
7280 14560
18964 9482
31987 15993
14447 28894
40133 20066
17833 35667
33298 66597
1260 2520
31615 63230
19455 38911
11581 23162
7703 3851
45965 22982
25535 51070
10889 21779
17980 35961
17058 8529
64166 32083
28285 56571
12073 6036
18683 37366
28235 56471
2816 5633
4897 9795
65725 32862
7424 14848
1375 2751
24959 49919
6177 12354
10834 21668
1167 2335
25530 51060
56116 28058
52553 26276
59182 29591
28191 56383
59992 29996
60410 30205
12622 25245
36001 18000
29808 14904
24331 12165
36505 18252
3805 1902
15983 7991
62156 31078
29251 58503
68351 34175
16542 8271
27144 13572
20197 10098
12805 6402
28481 14240
34486 68973
36767 18383
26287 13143
10465 5232
722 361
20402 40805
17774 35548
33181 66363
7456 14912
21293 42587
16723 8361
18907 37814
28316 56632
31728 63457
15893 7946
9460 18920
5965 11930
28114 56228
66337 33168
11695 23390
58657 29328
15725 7862
10515 5257
3496 6992
8009 4004
19868 39737
33288 16644
19359 9679
45815 22907
255 510
4848 9697
56174 28087
37137 18568
33819 67638
4673 9347
13971 27943
25445 50890
17480 34960
34865 17432
120 240
8188 4094
10836 21673
22145 44291
605 302
28856 14428
1251 2502
13292 26585
49294 24647
26769 13384
53012 26506
52917 26458
25737 51475
28201 56402
18565 37131
42864 21432
14261 28522
4223 8447
391 782
8773 4386
27622 55245
1432 2865
18298 36597
9843 4921
45215 22607
66647 33323
12755 6377
55050 27525
33935 67870
3054 6109
7834 3917
6289 12578
26881 13440
41133 20566
27916 13958
6888 13776
10490 20981
17723 35447
50110 25055
18455 36911
21330 42661
5250 10501
4164 8329
67996 33998
10914 21828
16634 33269
21007 10503
1736 3472
33155 66310
34873 17436
1427 2855
20614 10307
57245 28622
844 1689
15839 31678
19915 39830
51560 25780
22146 44293
18714 9357
21444 10722
19623 9811
30405 60810
66762 33381
7619 3809
59883 29941
54079 27039
30417 60834
34204 68409
13790 27581
58452 29226
16445 8222
30917 61835
19614 9807
8385 16771
27602 55205
6558 13116
35879 17939
37323 18661
25768 51537
32671 65343
50854 25427
14963 7481
33963 67927
4721 9443
11971 23943
63235 31617
23830 47660
27744 55488
2528 1264
29545 14772
3838 7676
50793 25396
52123 26061
55049 27524
14398 28797
11130 22260
32679 65358
11056 5528
18611 37223
31639 15819
33920 67840
48811 24405
5047 2523
26347 52695
11947 5973
12566 25133
16068 32137
25967 51935
52017 26008
25865 12932
27903 13951
26967 13483
4623 9246
30741 61483
66451 33225
21699 10849
33644 67289
38401 19200
31265 62531
29993 59986
2132 1066
18653 37306
45533 22766
29481 58962
38909 19454
29510 14755
56862 28431
42581 21290
47444 23722
58705 29352
2435 1217
13797 6898
9797 19594
22181 44363
4323 8647
21119 10559
48666 24333
29715 59430
18814 37628
45492 22746
22450 44901
56697 28348
27063 13531
45030 22515
1353 2706
5012 10024
33080 66161
5690 2845
48328 24164
63176 31588
15500 31000
31643 63286
26805 13402
38399 19199
28736 57473
37452 18726
38334 19167
63671 31835
7717 15435
11367 22734
11007 5503
19262 38524
33328 16664
64106 32053
43242 21621
32552 65104
28539 14269
45824 22912
28474 56948
30297 60595
30005 15002
29180 58361
33900 16950
32078 64156
15572 31145
55104 27552
21834 10917
4050 8100
21308 10654
57910 28955
18116 9058
27176 54353
60331 30165
62282 31141
42437 21218
50140 25070
49613 24806
1325 2650
8574 17149
13486 26973
18775 9387
6196 12393
28985 57971
53621 26810
56243 28121
46950 23475
26256 13128
28435 56871
12382 6191
63701 31850
42890 21445
13527 6763
12491 24983
558 279
110 220
13635 27270
54944 27472
34257 17128
19460 9730
7934 15868
17418 34836
51637 25818
13461 26922
11374 22748
68874 34437
46839 23419
21792 43584
65630 32815
53967 26983
25468 12734
28752 14376
20135 40270
16337 32674
25315 12657
37211 18605
26793 53586
13656 6828
27067 54134
55626 27813
38190 19095
24671 12335
14072 28145
34820 17410
33697 67394
32032 64064
8369 16739
12641 25282
64241 32120
31758 63517
20425 40850
33329 66658
6676 13352
55457 27728
69150 34575
6405 3202
30105 60210
5746 2873
24301 48602
56711 28355
15113 7556
20253 40507
38071 19035
62254 31127
17972 35944
34169 17084
53780 26890
15996 7998
63397 31698
23817 47635
8922 17844
18944 9472
27178 13589
12400 6200
27519 55038
10147 20294
48935 24467
8305 16611
62962 31481
60347 30173
39 79
13991 6995
9088 18177
26276 13138
55535 27767
15854 7927
21925 43850
4605 2302
18212 9106
24994 49989
8406 4203
34101 68203
5209 10418
44962 22481
30922 15461
25341 50683
16231 32462
30876 15438
53005 26502
20283 40566
10223 5111
6173 12347
21711 10855
28514 14257
8987 17974
57261 28630
19493 38986
51754 25877
13620 6810
18207 9103
27483 54967
423 211
3582 7164
2730 5460
40420 20210
6087 12174
20124 40249
4613 9226
5885 11770
29926 59852
2035 1017
8309 16619
13975 27950
40158 20079
971 1943
7603 15206
2552 1276
22053 44107
32117 16058
11797 23594
32977 65955
17172 34345
10769 21539
17842 8921
2115 1057
2218 1109
3693 7387
65017 32508
48977 24488
37729 18864
22891 45783
27520 55041
849 424
65609 32804
14438 7219
31262 15631
8553 4276
56301 28150
67399 33699
49425 24712
28218 14109
9165 4582
12390 24781
22256 44513
20232 40465
25804 12902
46262 23131
18056 9028
24249 48498
35384 17692
9790 19581
19011 9505
18371 36742
8598 17197
17616 35233
32720 65440
49004 24502
3475 6951
9811 4905
23562 47124
19704 39408
15974 7987
32602 65204
14510 29021
18241 36482
35869 17934
23830 47661
17239 34479
69089 34544
62295 31147
59228 29614
65069 32534
22004 44009
43522 21761
25825 51651
22950 11475
1499 2999
22897 45795
15518 31036
45363 22681
1930 3860
46673 23336
29691 14845
46407 23203
47395 23697
45252 22626
3942 7885
11954 23908
55026 27513
63938 31969
38084 19042
21185 42371
4457 2228
11662 23324
32932 16466
3627 7254
22959 11479
24380 12190
33726 67452
21118 42236
49388 24694
13511 27022
16527 8263
29482 14741
10397 20794
23603 11801
54621 27310
19258 38516
33002 66005
14033 28067
11298 5649
10360 20721
21142 10571
31734 63469
51268 25634
50760 25380
16056 32113
5662 2831
59312 29656
32107 64214
7229 14458
18743 9371
16022 32045
11054 5527
2959 1479
33475 66951
2253 4507
47566 23783
47813 23906
13487 26975
17089 34178
51918 25959
26370 52740
46782 23391
2161 1080
53797 26898
533 1067
9496 4748
47713 23856
33056 16528
47636 23818
24626 12313
54256 27128
33290 66581
10588 5294
26407 13203
21168 42336
39415 19707
15256 30512
68514 34257
68276 34138
48909 24454
56281 28140
5123 2561
586 293
2377 4754
8815 4407
30729 15364
6471 3235
4201 8403
21 43
4542 9084
30618 61236
2233 4466
24878 12439
66038 33019
15533 7766
26960 13480
20423 10211
34538 69077
42379 21189
66843 33421
16650 33301
4850 9700
5123 10247
1996 998
64328 32164
12416 6208
22221 11110
7783 3891
33488 16744
64787 32393
13886 27773
56530 28265
12444 24888
23455 11727
34155 68311
18221 9110
7519 3759
17706 35413
57466 28733
61051 30525
8287 4143
30817 61634
26691 13345
32257 64514
24363 12181
29728 14864
56952 28476
2118 4236
6245 12491
28465 56930
25213 50426
38603 19301
12194 6097
33693 67386
12584 25169
16142 32285
43252 21626
52463 26231
9975 4987
2451 4903
7699 15398
14058 28117
67347 33673
53720 26860
6417 12834
16618 33237
65286 32643
8967 4483
67322 33661
21823 43647
16965 33930
26754 53508
58193 29096
64153 32076
21046 10523
5795 11590
55121 27560
65789 32894
22961 45923
13808 27616
28747 57494
9932 19865
6882 13764
52018 26009
54220 27110
45333 22666
39122 19561
47952 23976
58629 29314
16383 8191
18092 9046
64931 32465
10694 21389
33122 66244
17584 8792
32750 16375
16208 8104
1366 2732
5331 10663
46857 23428
25314 12657
23270 46540
16667 33334
32022 16011
27251 54502
26926 53853
31836 63672
41112 20556
49491 24745
64538 32269
48414 24207
60053 30026
4836 9672
61344 30672
5971 11943
27806 13903
2088 1044
37020 18510
32920 65841
25464 12732
7273 14547
15042 30085
10071 20143
59408 29704
26744 53488
13102 6551
55009 27504
4047 8095
15643 31287
3045 1522
52150 26075
17290 34581
20032 10016
15299 30599
44607 22303
35700 17850
47443 23721
28458 56917
67321 33660
16934 33869
6273 12547
298 149
27718 55436
22595 11297
1868 3736
32249 64499
19619 39238
28508 57016
14425 28851
9708 19416
28181 56362
1680 3360
11333 22667
28881 14440
3253 6506
29205 58411
18525 37051
28853 57706
52608 26304
64419 32209
27215 54430
7062 14125
30473 15236
62756 31378
66631 33315
33233 66467
16907 33815
13667 6833
33807 67615
39875 19937
3867 1933
4146 8293
23346 46693
54556 27278
53347 26673
3140 1570
2574 1287
57866 28933
21768 43537
16885 33770
7858 15716
15400 7700
45267 22633
1956 3912
59554 29777
13076 26152
52772 26386
59799 29899
30227 15113
31683 63366
68586 34293
1557 3115
26697 53394
27218 54436
9402 18804
25322 50645
21374 42748
24442 12221
19799 39598
59404 29702
621 1243
43486 21743
18537 37075
11210 22421
49791 24895
37471 18735
10182 20364
6911 3455
48416 24208
28259 56519
7310 14621
23787 11893
1335 2670
25068 50136
6379 12759
1528 3057
2493 1246
19328 38657
67949 33974
28152 14076
6765 13530
19118 9559
31014 15507
31909 63819
10270 20541
46510 23255
63537 31768
26873 13436
34427 68855
932 1865
10274 5137
27893 13946
21941 43883
27477 54954
15706 31413
53831 26915
59457 29728
22374 44748
34517 17258
33021 66042
22777 45555
11933 5966
14923 29846
19533 9766
4212 8424
2293 1146
221 110
15716 31433
1514 757
60711 30355
53325 26662
24236 12118
28944 14472
67058 33529
19748 39496
51119 25559
36115 18057
62149 31074
30267 60535
11047 22095
65490 32745
4646 9292
11065 22131
27722 55444
9034 18068
19671 9835
29125 58250
23371 46742
19872 39745
26368 52737
11583 23166
16528 8264
23912 47824
24062 12031
60760 30380
7210 14421
4412 8825
22984 45969
25211 50423
45996 22998
20321 10160
54354 27177
58078 29039
31825 63650
56686 28343
36938 18469
28554 14277
26284 52568
58218 29109
14567 7283
19984 9992
9406 18812
14381 7190
20070 10035
24519 12259
34104 68209
43178 21589
10532 5266
6491 3245
23996 11998
40831 20415
18604 37209
66103 33051
12957 25914
33080 16540
42137 21068
15195 30391
55658 27829
8448 16897
22573 45147
25817 51635
54886 27443
2735 5471
16402 8201
54034 27017
39652 19826
13267 26535
24416 12208
19809 9904
12199 24398
61399 30699
34159 17079
7526 3763
9167 18334
3662 1831
51865 25932
13134 26268
47727 23863
14915 29831
49809 24904
9748 19496
8307 16615
60602 30301
25380 50761
63773 31886
1474 2949
25704 51408
53678 26839
23894 47788
23155 11577
33261 16630
19153 38307
7586 3793
32061 64123
39750 19875
24953 49907
5533 2766
23860 11930
20076 40153
18402 9201
19297 38595
5529 2764
23947 47895
31582 63165
22184 11092
5575 11151
143 71
8432 16864
10239 5119
782 1564
33665 67331
933 1867
57418 28709
46812 23406
16513 33026
6703 13407
56443 28221
5071 10143
9069 18139
22522 11261
25156 50312
3381 1690
63013 31506
29290 58581
63574 31787
27808 13904
54542 27271
7501 3750
50884 25442
33212 66425
21975 43951
30546 15273
10660 21321
16363 32727
15103 7551
5543 11087
31441 15720
32343 16171
10653 5326
24885 49771
38114 19057
25931 51862
31944 63888
20866 41732
19352 38705
64882 32441
26624 53249
9187 18374
1643 821
63504 31752
8944 17888
7432 14864
66067 33033
24436 48873
51299 25649
17298 34597
11985 23971
67804 33902
23263 11631
64641 32320
20978 41957
3007 6015
45129 22564
15825 31650
44038 22019
42254 21127
11805 23610
16457 8228
30905 61810
3800 7601
10704 5352
24796 49593
17892 35785
7565 15130
62512 31256
22616 11308
33523 67046
34418 68837
26339 52679
37527 18763
21193 42386
32111 64222
26258 52516
17773 8886
1971 985
499 249
14716 7358
4413 2206
29227 14613
15595 7797
19831 9915
19421 38842
26930 53861
27385 54770
7412 14824
27747 13873
25144 50289
33676 67353
28610 14305
8775 17550
54995 27497
64284 32142
11612 5806
15384 30769
30459 60919
56856 28428
13410 26821
11247 22495
46136 23068
21437 42874
3111 1555
9449 18898
27586 55172
5671 11343
23085 11542
36721 18360
22289 11144
11452 22904
22206 11103
28808 57616
8179 16358
11387 22774
3922 1961
13748 27497
27874 55748
10107 5053
14805 29611
27393 13696
13636 27272
17196 34393
55676 27838
32317 16158
3808 7617
46535 23267
33566 67133
16776 8388
31814 15907
11837 23674
34073 17036
25241 50482
21202 10601
8350 16700
3922 7845
4370 8740
33371 66743
22443 11221
21499 10749
54956 27478
32421 64843
22469 44939
24189 48378
8443 16887
6638 3319
27410 54821
52360 26180
63483 31741
4077 8155
2971 1485
11113 22226
20732 41465
41087 20543
8426 4213
26127 13063
48576 24288
39170 19585
26554 53109
62188 31094
23949 47898
3537 7075
66757 33378
12580 25161
6969 13939
29069 58139
7423 14847
30482 60964
53133 26566
24053 12026
45479 22739
5372 10745
22121 44243
39436 19718
33948 16974
23341 46683
64915 32457
21083 42167
35737 17868
64610 32305
26941 13470
12216 24432
13078 26157
25720 12860
33963 16981
10368 20736
31620 15810
26076 13038
68336 34168
67594 33797
64516 32258
16674 33348
14326 7163
10607 21214
16862 33725
47419 23709
24012 12006
28061 56123
28763 57527
34459 17229
8281 4140
29633 59266
22562 11281
3275 1637
3369 6739
60605 30302
17624 35249
12954 6477
446 223
8492 16985
15414 30829
19302 38605
10707 21415
44833 22416
9031 18063
17462 8731
18435 36870
22125 44251
34457 68915
3890 7780
25902 12951
33295 66591
9436 4718
27528 55057
21612 10806
17750 35500
31589 15794
50370 25185
28334 56668
22870 45740
9919 4959
21451 42902
64451 32225
25967 12983
54362 27181
8446 16892
26984 13492
16801 33602
9756 4878
47948 23974
18640 37280
11031 5515
28463 14231
3265 6530
610 1221
16790 33581
10436 20873
34007 68015
17367 34734
25274 50549
56832 28416
16623 33247
56531 28265
1986 3973
32064 16032
52798 26399
64625 32312
50345 25172
58398 29199
20836 10418
9678 4839
50585 25292
26947 53894
34197 68395
24557 49115
24272 12136
13237 26474
34636 17318
22558 11279
57504 28752
22048 44096
22293 11146
16764 33528
23694 47389
14207 7103
28351 14175
16979 33959
10045 20090
14335 7167
34855 17427
9613 19227
28402 56804
29646 14823
68117 34058
12905 6452
33843 67687
9375 18750
64648 32324
12376 24752
17593 8796
2623 5247
15847 7923
605 1211
30013 60027
23638 47276
7906 3953
51263 25631
12890 6445
60878 30439
12741 6370
18968 37937
30257 60515
33799 67599
30676 61353
20848 41697
9969 4984
68963 34481
41401 20700
21380 42760
18740 37481
62656 31328
22858 11429
8136 16272
12337 24674
54045 27022
9522 19045
16961 33922
45428 22714
24342 12171
58 116
33625 67251
36681 18340
66146 33073
1913 3826
14803 29606
19461 38923
17785 8892
7770 3885
57255 28627
21323 10661
7580 15160
20640 41280
1949 3898
36657 18328
18861 37722
9893 19786
12213 24426
32481 64962
23922 47844
38201 19100
14702 29405
8339 16679
11549 5774
4590 2295
15954 7977
65822 32911
41933 20966
19805 9902
10420 5210
34611 69223
6129 3064
63327 31663
11749 23499
26697 13348
16236 32473
59040 29520
12027 24055
16269 8134
8463 16926
36973 18486
11289 22578
56205 28102
21292 42585
56350 28175
3860 7721
43162 21581
40861 20430
16506 8253
4805 9610
13263 6631
22647 11323
7590 15180
678 1357
60438 30219
6029 12058
17077 34154
6885 13771
63723 31861
9197 18394
21078 42157
19630 39260
27221 13610
30816 61633
134 269
51252 25626
23275 11637
21935 43871
11476 22953
620 1240
31571 63142
6050 12100
18487 9243
47036 23518
20379 40758
8541 4270
53807 26903
9313 18627
48126 24063
34046 68093
23111 46222
64919 32459
35596 17798
41571 20785
28275 56551
32087 16043
50696 25348
45163 22581
26172 52344
20463 40926
66480 33240
16960 8480
59537 29768
19365 38730
28391 14195
7547 15095
65997 32998
25532 51065
32930 16465
48628 24314
25397 50794
10879 21759
11143 22287
711 355
17752 35504
39777 19888
1598 3197
15776 31553
729 364
49259 24629
19303 9651
30058 60116
18257 9128
24151 48303
25888 51777
22159 11079
5794 2897
742 1485
18431 36863
14879 29758
34302 68604
18699 37398
36431 18215
19820 39640
56370 28185
41145 20572
4121 2060
22462 44925
3797 7595
26676 53352
26583 53167
14590 7295
53632 26816
47026 23513
32558 16279
55551 27775
22788 45576
20096 10048
3888 7776
55363 27681
15740 7870
7220 14440
8298 16596
38478 19239
20426 40853
5453 10907
34432 17216
25235 12617
31251 62502
61255 30627
30467 15233
65555 32777
51 25
30925 15462
38977 19488
2726 5452
58744 29372
44372 22186
2884 5768
38885 19442
8480 4240
30828 61656
57451 28725
31610 63221
59909 29954
26020 13010
20387 40775
21872 10936
26723 53447
12309 24618
38715 19357
32184 64368
27992 55985
28924 57848
22510 45021
43024 21512
30635 61270
47364 23682
1585 792
18288 36577
28433 56867
2338 4677
31635 63270
893 446
33224 66449
6247 12494
16844 8422
13022 26044
26509 53018
21030 42060
10586 5293
33593 16796
5181 2590
42071 21035
41923 20961
34422 68845
7417 3708
52067 26033
27002 54004
4576 2288
40160 20080
13221 6610
549 1098
15623 31246
9681 19362
9754 19508
3080 1540
9924 4962
64921 32460
62772 31386
25156 50313
17456 34913
32940 65880
28994 57988
22097 44195
5939 2969
22992 11496
21999 43999
14632 29264
24064 48128
28364 56728
26087 52175
1775 3551
30407 60814
11477 22955
40543 20271
6325 3162
6893 13786
50276 25138
29053 58107
3644 1822
28495 14247
7479 3739
34442 68884
16081 32162
52098 26049
4888 9776
19390 38780
12053 24107
16163 32326
26789 53578
2713 5427
10495 20991
16605 33211
10156 5078
52869 26434
14014 28028
55006 27503
15031 30062
6261 12522
23285 11642
32578 65156
1322 2645
8292 4146
19862 39725
17010 34020
30874 61748
28808 14404
42791 21395
53076 26538
50399 25199
15874 31749
33806 16903
18679 37359
32412 64824
3926 7853
46819 23409
21804 10902
13259 26519
2913 5826
33145 16572
24749 12374
19725 9862
1574 3149
33925 67850
56328 28164
5828 11656
13828 6914
21388 42777
432 216
20138 10069
56034 28017
4140 2070
28867 57734
26805 53611
23091 46183
52494 26247
7745 3872
23980 47960
27471 54942
41497 20748
23973 11986
1118 2237
18998 9499
1398 2796
64074 32037
11815 23630
63183 31591
28940 57880
23868 47737
47006 23503
36606 18303
17459 8729
65086 32543
9423 4711
34662 17331
27282 54565
35649 17824
27556 55113
3671 7342
9645 19291
34338 17169
1209 2418
1151 2303
25873 51746
7126 3563
55760 27880
16768 33536
57600 28800
46306 23153
16651 33303
14937 29875
2497 1248
11522 23044
30810 15405
24700 12350
28682 57365
52346 26173
32670 65341
10520 21040
7837 15674
698 349
5765 11531
63620 31810
14933 7466
18174 9087
17213 34427
4044 2022
41523 20761
576 1152
15837 31675
6632 13264
28524 57048
11783 5891
54096 27048
25201 50403
26080 52160
17356 34712
47721 23860
1443 721
13323 6661
27551 55103
26492 52985
27438 13719
10744 21488
4031 2015
25799 51598
46203 23101
27489 13744
31254 62509
4568 9136
1181 2362
33114 16557
741 370
26106 52212
30367 60734
19508 39016
36037 18018
65264 32632
26898 13449
26038 13019
6935 3467
5502 2751
26432 13216
28837 57674
4420 8840
1985 992
2106 4212
29889 14944
26657 53315
21559 10779
6592 3296
1055 527
49676 24838
11945 23890
40945 20472
56453 28226
34658 17329
7847 15695
84 168
21844 10922
8837 4418
18384 9192
10524 5262
40550 20275
32342 64684
25396 50792
29319 14659
27698 13849
66198 33099
18176 36352
14761 29522
28517 57035
20192 40384
14286 28573
38748 19374
61393 30696
3200 6401
17374 34749
6309 12619
28360 56720
4041 8083
22629 45258
19836 39672
18838 9419
30432 60864
28864 57729
23182 11591
7334 14668
11233 5616
30324 60649
22006 44012
29277 58554
31469 62938
37991 18995
11372 22745
12660 6330
24310 12155
12513 25026
18924 37849
520 1040
1567 783
65116 32558
21190 42380
6423 12847
18591 37182
59579 29789
27816 13908
18958 37917
29271 58542
208 416
26897 53795
55608 27804
18191 36382
62709 31354
33615 67230
60858 30429
30291 15145
3827 7654
15379 7689
7926 15852
20900 41801
60451 30225
22037 44075
5048 10097
9445 4722
32291 16145
21078 42156
52936 26468
68147 34073
11265 22531
48193 24096
18646 37293
7398 3699
9854 19708
4172 8344
32524 65048
28467 56934
7195 14390
2991 5982
17519 35038
29992 59984
29396 14698
32527 16263
21558 43117
67910 33955
48841 24420
23893 47787
5685 11371
55375 27687
18115 36231
5230 2615
23145 11572
64879 32439
35127 17563
10396 20793
5859 2929
52991 26495
13502 6751
9854 4927
1224 612
9748 19497
63443 31721
15270 7635
13767 6883
9442 4721
620 1241
15463 30926
11451 22903
33773 16886
17503 35007
22339 44679
67375 33687
24668 49337
5745 2872
22577 45154
6171 12342
11708 5854
15318 7659
60483 30241
17226 34453
54662 27331
38422 19211
11275 5637
34126 17063
40321 20160
52134 26067
14551 7275
64326 32163
55750 27875
43525 21762
19892 39785
6709 13419
25836 51673
66774 33387
31967 63935
32938 65876
29693 59387
5969 11938
31404 62809
13258 26516
48016 24008
7757 3878
33921 67842
24488 48976
59193 29596
56701 28350
15060 30121
2784 1392
24152 48304
438 877
36757 18378
10712 21425
33228 16614
13304 6652
54546 27273
19898 9949
16289 32579
43972 21986
13736 6868
48775 24387
14985 7492
26317 52635
18401 36803
44744 22372
27899 55798
16682 33365
6482 12965
16618 8309
23985 47970
21071 10535
10782 5391
2479 4959
31187 15593
951 475
31905 63811
558 1116
64511 32255
1581 3162
6693 3346
61686 30843
12026 24052
59985 29992
11671 5835
10700 21400
60189 30094
18511 37022
54878 27439
3913 7827
23293 11646
66017 33008
19045 38091
17287 34575
32709 65418
55920 27960
4928 2464
14894 29789
33253 16626
50938 25469
31992 15996
27381 54763
22341 44682
9433 18867
14745 7372
54928 27464
34891 17445
27900 55800
23937 11968
25778 51556
65935 32967
30355 60710
23737 11868
22450 44900
35067 17533
13424 26848
24738 12369
56900 28450
46846 23423
24995 49990
8029 16059
36336 18168
31854 15927
6741 13482
30450 60900
27291 13645
28909 57819
14138 28277
36914 18457
1570 785
5920 11841
1253 2506
48647 24323
33407 66814
58877 29438
22214 44428
5617 11235
2761 5522
49779 24889
28802 14401
11351 22703
29106 14553
37090 18545
27369 54738
67000 33500
24410 48820
1590 3181
26397 52794
9668 19336
9063 4531
32080 64161
40863 20431
31572 63144
28145 56290
32964 16482
29134 14567
19023 38046
24962 49925
11610 23221
63199 31599
2188 4377
22908 11454
31797 63595
42268 21134
24124 48248
497 994
8041 4020
34467 68935
7849 15698
13822 27645
31084 15542
58291 29145
16855 33710
31345 62691
4860 2430
10619 21238
57982 28991
57439 28719
28324 56649
39787 19893
21721 10860
55355 27677
21441 42882
3790 7581
4644 9289
13942 6971
47624 23812
15568 31137
15173 7586
4345 2172
63358 31679
8570 4285
27332 54665
18216 36432
18050 9025
12627 6313
28287 56574
51466 25733
28980 57961
59110 29555
22947 45894
46598 23299
34075 68151
34362 68724
1297 2595
18434 36868
44490 22245
59997 29998
25457 50914
21535 43071
24930 49861
25175 50350
37556 18778
31557 15778
5507 2753
2423 4847
15012 7506
65252 32626
6970 3485
23570 47140
55901 27950
11676 5838
31753 15876
14572 29145
6187 12375
53779 26889
63098 31549
5220 10440
34237 68474
58116 29058
7990 3995
51459 25729
11965 23930
8279 16559
3646 7292
8939 17879
13420 26841
20607 41215
1163 2327
40406 20203
14954 7477
26813 53627
31518 63036
35730 17865
32827 16413
49641 24820
23537 47075
19509 39019
5308 2654
30882 61765
7203 3601
23079 46159
31306 15653
146 73
5592 11185
5928 2964
16778 8389
25112 50224
59255 29627
17315 34631
17863 35727
16590 8295
5196 10393
30762 15381
26176 13088
24680 49361
25945 12972
3120 6241
6980 3490
6619 13239
751 1503
25985 51970
10238 20477
15728 7864
20438 10219
20310 10155
20120 10060
43163 21581
14173 7086
13300 26601
6287 3143
7987 15975
27210 54420
16520 8260
64667 32333
26921 13460
17724 35449
8985 4492
60577 30288
31383 62766
61758 30879
229 459
7415 14830
5951 11903
66484 33242
4660 9321
6457 12914
16086 8043
25539 51079
16035 32071
5252 2626
24556 49113
33499 66999
19017 38034
25539 51078
32000 64001
17735 35470
22900 11450
15734 7867
31438 62877
66316 33158
1004 502
30649 61298
305 611
250 501
28464 56929
19126 38253
21162 42325
20580 41161
7631 15262
9255 18511
10600 21200
20728 10364
40950 20475
4963 9926
54730 27365
5495 2747
6556 13112
15036 30073
43664 21832
11162 22325
3416 1708
28664 57328
13985 27970
13196 26392
57054 28527
32375 64750
30704 61409
42490 21245
62606 31303
18644 9322
38753 19376
15606 7803
34642 17321
13742 6871
19356 9678
8966 4483
9403 4701
174 348
44039 22019
21928 43857
30530 61061
14845 7422
29778 59557
543 1087
14276 7138
2699 5398
3371 6742
3727 7455
9618 19237
29812 59624
37721 18860
59937 29968
15927 7963
22492 44985
30540 61080
28179 56359
23903 47807
28389 14194
9327 18654
31576 15788
10438 5219
33579 67158
8318 4159
59590 29795
48651 24325
9493 4746
13622 6811
25728 51457
24064 12032
4715 9431
15831 31663
37617 18808
43671 21835
29232 14616
19162 38325
5051 2525
30552 61104
27430 54861
15146 7573
27827 55654
235 471
13533 27067
929 464
1720 3440
1301 2602
7622 15245
19485 9742
18517 37034
66221 33110
31892 63784
22106 44212
19701 39402
29202 14601
68312 34156
31731 15865
65229 32614
14005 28011
41298 20649
5675 11350
16220 32441
32427 16213
22253 44507
5498 2749
32036 16018
23332 46665
1248 624
30334 15167
38160 19080
8257 16514
9319 18639
26914 13457
11574 23148
8659 4329
32517 65034
16800 33600
616 1233
12857 6428
1786 893
30117 60234
4666 2333
21408 42816
10316 20632
7663 3831
11461 22923
8266 16532
2158 4317
3650 7300
15488 30977
16384 32768
39322 19661
8276 16552
4722 9444
28488 56977
4844 9689
56842 28421
35837 17918
2265 1132
23098 46197
66605 33302
4503 9006
44883 22441
29823 14911
33090 66181
25135 12567
7895 15791
24042 48084
12180 6090
30045 60091
67413 33706
27870 55741
1523 3047
7931 15862
31265 15632
8571 17143
8069 16138
11607 23215
36065 18032
47989 23994
7042 14084
22376 11188
41323 20661
15643 31286
17423 8711
11813 23627
39098 19549
32045 64091
52050 26025
5887 2943
15381 7690
68947 34473
8927 17854
11548 5774
34583 69166
19233 9616
8485 16970
25089 12544
2386 4773
53690 26845
18155 36310
6821 13643
48381 24190
28276 56553
35337 17668
41303 20651
7207 14415
6314 12629
19018 38036
46903 23451
21967 10983
52501 26250
15975 31950
19885 9942
32264 16132
23604 47209
26803 53606
15328 30656
64776 32388
32570 16285
63998 31999
16949 33898
65210 32605
3224 1612
19334 9667
17167 34335
47138 23569
6929 13858
27074 54148
6606 13213
21946 43892
23922 11961
33161 66322
4856 2428
31716 63433
62260 31130
23034 46069
43513 21756
45176 22588
33348 66696
10772 21545
2488 1244
34584 17292
1680 3361
12721 25443
32950 65900
37095 18547
51845 25922
883 1766
18097 9048
15404 7702
39599 19799
3915 7830
6695 3347
50950 25475
52762 26381
30900 15450
50752 25376
8799 17599
31894 15947
3407 6814
34150 68301
32034 64069
34036 68073
24546 49092
37601 18800
52411 26205
53661 26830
615 307
465 930
7796 3898
68609 34304
22536 11268
13826 27652
11552 23105
3548 7096
2865 5730
1273 2546
32758 65517
30633 61267
57312 28656
1447 2895
34434 68868
65022 32511
1345 672
35957 17978
11366 5683
61175 30587
27806 55613
64134 32067
27152 54304
19682 39365
9774 19548
4969 9938
42910 21455
31803 15901
10727 21454
43297 21648
19240 9620
2017 4035
61475 30737
26598 53196
20514 41028
53557 26778
28857 57714
6420 12841
32630 16315
21029 10514
50686 25343
10498 5249
23229 11614
57693 28846
2771 5542
63484 31742
57684 28842
195 390
55660 27830
33032 16516
15068 30137
3993 7987
24141 12070
13490 6745
49552 24776
18053 36106
505 1011
65758 32879
22903 45807
15442 30885
2728 1364
32989 65978
8462 16925
18599 37198
16107 32214
3780 7560
56618 28309
4704 9408
7119 14238
54260 27130
607 1214
29114 58228
32055 16027
9713 4856
12227 6113
18480 9240
25449 50899
28445 14222
15738 7869
26074 13037
20054 40109
22416 44832
65518 32759
13296 26593
33711 67423
59034 29517
56557 28278
5590 11180
32520 65040
7321 14642
9507 19015
31739 63479
45989 22994
15812 31624
20500 41000
29567 59134
26261 52523
8369 16738
28624 14312
6267 3133
17982 35964
5346 10693
5276 10553
19628 9814
61570 30785
17349 8674
3590 1795
8330 4165
4197 8394
22691 45382
58544 29272
21458 10729
69168 34584
45430 22715
22412 44825
23166 46333
15707 7853
16054 32108
30426 60852
41445 20722
16809 33619
63631 31815
19469 9734
16100 8050
55859 27929
69078 34539
700 1400
5617 11234
8312 16625
18759 37519
16757 33515
40269 20134
17060 8530
8208 16417
7592 15185
21530 43060
36079 18039
10511 5255
58712 29356
20477 40954
40912 20456
34553 69107
26648 53297
32298 64596
1979 3959
31791 63582
11206 22412
25687 51375
19931 39863
19774 9887
32115 64230
11791 23582
33042 66084
18579 9289
7264 14528
66717 33358
30853 61706
31513 15756
12883 6441
14484 28968
28480 14240
8083 16167
23163 11581
52842 26421
48636 24318
33765 16882
5579 2789
8400 4200
5090 10180
8683 4341
63530 31765
13172 26344
2905 1452
13379 26759
60630 30315
22471 11235
11392 5696
7308 14616
18015 36030
24528 49057
1563 3126
39351 19675
65883 32941
21965 10982
27632 55264
10359 5179
46885 23442
6850 3425
6316 12632
2825 1412
36826 18413
21831 10915
35581 17790
11625 23250
54195 27097
28009 56018
6804 3402
32002 16001
3891 7782
12694 25389
9929 19859
28658 57317
8830 4415
4202 2101
57131 28565
33477 16738
29885 14942
14515 29030
42761 21380
12930 6465
24896 49792
30200 60401
8037 16075
32828 65657
12375 24750
1858 3716
13866 27733
2946 1473
7443 14886
30134 60269
7289 14579
67352 33676
18931 37862
16166 8083
16495 32990
51969 25984
27712 13856
29901 14950
34456 68912
53838 26919
34268 17134
25552 51104
33414 66828
26560 53121
67925 33962
22347 11173
52542 26271
66438 33219
52620 26310
32916 65833
25912 12956
4516 9033
54100 27050
29160 58320
31313 62627
35604 17802
14320 28640
4155 2077
11193 22386
41014 20507
1900 3800
3462 1731
18966 37933
21136 42272
3841 7682
23862 11931
9964 19929
30336 60672
6030 12061
27456 13728
3280 1640
31927 63854
13781 6890
30865 61730
11224 22448
20024 40049
49196 24598
68914 34457
27123 13561
27428 13714
65032 32516
28923 57847
53538 26769
33232 16616
28631 14315
15623 7811
63781 31890
10909 21818
29987 59974
28570 14285
30180 60361
50635 25317
46484 23242
28466 14233
959 1919
31360 62720
52255 26127
10862 21725
59901 29950
44011 22005
67232 33616
14549 29099
57061 28530
34209 68418
22515 45031
43139 21569
9906 19812
30303 15151
7518 3759
15715 31431
28444 56889
34309 17154
1754 3508
11666 23333
29827 14913
34281 17140
57247 28623
15259 30518
54023 27011
25152 12576
7331 14663
6102 12205
4417 2208
32039 64078
58122 29061
25844 51689
34091 68182
43338 21669
26435 13217
68788 34394
60437 30218
8156 16313
24670 49341
33342 16671
68466 34233
7894 3947
6353 3176
49802 24901
13534 27069
16422 8211
25435 50870
3080 6161
45424 22712
34131 17065
49452 24726
10372 20744
17746 8873
9562 19124
41541 20770
7273 3636
31758 63516
35787 17893
30464 60928
54809 27404
9985 19970
16094 32188
34252 68505
30428 15214
27486 13743
30547 61095
21985 10992
27028 54057
25884 12942
4330 2165
33673 16836
4530 9061
20488 40976
22467 11233
13018 26036
42299 21149
49163 24581
61383 30691
61700 30850
8286 16573
9304 4652
67726 33863
11405 22810
14394 7197
40521 20260
5103 10207
8898 17796
67591 33795
42749 21374
23918 47836
987 1975
65065 32532
28842 14421
50004 25002
18999 37999
11820 23640
26131 52262
45898 22949
20988 10494
20050 40100
4809 2404
4765 9530
21235 10617
53403 26701
31377 15688
23186 46373
64967 32483
69130 34565
4874 9749
14812 7406
15135 30271
63414 31707
32409 64819
35186 17593
32916 65832
46059 23029
2173 4347
66836 33418
9349 18698
21391 42783
24464 48928
23209 46418
83 166
40150 20075
10020 20041
31091 62183
12246 24492
40782 20391
7741 15482
24478 12239
13251 26502
33770 67541
16179 8089
49235 24617
40294 20147
55340 27670
7252 14504
49133 24566
15524 31048
8521 4260
9241 18482
47115 23557
3666 7333
68517 34258
40676 20338
3341 6683
20791 10395
18122 9061
8748 17497
8287 16575
13105 6552
3861 7723
29115 58230
20669 41339
66000 33000
58790 29395
63133 31566
30054 15027
5559 11118
8316 16633
22027 44054
20083 40167
20697 10348
48894 24447
22712 11356
1301 650
60624 30312
40577 20288
10173 20347
63244 31622
11592 5796
24918 49836
9893 4946
7147 3573
2656 1328
17380 34761
62742 31371
28079 14039
55506 27753
6745 3372
33228 66457
32318 64637
31612 63225
66134 33067
11809 23619
7815 3907
15375 30751
68510 34255
3380 1690
20702 41405
28059 56119
7840 15680
23184 46368
27250 54500
33198 16599
4021 2010
52275 26137
34020 68040
12160 24321
17693 8846
57936 28968
17877 8938
20698 41396
33726 67453
51764 25882
31143 15571
24015 48031
26950 13475
29445 58891
16048 8024
46173 23086
4180 8361
11149 5574
22241 44483
48699 24349
26151 52303
29125 14562
56184 28092
32862 16431
35821 17910
15567 7783
11275 22550
5781 11562
9434 4717
31653 63306
3862 7725
11150 22300
12222 24444
20435 40870
31681 63362
8477 16954
29540 14770
3447 6895
11303 22607
31771 63543
40087 20043
1416 708
67741 33870
21616 43233
26295 52591
54440 27220
38912 19456
9166 4583
64211 32105
6282 3141
6772 13545
17127 34254
38171 19085
54265 27132
24110 12055
30716 61433
6846 13692
41808 20904
44279 22139
35784 17892
48795 24397
12945 6472
12287 6143
55704 27852
52546 26273
19300 38600
21279 42559
656 328
51253 25626
5064 10128
7426 14853
47815 23907
43122 21561
10684 5342
4225 8450
43265 21632
12651 6325
4793 9586
34706 17353
26208 52416
11299 5649
41592 20796
43617 21808
21630 10815
4949 2474
12625 25251
19489 38979
60985 30492
40185 20092
1198 599
51399 25699
30669 61339
13304 26609
42822 21411
48516 24258
30390 15195
24656 49313
2864 5728
4583 9167
61948 30974
42240 21120
3977 7954
56121 28060
24332 48664
30749 15374
28397 56795
19054 9527
32711 16355
32668 16334
9948 19896
50774 25387
11721 23442
33104 66208
61 123
23446 46892
45066 22533
40304 20152
11152 5576
15012 30024
4131 8262
21203 42406
68913 34456
46670 23335
61524 30762
10693 21386
46730 23365
17070 8535
66902 33451
25775 51551
34413 68827
8889 17778
7211 14422
6046 12092
29668 14834
10415 20830
45089 22544
28247 14123
23043 46087
16026 32052
58696 29348
3205 1602
69128 34564
6375 3187
51830 25915
54746 27373
10236 20473
10754 21508
33359 66719
9251 4625
13483 6741
32849 65698
23848 47697
51720 25860
29539 59078
43021 21510
27218 54437
32276 64553
3780 1890
28668 57336
62887 31443
17059 8529
8957 17914
6939 13878
25928 12964
6981 3490
51657 25828
18790 37581
8049 4024
6757 3378
1592 3185
3736 7473
67834 33917
9935 4967
28829 14414
12589 25178
20083 40166
2792 1396
10215 20430
57849 28924
8936 17872
55911 27955
20563 41126
2197 4394
13902 6951
57276 28638
3145 1572
53105 26552
4748 9497
8246 4123
10576 21152
59512 29756
19015 38031
26402 52805
2761 5523
20537 10268
20536 41072
26206 13103
56765 28382
60105 30052
43948 21974
25771 51543
11607 5803
52159 26079
4549 9098
38623 19311
24186 12093
20685 10342
14331 28663
15002 30004
7355 14710
994 1988
6984 13968
8755 17510
15624 31249
17581 35163
1853 926
21627 43254
20208 10104
31469 15734
11911 23823
36675 18337
24795 49590
32887 65774
12923 6461
7736 15473
25584 51168
49795 24897
34781 17390
6262 12525
43073 21536
65887 32943
24720 12360
64813 32406
24683 49366
11435 22871
12418 6209
18531 37062
169 339
21268 10634
20326 40652
22865 11432
8774 17549
7742 15485
37087 18543
25580 51161
21226 42453
16791 33583
19569 39139
60166 30083
52178 26089
29654 14827
24179 48359
12230 6115
50843 25421
27301 54602
23219 46439
4396 8793
4108 8217
16289 8144
16642 33285
13648 27297
51658 25829
45880 22940
25262 12631
17965 35930
17237 34474
41868 20934
17073 8536
33491 66982
31801 63603
64513 32256
60409 30204
45320 22660
8700 17400
2963 5926
23033 11516
15770 7885
59844 29922
19714 9857
6577 13155
19227 38454
11902 23805
24440 48880
58676 29338
13844 27689
23878 47756
21470 10735
31293 62587
16379 32759
31349 62699
10980 21960
26120 52241
2684 1342
28288 56577
1535 767
6293 12587
1530 765
33926 67853
15686 7843
62966 31483
66263 33131
59745 29872
48598 24299
58596 29298
32095 64190
12644 25289
17515 8757
77 154
63319 31659
21672 43345
23600 47200
10307 5153
13505 27011
28883 57766
766 1533
25042 12521
14297 28594
6471 12943
29469 58939
14534 29068
51789 25894
33650 67301
57975 28987
7263 14527
31789 15894
5332 2666
5817 2908
39568 19784
6133 12267
18516 9258
39060 19530
18817 37635
52811 26405
5748 11497
23383 46766
59033 29516
17646 35293
13252 26504
2478 4956
25198 50396
5647 11295
62445 31222
65946 32973
19209 38419
20543 10271
10662 21324
1658 829
4034 8069
26879 13439
11833 23667
737 368
30798 15399
22563 45126
4610 2305
19581 39163
13686 27372
11858 23717
15431 7715
7019 3509
1706 3413
32407 16203
5095 2547
21069 10534
11702 23404
33812 67625
9891 19782
3813 7627
27292 13646
11587 23175
57577 28788
5539 11079
22608 45217
48807 24403
19573 39146
13062 26125
3438 6877
49678 24839
7159 14318
47485 23742
30320 15160
13279 26558
34070 17035
19698 9849
28096 14048
44051 22025
28647 57294
43360 21680
45282 22641
43497 21748
3994 7989
19399 38798
27920 13960
26708 53417
14273 28546
24393 48786
8395 4197
21669 10834
22893 45787
6044 12089
29263 58526
62430 31215
14763 29526
11488 22976
48931 24465
6632 13265
10498 20997
9550 19101
8068 4034
40411 20205
23308 46616
14430 28861
3988 1994
8893 4446
1293 2586
24764 49529
38852 19426
44594 22297
33205 66410
68887 34443
9322 18645
6776 3388
49018 24509
1732 3465
39094 19547
10941 5470
59543 29771
4026 8053
60359 30179
62861 31430
30936 61873
15946 31892
38804 19402
17464 8732
18474 36948
25429 50858
23673 47346
6792 13584
57109 28554
42133 21066
25774 51549
41499 20749
59018 29509
30484 60968
34814 17407
17241 34483
12102 6051
13002 26004
15346 30693
20274 40548
27900 13950
33314 16657
12826 6413
33053 16526
15581 7790
40247 20123
7684 3842
20040 10020
6875 13751
67277 33638
25069 12534
51493 25746
25240 12620
57458 28729
29834 59668
38802 19401
28753 57507
26286 52572
14282 28564
9544 19089
21156 42312
10014 5007
23839 47678
14974 7487
28684 14342
36705 18352
37855 18927
51310 25655
27268 54537
7512 15025
14195 28390
66479 33239
47411 23705
7702 15405
9037 4518
14742 29485
32302 16151
10273 20547
41148 20574
17771 8885
2098 1049
3201 6402
57256 28628
5077 2538
22487 44975
11420 5710
26564 53129
12347 24695
14705 7352
17360 8680
19994 9997
849 1699
30860 15430
27582 13791
36941 18470
12840 25681
38807 19403
11628 23257
14313 7156
944 1888
48282 24141
1222 2445
33793 67587
23005 46010
58938 29469
10965 5482
24941 49883
3830 7660
43134 21567
61834 30917
14449 28898
26397 52795
8015 16030
20476 40953
1878 3756
47295 23647
18347 9173
27551 13775
4606 2303
17290 8645
64390 32195
20468 10234
13182 26365
26175 52350
6856 13712
46083 23041
10277 20555
31006 62013
32538 16269
12940 25880
27496 54992
33804 67609
60452 30226
46231 23115
57114 28557
45249 22624
5877 2938
36220 18110
44052 22026
25627 12813
28605 57211
41367 20683
4210 8421
7253 14507
6779 13559
25593 51187
15639 7819
12302 24605
20579 10289
3354 1677
23257 46514
