964
1 0 0 0 0 1 0 0 0 1 1 0 1 0 1 1 1 0 1 0 1 1 0 0 0 0 1 1 1 1 0 0 0 0 0 1 0 1 0 1 0 0 0 1 0 1 1 1 1 0 0 1 0 0 1 0 0 0 0 1 1 0 0 0 1 0 0 1 1 1 1 0 0 0 0 1 0 1 1 0 0 1 0 0 0 1 0 0 1 0 0 1 0 0 0 0 1 1 1 1 0 0 0 1 0 0 0 1 0 1 0 0 0 1 0 0 0 1 1 0 0 1 0 1 1 0 1 0 1 0 0 1 1 1 0 1 0 1 0 1 0 1 1 0 1 1 1 1 1 1 0 1 0 0 1 1 0 1 0 1 1 0 0 1 0 0 0 1 0 0 1 1 0 0 0 0 1 0 1 0 1 0 1 1 1 0 1 1 1 1 0 0 0 1 1 0 0 1 0 0 0 0 1 1 0 0 1 1 1 1 1 1 1 0 0 0 1 0 1 0 1 0 1 1 1 0 1 0 0 0 1 1 1 1 1 0 0 1 0 1 0 0 1 0 0 0 0 1 0 1 1 1 1 0 0 0 0 1 1 0 1 1 0 1 1 0 1 1 1 0 1 1 1 0 1 1 1 0 0 1 0 0 1 0 0 0 1 1 1 1 1 0 1 1 1 0 0 1 0 0 0 0 1 1 0 0 1 1 0 0 1 0 1 0 0 0 0 0 1 1 0 1 1 1 0 1 1 1 0 0 0 1 1 1 1 1 1 1 0 1 1 1 1 0 1 0 1 1 0 0 0 1 1 1 1 0 0 0 1 0 1 1 0 1 0 0 0 0 0 1 0 0 0 1 0 0 0 0 1 0 1 1 1 0 0 0 1 1 1 0 0 1 1 1 1 1 1 1 0 0 0 1 0 1 0 0 0 1 0 1 1 1 0 1 1 1 0 1 1 0 0 1 0 1 1 0 1 0 1 0 1 0 0 1 1 1 1 0 1 0 0 0 0 1 1 0 1 1 1 1 0 1 0 1 0 1 1 0 1 0 1 0 1 1 1 0 1 0 1 1 0 1 1 1 1 1 0 0 1 1 0 0 1 1 0 1 0 1 0 0 1 0 0 1 1 1 1 0 1 1 1 1 1 0 0 1 0 0 0 1 0 0 0 0 0 0 1 1 0 1 1 1 1 1 1 0 1 0 0 1 1 0 1 1 1 0 0 1 1 0 1 0 0 0 1 0 1 0 0 0 0 0 1 0 1 0 0 1 0 0 0 0 1 0 0 1 0 1 0 0 0 0 0 0 0 0 1 1 1 1 1 1 0 1 1 0 1 0 0 0 0 1 1 0 0 1 1 0 1 0 0 1 1 0 1 0 1 1 0 0 0 0 0 0 1 0 0 1 1 1 1 1 1 1 1 0 1 1 0 1 1 0 0 1 0 0 1 1 1 0 1 0 0 1 0 1 0 0 0 1 1 1 1 1 0 0 1 1 1 1 1 1 1 0 1 1 1 0 1 1 0 1 1 1 1 1 1 0 0 0 0 0 0 0 0 1 0 0 1 1 0 1 1 1 0 0 0 0 0 0 1 0 1 1 1 1 1 0 1 1 1 0 1 1 1 1 1 1 1 0 0 0 0 1 1 0 1 1 0 0 1 1 1 0 1 1 1 1 0 0 1 0 1 0 0 0 0 1 1 0 1 0 1 1 1 0 1 1 1 0 0 1 0 1 1 1 0 1 0 1 0 1 0 0 0 0 1 0 0 0 0 0 0 0 1 1 0 0 1 0 0 0 1 1 0 1 0 0 1 0 1 1 1 0 1 1 1 1 0 0 0 0 1 1 1 0 1 0 0 0 0 1 0 1 0 0 0 1 0 1 1 1 1 1 1 1 0 0 0 1 0 0 1 0 0 0 0 0 1 1 1 0 1 1 0 1 0 0 0 1 1 0 0 0 1 1 0 1 0 1 0 0 0 0 0 0 0 0 1 1 0 1 0 1 0 1 0 0 0 1 0 1 0 0 0 1 1 1 1 0 1 1 0 0 1 1 0 1 0 0 0 1 1 0 1 1 0 0 1 1 1 1 1 0 0 0 0 0 1 1 1 0 1 0 0 0 1 1 0 1 0 0 1 1 1 1 0 1 0 0 1 1 0 1 0 0 1 1 1 1 1 1 1 1
746 47
310 174
837 742
736 679
937 297
225 796
410 160
249 488
806 757
344 465
137 269
521 271
850 240
414 30
26 801
55 18
158 448
912 11
538 933
659 771
165 608
702 457
831 80
809 503
394 311
709 130
197 305
67 63
846 362
98 519
640 131
251 345
856 210
273 619
787 376
460 701
586 196
699 959
727 251
458 669
217 443
423 373
889 562
322 575
784 100
504 960
716 902
296 45
244 18
764 865
220 631
740 638
605 922
715 468
303 232
59 938
559 218
432 528
347 812
947 753
889 450
364 225
953 849
914 835
541 682
689 342
397 721
339 955
606 487
130 477
570 460
861 289
276 224
215 348
520 638
444 457
735 917
636 444
28 935
313 748
169 103
493 159
862 334
947 8
142 662
215 307
815 849
626 515
523 903
623 586
741 963
535 258
265 685
963 941
448 487
242 211
176 930
957 183
780 942
603 813
906 359
867 152
40 820
61 254
576 580
306 628
17 866
2 512
761 877
182 246
712 799
370 498
415 229
281 320
402 55
777 850
839 843
467 684
607 841
349 408
557 44
665 385
454 614
826 865
16 278
181 177
217 793
9 733
485 663
898 215
934 71
612 559
720 162
739 70
277 527
51 853
214 891
173 54
303 392
887 222
540 523
216 220
563 944
400 210
250 120
446 884
401 676
676 613
611 884
870 793
871 192
368 779
126 46
575 525
342 958
142 390
855 779
127 384
240 597
643 936
118 493
660 757
339 813
135 829
831 261
227 489
486 277
372 542
357 260
44 550
395 564
551 704
662 304
951 955
398 646
428 531
39 446
85 581
145 708
827 752
319 160
739 10
311 925
66 790
100 660
938 270
336 546
964 114
542 309
238 873
913 740
634 818
946 583
187 841
41 697
257 98
290 698
647 800
923 544
717 116
337 249
866 720
895 698
287 714
769 767
758 513
107 4
928 607
899 765
527 222
774 272
429 118
266 427
29 197
750 166
345 339
584 666
822 792
359 782
379 453
923 164
265 940
169 690
933 785
239 185
700 707
654 165
35 329
566 691
271 961
266 618
789 512
595 437
834 650
660 876
944 37
376 233
298 773
42 828
420 810
2 56
13 186
33 423
651 123
554 231
490 201
250 15
687 323
538 71
600 885
865 232
750 124
772 231
160 177
819 95
146 814
188 144
851 386
391 117
424 613
154 430
543 530
728 533
253 633
952 270
452 540
147 49
125 10
794 419
423 36
319 60
850 863
26 45
541 348
756 590
594 426
104 881
925 935
193 272
142 343
306 24
66 271
358 739
802 182
363 948
670 928
872 804
796 915
763 662
621 315
422 16
932 109
928 770
492 579
854 258
345 890
781 954
783 707
629 252
789 751
615 426
219 928
213 759
315 725
937 398
434 217
877 229
380 351
757 855
837 457
329 34
931 4
308 278
775 824
686 502
226 153
932 368
461 55
77 919
892 487
523 228
97 365
571 113
869 48
953 532
750 814
395 736
704 443
323 344
150 111
648 754
905 614
155 158
230 808
222 480
435 253
581 791
445 910
350 409
190 647
214 936
332 909
131 460
412 637
577 726
230 734
34 268
366 494
641 93
911 469
212 776
920 335
499 508
46 916
542 830
455 481
681 711
132 400
766 632
487 680
24 685
827 392
456 169
938 223
405 947
316 938
103 76
447 70
519 921
655 386
293 854
339 35
510 525
573 38
668 506
766 850
477 144
133 509
749 810
27 343
421 593
537 644
237 140
915 267
962 52
579 785
387 642
832 279
90 142
709 211
754 775
795 310
930 781
582 426
300 930
236 437
939 213
341 584
292 554
626 433
430 19
16 534
52 230
471 148
537 48
703 162
330 475
279 671
310 80
221 752
835 170
177 96
669 64
108 585
473 700
11 104
124 943
214 380
246 371
547 439
147 944
502 961
264 805
872 745
666 172
879 191
408 68
371 558
337 107
53 489
675 391
238 746
550 442
23 790
119 218
128 153
340 609
203 39
722 571
160 500
190 832
778 941
752 457
64 747
384 140
229 70
174 50
269 315
453 539
202 519
265 284
536 139
251 92
886 387
242 631
684 539
858 807
264 639
79 638
832 207
144 684
140 911
960 352
638 578
805 438
600 952
697 948
498 634
44 780
823 932
483 590
713 502
714 924
706 112
218 354
783 412
716 338
550 909
30 507
440 807
137 929
110 167
104 893
821 336
378 85
342 83
355 384
503 931
526 814
518 470
957 860
247 536
101 908
553 353
881 256
923 489
511 569
297 75
471 37
894 299
129 87
302 837
185 713
619 835
164 424
567 583
621 710
421 491
744 681
875 588
106 29
792 331
572 509
89 449
656 696
440 301
942 772
755 800
549 575
724 126
239 599
883 185
899 282
494 886
235 308
576 500
350 201
719 919
395 874
893 84
150 255
150 327
864 271
436 501
949 263
548 632
848 548
743 514
304 136
845 81
391 596
189 624
638 507
712 633
689 771
767 161
620 144
180 477
355 314
664 389
817 336
733 576
824 383
847 890
194 266
350 726
170 357
431 773
797 33
150 655
307 135
566 399
645 532
758 306
509 900
794 732
179 816
43 430
241 624
719 130
94 156
828 374
455 97
449 61
561 481
673 192
907 195
686 582
686 289
294 610
663 848
928 20
935 107
121 39
168 816
416 638
572 260
650 252
806 57
50 382
496 239
163 621
751 312
208 379
375 64
456 72
434 501
812 810
348 877
25 218
323 725
744 270
924 75
204 876
349 598
197 792
57 851
497 881
411 563
676 927
217 672
591 102
479 922
777 317
850 959
636 688
878 441
127 882
463 116
901 358
852 342
655 532
450 267
601 340
822 410
335 245
608 747
529 432
79 644
755 353
587 243
307 160
872 21
225 835
468 313
875 799
888 41
616 602
829 320
625 840
12 435
426 935
964 451
476 890
140 871
555 929
945 844
407 8
208 472
108 922
321 768
394 497
592 549
142 957
82 330
833 312
212 12
22 366
485 517
406 65
773 755
536 86
498 327
130 74
4 285
466 107
629 269
731 643
767 771
404 523
718 914
138 214
669 202
186 112
690 113
813 407
173 23
737 58
362 36
837 565
1 222
693 786
421 171
760 345
295 556
703 198
956 13
360 89
369 102
555 862
907 136
773 447
41 938
366 705
847 693
49 7
112 181
224 946
679 506
388 941
5 55
719 579
289 123
674 136
417 711
38 9
193 924
437 661
726 134
36 169
897 57
504 667
717 542
151 557
683 612
354 228
6 804
516 619
145 355
209 721
694 407
762 896
515 627
21 545
202 738
506 868
467 708
630 464
166 272
303 149
620 233
881 22
284 531
525 203
799 365
730 484
117 556
912 167
258 790
893 546
234 328
798 768
19 39
730 318
376 698
203 700
677 902
803 593
856 746
95 847
480 91
773 859
317 370
289 418
101 869
701 861
596 493
729 586
811 542
318 681
406 365
658 602
15 562
99 515
649 242
94 198
796 604
102 723
957 641
474 675
773 459
791 357
355 464
168 783
39 775
447 625
346 627
162 47
661 356
264 512
3 665
589 839
671 511
331 844
372 728
393 152
752 838
35 206
139 636
723 665
319 274
515 448
397 79
616 794
278 875
605 51
242 525
811 303
495 61
544 175
333 357
960 593
158 633
631 866
828 299
904 506
470 934
161 288
193 918
393 942
677 794
274 187
146 494
557 759
641 950
75 361
339 113
930 324
411 291
462 782
8 679
332 82
259 155
768 452
367 13
98 961
964 595
732 591
3 549
867 26
191 805
355 568
657 3
561 262
769 413
845 535
280 594
244 512
648 52
738 692
821 109
293 560
425 543
445 238
260 828
163 131
954 572
326 460
200 280
928 14
178 943
591 141
917 924
570 930
689 543
186 596
642 356
958 583
283 156
635 546
157 411
184 606
825 215
205 706
403 637
842 240
689 88
142 505
559 441
358 916
241 16
421 625
381 359
649 622
558 737
347 806
62 310
530 552
748 690
695 941
485 26
576 628
494 399
158 263
377 764
841 558
590 345
227 199
624 115
875 582
272 617
65 736
200 547
537 175
451 73
436 172
43 105
396 604
2 574
934 857
853 20
286 433
704 34
703 674
652 781
350 360
174 234
850 529
905 209
653 716
87 678
30 294
211 664
122 193
144 765
226 612
584 755
445 527
113 913
577 462
524 790
457 586
340 741
245 457
319 482
478 467
836 830
142 820
760 906
589 568
37 514
569 788
499 532
50 493
411 537
618 887
880 923
395 656
248 451
143 65
920 1
21 173
794 69
79 32
56 891
78 534
874 31
25 113
807 783
925 388
338 948
275 336
522 257
926 15
896 621
222 122
598 267
789 211
384 243
325 866
314 67
958 149
129 33
