166
0 1 0 1 0 1 0 1 0 1 0 1 0 1 0 1 0 1 0 1 0 1 0 1 0 1 0 1 0 1 0 1 0 1 0 1 0 1 0 1 0 1 0 1 0 1 0 1 0 1 0 1 0 1 0 1 0 1 0 1 0 1 0 1 0 1 0 1 0 1 0 1 0 1 0 1 0 1 0 1 0 1 0 1 0 1 0 1 0 1 0 1 0 1 0 1 0 1 0 1 0 1 0 1 0 1 0 1 0 1 0 1 0 1 0 1 0 1 0 1 0 1 0 1 0 1 0 1 0 1 0 1 0 1 0 1 0 1 0 1 0 1 0 1 0 1 0 1 0 1 0 1 0 1 0 1 0 1 0 1 0 1 0 1 0 1
45 46
38 37
57 58
144 143
31 30
10 11
120 121
35 34
119 120
146 145
77 76
55 56
158 159
63 64
97 98
39 38
84 85
47 46
54 55
163 162
32 31
2 1
122 121
88 89
19 18
67 68
141 142
119 118
152 153
66 65
53 54
79 78
35 36
17 16
149 148
2 3
43 44
108 109
123 124
77 78
150 151
154 153
61 62
137 138
72 73
13 12
157 156
113 112
48 47
137 136
39 40
10 9
3 4
6 7
74 73
8 9
26 25
45 44
100 101
23 24
115 114
28 29
80 81
60 59
126 125
24 25
111 112
84 83
134 135
123 122
133 134
67 66
70 71
7 8
15 14
147 146
145 144
166 165
163 164
14 13
154 155
75 74
42 41
164 165
128 127
97 96
70 69
101 102
27 26
59 58
136 135
49 50
21 20
157 158
51 50
16 15
91 92
64 65
56 57
105 104
33 34
110 111
18 17
107 108
71 72
83 82
68 69
133 132
95 94
127 126
82 81
32 33
103 102
118 117
61 60
52 53
100 99
116 117
22 21
48 49
129 130
99 98
130 131
43 42
161 160
29 30
76 75
109 110
129 128
150 149
4 5
103 104
41 40
28 27
6 5
139 140
93 92
93 94
88 87
159 160
139 138
37 36
125 124
12 11
52 51
85 86
80 79
106 105
116 115
86 87
20 19
148 147
89 90
91 90
113 114
151 152
156 155
161 162
96 95
141 140
143 142
106 107
62 63
132 131
22 23
