3791
0 0 0 0 0 0 1 1 1 0 1 1 0 0 1 0 1 1 0 1 0 0 1 0 0 1 0 0 1 0 0 1 0 1 0 0 0 1 0 0 1 0 1 1 0 0 1 1 1 1 0 1 1 1 1 1 1 0 1 0 1 1 0 1 1 1 1 0 1 0 1 0 1 0 0 1 0 1 0 1 1 0 0 0 0 1 0 0 1 1 1 0 1 0 1 0 0 1 0 1 0 1 0 1 0 0 0 1 0 0 0 0 0 1 1 0 1 0 1 0 0 1 0 1 0 1 0 1 1 0 1 1 0 0 1 0 0 0 0 0 1 0 1 0 1 1 1 0 0 1 1 0 0 0 1 1 0 0 1 0 1 1 1 1 0 1 0 0 0 1 1 0 1 1 1 0 1 1 1 1 1 0 1 1 1 1 0 0 1 1 0 0 0 1 0 1 0 0 0 0 0 1 1 0 0 0 0 0 0 1 1 0 1 1 1 0 1 1 1 1 0 0 0 1 0 0 0 0 0 0 0 0 1 1 1 0 1 0 1 1 1 1 0 0 0 1 1 0 0 1 0 0 0 0 1 1 0 0 0 1 1 1 1 0 1 0 0 0 0 1 1 0 0 1 1 1 1 0 0 0 0 1 1 1 0 0 1 1 0 1 0 1 0 0 1 0 0 0 1 1 0 1 1 0 0 0 1 0 1 0 0 1 0 1 1 0 0 0 0 0 0 0 0 1 0 0 1 0 1 1 1 1 1 0 0 0 1 1 0 1 0 1 0 0 1 0 1 0 1 1 1 0 0 0 1 0 1 0 0 1 1 0 0 0 1 1 1 0 1 0 0 0 0 0 1 1 0 0 1 0 0 0 0 1 1 0 0 0 1 1 0 1 0 0 0 0 0 0 0 0 0 0 0 0 0 1 1 1 0 1 0 1 1 1 1 0 1 0 1 0 0 1 1 0 0 0 0 1 0 1 0 0 1 1 1 1 1 1 0 0 1 0 1 1 1 1 0 1 0 1 1 0 1 0 1 1 0 1 1 1 0 0 0 0 0 1 0 0 0 0 0 0 0 1 1 1 1 1 1 0 1 0 0 0 0 0 0 0 1 1 1 1 0 0 0 0 1 0 0 1 0 1 1 0 1 0 1 0 1 1 0 0 1 1 1 1 1 1 1 1 0 1 0 1 0 1 0 0 0 0 0 1 1 1 0 1 1 0 1 0 0 1 0 0 0 1 1 0 0 1 1 0 0 1 0 1 0 1 0 1 0 0 0 1 1 0 0 1 0 0 1 0 1 0 1 0 1 0 0 1 1 1 1 0 0 0 0 1 0 1 0 0 1 0 0 0 0 0 0 1 0 0 1 0 1 1 0 0 1 0 1 1 0 0 1 0 1 0 0 0 1 0 0 0 0 1 0 1 1 0 0 1 0 0 0 1 0 1 0 0 1 1 1 0 1 1 0 1 1 1 0 1 0 0 0 0 0 0 0 0 0 0 0 1 0 0 1 0 0 1 1 1 1 1 1 0 1 1 1 1 0 1 1 1 0 1 1 1 1 0 1 1 1 0 1 0 0 1 1 0 1 0 0 0 0 0 1 0 0 1 1 0 1 0 0 1 0 1 0 1 0 0 0 0 1 1 1 0 0 0 1 0 1 0 1 0 0 1 1 0 0 1 0 1 1 0 1 1 0 0 1 0 0 0 0 1 0 1 0 1 1 0 0 0 1 0 1 1 0 1 0 1 1 0 1 1 1 1 0 1 1 1 1 0 1 1 1 1 0 0 1 1 0 1 1 0 0 1 1 1 0 0 0 1 1 1 0 0 1 1 1 0 1 1 1 1 0 1 1 0 1 1 0 1 1 0 1 1 1 1 1 1 1 1 0 1 1 0 0 0 0 0 0 0 1 1 0 1 1 0 0 0 1 0 1 0 0 0 0 0 1 0 1 0 1 0 1 0 1 1 0 1 1 1 0 0 1 0 1 0 0 1 0 1 1 1 0 1 0 0 0 1 0 1 1 0 1 0 0 0 0 0 0 0 1 0 0 1 0 1 1 1 1 0 0 0 0 0 0 0 1 1 0 1 0 1 0 0 0 0 0 1 0 1 1 1 0 0 1 1 0 1 0 1 1 1 1 0 1 1 0 0 0 0 0 1 1 0 1 1 1 0 1 0 0 1 0 0 0 0 1 0 0 1 0 1 0 1 1 1 0 0 1 0 1 0 0 1 0 1 0 1 1 0 1 0 1 1 1 1 1 1 1 0 1 1 1 1 0 1 0 0 0 1 0 1 1 1 0 0 0 1 1 0 0 1 1 0 0 1 1 1 1 1 1 1 1 0 1 0 1 1 0 1 1 1 0 0 1 1 0 1 1 1 0 1 0 0 1 1 1 0 1 1 1 0 1 1 1 1 0 0 1 0 0 0 0 0 1 0 0 0 0 1 1 0 0 1 0 1 0 0 1 0 1 1 0 1 0 0 1 1 1 0 0 1 0 1 0 1 0 0 0 1 1 1 1 0 1 0 0 0 1 0 0 1 0 0 0 0 1 1 0 1 0 0 0 1 0 0 1 1 1 1 1 0 0 0 1 1 0 1 1 1 1 0 1 0 0 1 1 0 0 1 0 1 0 0 0 1 1 0 1 0 0 1 1 1 1 1 0 0 1 1 0 0 0 1 0 0 1 1 1 1 1 1 1 1 1 0 0 1 0 1 0 0 1 1 0 1 1 0 1 0 1 1 0 1 0 0 1 1 0 0 0 1 0 1 1 0 1 1 1 0 0 1 1 1 1 0 1 0 1 1 1 1 0 1 0 0 1 0 0 0 0 1 0 1 1 1 0 0 1 1 0 0 1 1 0 0 0 0 0 0 0 1 0 0 1 0 0 0 1 1 1 1 0 1 1 0 0 0 1 0 0 1 0 1 1 0 0 0 0 1 1 1 1 1 0 1 0 0 1 0 1 0 0 1 1 1 0 0 0 0 1 0 1 0 0 0 1 1 1 1 0 0 0 1 1 0 0 0 1 0 0 0 0 1 0 0 0 1 1 1 1 1 0 0 0 0 1 1 0 1 0 1 1 1 1 1 0 0 0 0 0 0 1 0 0 0 0 1 0 1 1 1 1 1 0 0 1 0 0 0 0 1 1 0 0 0 1 0 1 1 0 0 0 0 0 0 1 0 1 1 1 0 0 1 1 0 0 0 1 0 0 1 0 1 1 1 1 0 0 0 1 1 0 0 1 0 0 1 1 0 0 1 0 1 1 0 0 0 1 0 0 1 1 1 1 1 1 1 1 1 1 0 1 1 0 0 1 0 1 1 0 0 0 0 1 1 0 0 1 0 1 0 0 1 1 0 1 1 1 0 1 1 0 0 1 1 1 1 0 1 0 0 1 1 0 1 0 0 0 0 1 1 0 0 1 0 0 0 1 0 0 1 1 1 0 1 0 0 1 0 1 1 0 1 1 1 0 0 0 1 1 1 0 1 0 1 0 0 0 1 1 0 0 0 0 1 0 0 1 1 0 0 1 1 0 0 0 0 1 0 0 1 0 1 1 0 1 1 1 1 0 0 1 0 1 1 0 0 1 0 0 1 1 0 1 0 0 1 1 0 1 0 1 1 1 1 0 0 1 1 0 0 0 0 0 1 0 1 1 1 1 0 1 0 1 1 1 1 0 0 1 1 0 0 1 0 1 1 0 1 0 1 1 1 0 0 1 1 0 1 0 1 0 0 1 0 0 0 1 1 1 1 1 0 0 0 0 1 0 1 0 0 1 1 0 1 1 0 1 0 0 1 1 0 1 1 0 0 1 0 0 0 1 1 1 1 0 0 0 1 1 0 1 1 1 0 1 1 1 1 0 1 0 1 0 0 1 0 0 0 0 0 1 1 0 0 0 1 1 0 0 1 1 0 0 0 1 0 0 0 0 0 0 1 1 1 1 0 1 0 0 1 1 1 1 0 0 0 1 1 1 0 0 0 1 1 0 0 1 0 0 0 1 1 1 0 0 0 0 1 0 1 1 1 0 1 1 1 1 1 0 1 1 1 1 1 1 1 1 0 0 1 1 1 1 1 0 1 0 1 1 0 1 0 0 1 1 0 0 0 0 1 1 1 0 1 1 0 0 1 0 1 1 1 1 0 0 1 1 0 1 0 0 1 1 1 1 0 1 1 1 0 0 1 0 1 1 1 1 1 0 0 0 1 0 0 0 0 0 1 0 0 0 0 1 0 0 0 0 1 0 0 0 0 1 0 1 0 0 1 0 0 0 0 1 0 1 1 0 1 1 0 1 0 0 0 0 0 0 0 1 1 0 0 1 1 0 0 1 1 1 1 0 0 0 1 0 0 0 0 1 1 1 1 0 1 1 1 1 0 0 1 1 1 0 1 0 1 0 1 0 1 1 0 1 0 0 1 1 1 0 1 0 1 0 1 1 1 1 0 1 0 1 0 1 1 1 1 0 0 1 1 1 0 0 1 0 1 1 1 0 1 0 0 0 1 0 0 1 0 0 1 0 1 1 0 0 1 0 1 1 0 0 0 0 0 1 1 1 1 1 1 0 1 1 1 0 0 1 0 1 1 0 0 1 0 1 0 1 0 1 0 0 1 1 1 0 1 0 1 0 1 0 0 1 1 1 0 1 0 0 0 0 1 0 1 1 0 0 0 0 0 1 1 0 1 1 1 1 1 1 0 1 0 1 1 0 1 0 1 1 0 1 1 1 0 1 0 0 0 1 1 1 1 1 1 1 1 0 1 0 0 0 0 1 0 1 0 0 0 0 0 1 1 0 0 1 1 0 0 0 1 1 0 0 1 0 1 1 0 1 1 0 0 0 0 0 0 1 1 1 1 0 0 1 0 0 1 1 0 1 0 1 1 0 0 1 1 0 0 1 1 1 0 0 1 0 0 1 0 1 1 1 0 1 0 1 0 0 0 0 1 0 1 1 0 1 1 0 0 0 0 1 0 1 1 0 1 1 0 1 0 1 0 1 1 1 1 1 0 1 1 1 1 1 1 0 0 1 0 0 1 1 0 1 1 0 0 0 1 0 1 1 1 0 0 1 0 1 0 1 0 0 0 1 1 1 1 1 1 0 1 1 0 0 0 1 1 0 1 0 1 0 0 0 1 0 1 1 0 0 0 0 1 1 0 0 0 0 0 0 1 0 0 0 0 0 0 1 1 0 1 1 0 1 0 0 1 1 0 0 1 1 0 0 0 1 0 0 1 1 1 1 0 0 0 0 0 1 0 0 1 1 1 1 0 0 1 1 0 0 1 1 0 0 0 1 1 0 1 1 0 1 1 0 0 0 1 0 1 1 0 1 0 1 1 0 1 1 1 1 1 0 0 0 0 0 1 0 0 0 0 0 1 0 1 1 1 1 0 1 1 1 1 0 1 1 0 0 1 1 0 0 1 1 0 0 0 1 1 1 0 1 0 1 1 1 0 1 0 1 1 0 1 1 0 0 1 1 0 0 0 1 0 1 0 1 0 1 0 0 1 1 0 1 1 0 0 0 1 0 1 1 1 1 0 0 0 1 0 0 1 0 0 0 0 1 1 1 1 0 1 0 0 1 0 0 0 0 0 0 0 1 1 0 1 0 1 1 1 0 1 0 1 1 1 1 0 1 1 0 1 1 0 1 0 0 0 1 0 1 0 0 1 0 0 1 0 1 0 1 0 0 0 1 0 1 1 1 1 1 0 1 1 0 0 0 0 1 0 0 0 0 1 0 0 0 0 1 0 0 1 1 1 0 0 0 1 1 1 0 1 0 1 0 0 1 1 1 0 0 1 1 1 1 1 0 1 0 1 1 1 1 1 1 1 1 1 1 1 0 1 0 0 0 1 1 0 0 1 0 0 1 1 0 1 1 0 0 1 0 0 1 0 0 0 1 1 1 0 1 0 0 0 1 1 1 0 0 0 0 0 1 1 0 0 1 0 0 1 1 1 1 1 0 0 1 1 0 0 0 0 0 0 0 0 0 0 1 1 1 1 0 1 1 1 1 1 0 1 0 0 1 0 1 1 0 0 0 0 1 0 1 1 0 1 1 1 0 0 1 0 0 1 1 0 0 1 0 1 0 0 0 0 0 0 0 1 0 0 1 0 1 0 1 1 1 1 0 1 0 1 1 0 0 0 1 1 0 1 1 0 0 1 1 1 0 0 1 1 0 0 1 1 0 1 1 1 1 1 0 0 1 1 0 1 1 1 1 1 1 1 0 1 1 1 0 1 0 0 1 1 1 0 0 0 1 1 0 0 1 1 0 1 0 1 1 0 0 0 1 0 1 1 0 1 1 1 1 1 1 0 1 0 0 0 0 0 1 0 1 1 0 0 1 0 1 0 1 0 0 0 1 1 1 1 0 1 0 1 0 0 0 1 0 1 0 0 0 0 1 0 0 1 0 1 0 0 1 1 0 0 1 0 0 0 0 1 1 1 1 0 0 0 1 1 0 0 0 1 0 1 0 0 0 1 0 1 0 0 1 1 1 0 0 1 1 0 0 1 1 0 0 1 1 0 1 0 1 0 1 1 1 0 0 1 0 1 0 1 1 1 1 0 0 0 0 0 0 1 0 1 1 1 1 1 1 0 1 1 1 1 1 0 1 1 0 1 0 1 0 1 1 1 0 0 1 0 0 1 0 1 1 0 0 0 1 0 1 1 0 1 0 1 1 0 0 0 0 0 0 1 1 0 0 0 0 0 0 1 1 1 0 1 0 0 0 0 1 0 1 1 0 0 0 0 0 0 0 0 1 0 1 1 1 0 0 0 0 1 0 0 1 1 1 0 1 0 0 0 1 1 1 1 1 0 0 0 0 0 1 0 1 0 0 0 0 0 1 1 1 0 0 0 1 0 1 1 0 1 0 0 1 0 1 0 1 1 0 1 1 1 1 0 1 1 1 1 1 1 0 1 1 1 0 0 0 0 1 1 0 0 0 0 1 1 0 1 0 1 1 1 1 0 0 1 0 1 0 1 1 0 1 1 1 1 0 0 1 1 0 1 0 1 0 1 0 0 0 1 0 0 1 1 1 0 0 0 0 0 0 0 1 0 1 0 1 0 0 1 0 0 1 0 1 1 1 0 0 0 0 0 0 0 0 0 1 1 1 0 1 1 0 0 1 0 0 1 1 1 0 0 1 1 1 1 1 0 0 1 1 1 1 1 1 0 0 1 0 1 0 1 0 0 1 0 1 0 0 1 0 1 1 0 0 0 1 0 0 1 1 0 1 0 0 0 0 0 1 0 0 1 0 1 1 1 0 1 1 0 1 1 0 1 0 1 1 0 1 0 1 1 0 0 0 1 0 0 1 0 1 0 0 1 1 0 1 0 0 1 0 0 0 0 1 0 1 0 1 1 1 1 0 0 1 0 0 0 1 0 1 0 0 0 0 1 1 0 1 1 1 1 0 1 0 1 1 1 1 0 1 0 1 1 0 0 0 1 1 1 0 0 0 1 0 0 0 1 0 0 0 1 1 1 1 0 1 0 0 0 1 1 1 1 0 0 1 1 1 0 1 0 0 1 1 1 1 0 1 0 0 1 0 0 1 0 0 0 0 1 0 1 0 1 0 0 1 1 0 1 1 0 0 0 1 0 0 1 0 1 1 0 1 0 1 1 1 1 0 1 1 0 1 0 0 0 0 0 1 0 0 1 0 1 1 0 0 0 1 0 1 1 0 0 0 0 0 0 0 0 0 1 0 1 0 1 1 0 0 0 1 1 0 1 0 1 1 0 1 1 0 1 0 0 0 0 1 0 1 1 1 1 1 0 1 1 0 1 0 1 1 1 0 0 0 1 0 0 1 1 0 1 1 1 0 1 1 0 1 1 1 1 1 0 0 1 0 0 1 1 1 0 1 0 1 0 1 1 1 0 0 1 1 0 1 0 0 0 1 0 0 1 1 0 0 1 0 0 0 1 1 0 0 1 0 1 0 0 0 1 0 0 0 0 0 1 0 1 0 1 0 0 1 1 1 0 0 1 0 0 0 1 0 0 0 0 1 1 0 1 1 1 1 1 1 1 1 0 0 0 0 0 0 0 1 1 1 1 0 0 1 0 1 0 0 1 1 0 1 1 1 0 0 0 1 0 1 0 1 0 1 0 0 1 1 0 0 0 0 0 0 1 1 1 1 1 0 0 0 1 0 0 1 0 0 1 1 1 1 1 0 0 0 0 1 0 0 1 1 0 1 1 0 0 0 1 1 1 1 0 0 1 0 0 1 1 1 0 0 1 1 0 0 0 1 1 1 1 1 0 0 1 0 0 1 0 1 0 1 0 1 1 0 0 0 1 0 0 1 1 1 0 0 1 1 0 0 1 0 1 0 1 0 0 0 1 1 1 0 0 1 0 0 0 1 1 1 0 1 0 0 0 0 0 1 1 0 0 0 1 0 1 1 0 1 1 1 1 0 0 0 0 1 0 1 0 0 0 0 0 1 0 0 1 1 1 1 1 0 0 0 0 1 0 0 0 1 0 0 1 0 1 1 0 0 0 1 0 0 0 1 1 1 1 1 0 0
3578 2002
2197 2156
647 2586
2012 2365
618 1888
2925 3410
328 1271
3549 1956
2564 457
1435 1350
3330 1696
1788 3635
989 988
1064 3638
3791 1237
1235 2061
1403 1453
557 730
981 2803
3054 2608
1063 636
187 2298
2573 3209
2978 454
3097 3729
276 2387
675 2864
37 1829
2292 1902
837 1084
3323 2389
1441 1265
2104 2805
2203 2935
2629 2677
2052 3247
251 1598
856 1431
954 3741
1975 2145
3652 2957
1248 3589
1743 1736
2473 1809
1269 568
159 1156
3507 2622
307 3194
2033 3539
1657 750
2267 1324
2897 1463
95 5
2573 1628
3726 259
495 956
1779 2064
3732 869
638 3579
203 2578
881 1068
1695 924
1038 1161
3514 1913
1362 2662
3722 1370
3487 3313
2386 1633
3196 2278
3131 2813
306 827
3291 2290
917 2230
2556 2470
2588 3061
521 1642
1199 3303
1670 2837
20 2776
2646 3339
813 8
3580 3011
1166 784
569 932
3661 1866
3024 1342
3061 2048
2828 2971
944 744
2096 3117
2086 3124
3442 1651
3380 1990
2836 1769
2540 3554
2975 14
3310 2709
139 2972
3559 426
1205 2136
3390 1372
1841 3665
1752 3075
1172 3678
3782 2124
2153 3156
91 3756
1930 3532
1275 2723
2908 2611
2353 1600
1395 2534
1501 3367
2581 996
603 2522
2362 169
3468 2821
3683 2707
4 3318
2763 96
428 222
3370 294
544 3319
1906 1950
2958 3238
659 3311
1161 620
3148 1805
839 220
2193 2295
1082 2004
274 1756
3091 2653
3093 1662
203 2683
1000 2969
2199 3549
2090 1532
2589 1363
1600 2245
1131 2761
924 351
2291 644
1120 1965
2103 2017
2526 3643
158 2076
1801 1738
189 198
1675 3537
2109 836
1840 575
3676 1369
130 3584
1818 1311
1151 3318
1231 2488
3181 1705
1204 3390
1945 2599
413 3
3526 355
1535 3279
1889 3713
2192 1972
3441 2799
45 2529
2691 929
797 1689
1136 1301
1981 2603
12 3720
2914 2942
3438 1494
3654 2978
1161 3540
1255 968
1920 3672
2010 2937
2509 1407
1409 2889
605 3224
2467 243
2520 656
2640 211
2782 3599
1368 2477
509 3787
607 1067
539 1924
2532 2720
1581 63
3632 853
1926 1628
2929 3286
3389 596
1037 311
2770 147
2181 444
2137 2340
2030 2280
3608 3428
126 3282
532 474
900 2896
2236 3724
2318 3325
1358 654
363 3260
2878 1676
1313 96
1751 2894
559 2423
572 3170
1360 688
352 1455
3352 2615
2282 2644
2985 274
892 3476
2779 1472
1524 2492
1565 3650
627 1098
796 3591
2566 1711
3379 1131
3407 1971
1341 834
3747 1000
1571 2746
967 531
2102 2793
1182 2365
1729 949
483 2873
172 2194
3126 249
621 679
1139 1589
808 1653
564 3437
2007 1746
1082 1870
1711 305
382 969
3572 489
2057 1420
1246 3398
2209 390
3600 3531
1561 3014
1625 1946
154 2131
2574 2944
3706 1712
1647 2572
798 725
1294 2410
3243 1479
2343 1066
2750 2682
2855 1741
3250 1443
1768 3662
1035 578
3362 650
1546 2434
2044 1697
1749 1198
1656 2731
178 316
3452 2147
1920 2015
614 56
1226 886
3211 2174
2729 210
1583 1324
1146 3667
1302 3441
2007 2314
756 2860
2475 2329
3181 25
2379 2108
2669 1364
1502 2220
3301 1848
3427 3443
1038 929
174 235
567 3783
2462 2108
3693 3493
1969 3224
3372 808
2959 3167
2958 752
932 3451
770 805
990 2835
2827 1621
2641 898
2637 824
2771 335
725 2194
2816 917
384 3239
2743 3188
2925 2110
1447 2631
2952 665
3292 1996
1778 2928
109 840
2094 1518
1238 2725
1372 1192
1939 2669
3447 1748
456 2750
1006 354
516 223
3720 1094
117 2612
1616 2857
1722 455
2143 885
2818 2815
3130 1444
2412 3578
2894 1114
585 1758
617 1489
1290 740
2075 2948
723 464
2794 1394
3534 405
2649 438
2640 2506
100 2025
1724 1186
1208 997
680 2939
330 1636
1869 404
3188 982
2385 163
1054 522
1575 2148
826 3694
3074 520
671 1434
2606 2109
2621 533
2980 1836
3419 868
1136 2432
1940 3264
2934 2811
911 1198
1818 2445
2767 2709
2151 2064
776 3585
3195 700
43 34
3112 1907
1065 480
1028 1514
324 1677
2418 2891
679 1473
3421 2702
1339 321
1165 1724
376 2622
429 2558
1566 1665
3629 3071
2852 2815
1984 311
2196 2578
1827 21
1053 1443
447 1397
3507 1455
2704 126
1819 2816
310 1472
2130 2746
2492 958
2879 724
156 1308
3091 2559
2814 2160
2340 3475
830 632
1619 1955
1432 2031
3369 2810
1772 2260
2311 2939
868 2126
3003 3570
1929 1483
904 1226
3581 2500
916 2999
2865 2057
3387 2937
3004 3181
2216 296
29 514
3567 3489
512 3689
69 2003
1592 138
356 2006
3027 82
1619 2628
919 3560
3246 145
396 2019
3689 2129
1375 2595
2005 1413
3530 1486
2323 3631
1669 161
2023 212
3735 1919
411 2158
1515 2526
3541 3197
1982 523
400 1090
2640 196
370 1031
2968 3007
2717 2639
792 2919
2764 3180
2666 2932
2144 2463
1958 1894
2432 3147
3504 1113
927 613
3133 3669
3314 1124
2363 243
510 2314
1186 2085
1621 912
3108 236
61 3559
3525 3766
940 2819
1590 3467
1220 422
3336 1837
158 2958
247 1667
2672 289
832 3481
1530 1469
3691 1445
1611 3780
3524 343
3643 3642
3200 842
1454 1903
1735 1054
68 3161
2786 3017
169 3730
97 642
3308 3179
383 3356
2145 2280
2630 125
2780 2817
1205 2856
2200 289
2368 1554
1751 1360
2995 1998
1703 2952
2045 3152
2292 1317
1214 2121
1933 2637
725 1985
3648 2118
1702 1393
2346 3632
2822 3786
2883 3582
587 3758
1288 2774
771 1496
2263 1895
1510 3363
3275 334
3440 511
3486 1954
3101 2656
188 3328
3444 3003
809 1715
1263 1594
16 2895
620 1482
2325 3046
2544 2330
944 686
2748 3
2738 1285
2452 3671
3173 3726
2457 1426
621 1448
1238 2525
1944 2734
3401 372
3636 2205
1155 1426
1632 309
882 1288
3685 2666
991 1635
2940 590
3109 3576
1978 2431
1997 2998
888 1618
3405 3332
1146 2264
1506 2313
3073 3733
2676 2873
2708 2632
1158 2991
2456 2079
1434 3767
3016 1013
1791 602
2886 1645
1437 1005
2716 572
2641 2542
1236 1674
2451 2553
1102 1917
1531 2243
1208 1974
541 599
3306 1721
1919 2066
2188 2607
1239 362
2689 2864
3396 3624
3129 1944
1846 1343
2332 558
2757 337
2833 1989
1319 407
403 2572
1017 3243
2462 1622
912 1005
800 600
2304 132
716 1925
16 1722
39 2484
368 319
3663 871
3721 1775
2999 676
2283 1129
1165 2255
1667 1632
3308 3577
115 2257
1847 3743
1755 2034
848 1351
2461 3514
1545 2357
3789 861
738 1383
346 3718
2134 539
181 368
3290 1291
2862 3753
3059 2072
2105 1465
1716 3259
2998 2846
2077 3574
1841 669
366 2544
2594 2221
333 1116
3348 2458
1930 2204
1708 266
2256 231
3668 1763
794 2260
1322 3764
1567 2722
3345 3279
3766 2246
3529 2671
318 2186
1725 310
503 1375
3082 2859
2764 1711
1107 835
994 1572
287 615
1081 1330
2689 2866
2470 1094
3048 2495
2641 1188
328 704
407 2196
512 441
2989 2931
2485 2664
2784 1399
504 1271
3194 1031
479 1631
3009 2373
1873 3300
1784 3448
2011 638
793 936
2891 3020
2562 71
2647 2081
2861 3101
202 2482
3601 3784
1762 1464
3688 2816
2239 692
756 821
3050 1015
3046 1558
395 1300
83 2123
850 3378
3438 2839
1893 1840
2239 365
314 1679
2895 975
2239 1954
3527 2207
3764 2696
316 3640
455 479
1577 2997
3709 561
533 3026
2174 1064
1260 1321
79 2937
1539 673
586 2973
1606 463
186 1702
855 1766
2988 405
510 237
2466 3607
755 304
2250 2382
2793 3149
3573 3532
1647 1961
3444 972
3479 3498
2563 1423
2713 1931
3353 2718
1655 1041
234 1962
657 1743
3530 1612
1242 1997
2736 1910
182 2197
3616 2820
1816 2880
2319 1318
3480 2897
2337 2535
3492 377
131 825
507 2836
3176 521
1049 2248
440 1693
395 2616
1536 130
2481 3516
1207 1507
3007 1753
3290 2781
641 552
1273 246
2032 2834
3429 120
2213 1129
3246 2737
1277 2155
1701 3355
2620 3361
281 1801
1482 392
288 1862
640 1329
3101 2941
3469 2313
3423 1142
3226 195
3445 36
1260 2851
1986 1634
877 1014
360 130
258 3653
219 625
2854 2463
3374 2618
1820 1137
3309 203
1575 3760
3221 3081
2367 2008
391 1849
1616 2130
812 120
1578 2739
3375 3176
1776 1316
1362 1477
1230 3679
624 2211
2733 342
154 3119
1921 2735
2172 2625
443 1315
1243 2216
1857 2715
2331 614
2763 3103
3048 787
1345 214
2769 1873
2080 3640
2511 2494
1292 2975
1673 978
240 3329
648 1180
1686 3586
579 804
1978 3280
183 3146
2279 1626
22 996
136 338
19 3318
1190 733
1317 3225
338 3337
3433 2799
454 2226
3344 1684
1861 872
2962 625
1074 1902
2570 2828
548 2059
161 2804
1950 1726
528 646
2135 3544
223 3336
1216 1908
280 810
1422 1993
2741 2477
2053 2355
3366 3325
3503 276
102 2823
3100 3731
102 2652
976 1689
338 1371
58 426
2765 1620
2032 263
854 760
3341 109
2666 3664
2158 205
609 3431
207 715
2113 1245
2657 3605
3572 1717
3008 2906
1528 2407
2706 726
2482 3162
1585 2037
1065 257
1471 2824
1197 1277
2293 1406
3757 3626
659 1747
2337 2644
666 2091
2557 2299
562 2357
3715 2167
2802 796
383 3348
2234 2654
2398 1140
1419 2768
592 2196
3595 3415
831 2020
2105 3369
1021 421
3353 3671
2830 3672
3667 3388
918 83
2860 1774
1709 747
1390 3177
2694 3206
2989 2543
2741 707
2414 763
979 609
3416 3696
760 1152
3128 234
3348 944
2760 3777
2221 3352
2054 3391
2749 2974
1314 706
285 3284
2951 1334
1953 2726
3568 2801
1245 87
2149 3330
2407 1618
581 2114
1730 1670
3642 1545
2368 2655
2059 1975
698 3690
3623 1839
835 2158
1905 3497
1060 2020
354 3094
3761 2798
460 2947
2444 808
1110 1008
284 1761
3249 3364
3633 584
496 1436
1156 838
1097 967
3597 718
3200 924
3273 2625
2919 2236
3092 401
3593 2159
3340 3249
2890 3436
3328 3784
3011 100
1298 2013
1190 406
2979 2644
460 2258
1050 3236
808 3627
1995 3223
1882 1010
3139 2996
485 3764
3301 2944
2806 3049
1079 3717
794 1215
2903 2085
1720 1179
875 2147
3305 3650
2291 3096
127 2086
1979 1644
2933 84
2538 1645
1305 350
3037 1852
473 78
2186 3116
2049 3416
3027 3532
858 1168
2544 2917
3144 2394
2115 2482
3271 3331
476 3187
3231 1373
3458 2419
1327 2188
3127 3193
3310 3139
3393 2671
1680 1457
2352 1699
1543 2089
399 135
3171 2402
803 2295
3459 975
42 3345
2789 3566
2268 2839
1102 1200
341 3480
2026 2107
1811 3536
240 3276
2838 489
1285 554
1753 2413
3340 2152
2328 1337
3100 2976
3320 1178
3106 1035
2212 3413
1788 1127
111 2616
866 658
2397 257
3180 1573
1247 2426
3165 405
1829 2307
2712 1458
1551 957
153 113
3784 3580
1884 1756
2085 497
3645 1570
1950 1825
2244 2378
1742 1773
203 3145
2949 3758
1058 1587
1435 174
462 1690
67 3672
2201 2930
2240 1055
832 2411
566 2849
2955 2790
157 447
1249 781
3177 3110
1544 294
2719 3164
3138 2889
89 1436
194 2835
1526 781
2674 1983
2097 1036
159 124
1678 3324
1996 3695
1945 115
1941 1414
2580 1015
405 925
1881 782
3083 1465
495 28
417 2143
3610 1606
3374 1404
3147 1556
3366 513
2056 1008
119 534
3090 2866
3078 3633
1020 3553
508 1293
3331 1006
524 3404
3675 1464
2237 2520
2042 1806
3120 532
2527 939
3630 1244
1619 1349
3703 3393
208 3087
2908 116
3551 3748
1170 936
3768 185
187 977
2086 2895
432 1871
612 3081
2698 3245
2101 2760
2681 2285
507 2301
1328 1966
2154 3672
2832 1130
26 884
984 1284
3430 2335
2360 1566
3532 3225
1096 2078
1155 3266
1497 3033
152 2353
3346 3452
2809 2752
1454 2545
1818 1886
3491 1184
2239 3670
3555 2166
3468 256
2111 1026
3136 3535
817 556
3143 2967
1312 2392
2469 3323
3253 3089
2202 388
1287 3294
1118 2913
2919 177
1428 1103
1874 920
523 1650
2632 3526
180 1794
636 181
731 2654
1405 2354
513 2651
233 3577
739 3635
2453 713
2549 1442
2068 3107
2538 673
1868 936
3757 268
2516 1711
119 2813
3180 313
2028 1404
2843 899
1595 1615
2424 737
3033 526
3739 2214
3007 1988
3323 128
3692 496
1668 3359
1816 3327
3140 510
3677 404
665 1465
35 1934
46 1218
1111 2487
1206 473
2626 926
1593 1226
2545 3585
723 1564
2528 1664
595 3563
3472 3178
3172 1002
2732 132
3711 1280
3135 3002
2693 2163
487 3512
933 735
1846 1740
1121 1834
1069 2138
674 2871
1277 1320
503 3482
2420 3109
1080 1082
2947 1217
431 659
2972 1326
1564 2265
344 3212
3316 3700
1144 2222
38 1250
2347 1875
2430 1462
1935 2200
2637 2613
1229 92
267 2756
1385 1872
156 3274
1630 369
1043 3360
773 3004
3597 779
2552 218
3495 1742
588 2012
3086 917
169 3677
2839 3233
3720 3237
2176 1038
1377 1398
1800 3319
960 2203
3484 3496
1547 1887
1659 3565
3605 3579
1045 1232
731 1721
873 3172
2206 3734
1515 81
285 216
562 3593
1520 1397
1706 2382
2224 971
2686 2102
2621 2080
2843 1911
1992 386
2514 3256
762 3603
3191 380
567 1359
1634 2391
3103 603
986 667
1912 29
1143 2053
112 630
2058 2388
897 2161
2701 1412
3144 1800
2330 1267
911 797
1449 2519
1990 600
1634 1676
519 321
779 2304
1306 1574
3102 577
449 3264
803 3554
701 3393
629 1207
3333 3541
438 1718
788 2057
2571 2639
146 1635
2636 3212
2525 1408
436 771
3784 1734
939 681
40 495
3705 2541
1495 452
90 2531
3207 3763
255 761
2196 1112
2779 1241
848 3030
3093 3699
576 3171
1058 2600
1279 2829
3139 2672
3087 33
995 2742
2789 3648
149 3165
2534 3150
96 348
3604 1949
3329 3782
245 1864
2104 1955
402 2201
2488 699
932 415
3367 987
86 605
2692 326
934 1068
2681 1825
1442 569
3463 617
685 103
2552 1770
768 1610
2882 1048
2158 2450
3341 1332
1318 531
362 1733
2466 2963
2773 3752
1209 2946
2005 2289
1348 1950
2773 1056
337 2217
661 2007
2351 2387
3594 3214
3552 3071
939 541
2615 2428
3339 2581
836 2665
166 1817
2273 998
3160 881
1237 2785
475 1697
995 107
3394 2630
1808 3169
2162 3206
1262 743
2797 3644
738 3158
1286 193
1639 1611
471 674
2723 2636
539 17
2939 845
3551 849
2908 3556
639 2946
2571 3433
3063 139
865 3784
2950 551
721 808
1959 3142
240 1246
1429 3135
398 3708
742 1620
1946 3457
569 2340
1094 2161
1641 2835
963 1652
3360 2712
1471 245
798 3202
1050 3376
1490 1219
3552 2245
445 3241
1814 3349
2060 2370
1211 1225
754 180
197 2303
3084 3395
712 749
1149 891
3199 3285
3335 2918
2141 3136
3397 1545
2826 1614
1984 876
794 3351
2775 1579
1488 1009
2251 434
3276 3779
2273 3602
2733 844
2327 3440
2976 2258
3377 460
623 79
2275 997
2882 945
2368 3122
3416 2182
790 2102
2402 702
135 3102
1350 719
728 1826
2659 336
2719 823
1481 468
786 980
3674 1411
19 3037
1560 978
1374 3742
2030 1437
2112 2128
2815 1165
2678 2548
314 3668
3406 1069
571 2070
490 1011
493 868
1138 2493
2885 1194
2268 1133
2017 3463
543 1574
3541 935
1742 3538
1521 1380
2977 1386
2850 2367
916 709
1928 287
654 3302
3268 48
3197 2717
609 3162
2146 3275
3095 2745
2309 139
1821 1301
2349 3078
1193 3064
2083 2296
3125 3677
2544 775
3418 1628
2878 2093
2986 2647
1466 3215
2531 2504
736 2751
533 971
1755 1576
946 2897
1778 2000
606 3705
1830 1801
640 2433
1491 1853
1215 2071
2447 2071
283 3138
3510 693
386 2031
336 509
83 3135
934 2202
193 3649
2695 3562
3283 1304
2889 3204
2723 2035
2864 3219
76 2639
1120 2701
3387 3714
355 3158
2734 1592
2841 1669
2765 3523
852 1266
2523 1767
1327 2970
2035 1574
3760 715
1147 479
1174 735
63 2985
2874 1850
446 2943
1491 229
2228 2123
2395 3657
2098 1063
235 1126
992 930
1856 143
1519 58
545 3349
153 2744
486 2329
1448 879
501 1536
1372 2189
2166 174
2476 1229
2732 70
1095 1795
3108 297
1815 2539
444 1890
1523 2852
1968 1246
330 2006
1986 2769
1216 1044
756 1022
2029 2869
47 2395
833 2216
2019 1446
2058 3262
742 3701
1251 1399
2400 2013
171 3404
1829 1948
3168 431
3707 3772
3590 3309
204 1280
3502 1798
858 3028
1402 3243
3401 2177
774 1014
461 1355
1754 2925
544 1334
1902 1520
1559 667
347 3440
1806 2381
450 3586
2215 988
2514 3501
2747 92
9 3771
1687 2360
2113 3118
2115 2713
3747 685
2948 3251
1803 1391
2444 2982
1100 643
3182 120
763 3031
1032 3494
1147 27
66 3524
2588 3716
3313 3464
2033 201
1815 1686
613 1325
905 1587
1977 3466
775 3594
1814 329
2377 2759
3228 694
3319 2423
1025 1848
124 3720
3642 2249
2812 460
94 2963
1431 2409
2984 3702
2477 2456
2099 1511
1084 1338
2547 2888
1610 525
1484 2139
133 2660
3115 2870
3386 3676
1447 1614
1533 722
97 1036
832 88
1627 664
1287 1873
2020 1507
308 316
784 2324
2433 1923
3534 2218
573 2262
1443 776
3384 2807
2084 2353
2622 3757
558 992
2701 3253
384 1832
3186 871
1251 2981
1548 830
1994 3471
1341 524
645 1969
1090 3025
3693 885
1459 1261
615 286
1966 61
1229 1377
1949 408
3255 921
1739 2262
3581 1039
284 3463
3676 2863
1821 2935
271 1337
3595 3490
254 1272
1641 1729
266 1456
2154 2591
3490 1766
2037 82
3011 1077
1299 1423
2877 1224
1143 3208
1861 3768
2178 3484
2033 113
1659 2223
2891 1817
948 1680
3382 3005
2041 1065
3143 3682
1684 2633
3075 2090
1534 2045
2065 2241
3104 2587
3631 2044
3065 1817
1746 172
2128 2162
1694 3095
1414 2018
3295 3772
3686 2009
466 1524
1724 3554
2766 2429
909 3398
3660 3408
2487 3622
1078 2528
3194 3660
729 3402
3445 2487
2927 1578
553 1396
1565 1087
3005 3597
2070 1123
3398 1205
7 676
1544 553
1520 1439
7 2608
2417 130
448 1930
2420 1210
234 1738
1128 2156
605 2199
2958 1073
1498 1191
1415 3013
428 3253
1137 1030
2989 966
1726 544
1067 2321
3453 2385
2518 962
902 1217
1003 677
3036 3401
2253 384
1233 1858
1585 3719
2042 1964
3309 2461
1301 1776
734 2990
2583 2886
1888 961
3057 1757
1977 3273
2634 3399
228 1803
1786 1474
3740 2160
2014 190
1545 3263
854 53
2724 8
2689 3098
1571 665
2928 2574
2362 2763
2334 3312
3508 1780
766 2393
917 1410
1104 2095
2462 1124
1802 3684
1042 656
3093 3198
2270 600
796 2796
1000 3569
1571 38
2397 736
1741 985
3288 1781
3542 1553
2594 596
1352 250
3779 3316
1125 784
2030 1932
1833 999
2069 817
2610 3668
805 2554
3261 618
2107 812
1252 2983
1002 2133
701 3489
2180 3191
2359 1510
2940 1143
943 3071
2435 3322
194 594
846 1313
77 619
1517 2194
3483 168
1777 3714
470 148
691 1601
736 3761
1682 520
922 2225
601 456
574 2319
1759 2906
3388 1269
976 1358
3679 1913
2648 399
1790 3657
3471 233
1668 1883
1358 694
461 1369
60 2641
553 1470
1626 18
2953 2344
3485 1191
1657 3539
465 231
2568 2687
3463 3013
689 1747
1447 3657
3334 3470
2009 1033
2279 1422
2561 3509
3230 1446
748 1692
3558 60
874 1943
1100 1792
2628 1097
2468 2415
2625 224
2528 3752
2490 3772
3157 209
571 2643
1181 708
778 861
740 2757
2146 70
937 2092
2122 2396
2408 737
3499 210
2678 1026
3424 1818
2932 174
2909 1579
550 3157
2085 597
2168 1910
1110 1389
1211 1506
3066 167
2665 195
153 2789
10 3712
2160 3108
1007 3649
771 2497
2780 2123
1140 1759
1989 2063
189 3771
538 1636
2307 2515
3156 3681
910 1812
487 1222
1719 693
2082 2867
2831 1253
753 1344
3196 2651
2409 650
542 2910
2233 3473
1525 3259
1173 227
2846 2333
854 439
3655 3092
3611 1046
1667 2436
1335 2083
2440 121
366 1837
608 2288
1863 1275
739 2316
2315 2652
1325 2598
1160 1702
1669 1381
1150 1714
2191 1860
3711 672
1693 595
1692 1940
2147 2311
3218 3488
1084 1831
2472 1728
2503 435
3540 458
2819 880
889 3532
610 1712
2439 2570
1871 2063
31 2976
2939 2128
658 2551
3226 300
2374 3073
2415 2280
2168 1438
1322 480
963 29
1658 1917
1806 547
942 1888
3435 1160
509 2984
2465 1148
3547 2453
3657 581
2356 1444
892 140
2934 1745
2212 2547
1858 635
1415 1927
238 1155
3534 1892
1728 302
3783 1154
3034 3416
2876 893
3432 2164
2725 2624
882 3028
3690 3042
1774 1573
3260 565
3429 1844
2894 727
1411 1281
1940 3556
3010 870
689 2517
1867 2262
3123 1707
195 3409
3516 2784
124 2374
1971 2073
2827 2240
341 3621
3397 2042
2372 1615
1787 565
3270 3368
353 569
1733 489
410 261
1070 3173
710 738
1093 1348
763 2758
2617 769
120 1847
2740 2656
2187 942
1139 5
212 2594
1464 443
3055 528
2406 3223
1272 56
2953 3723
122 675
1048 1405
2533 349
3254 942
2186 970
3147 2345
1630 118
3548 2852
2509 2286
3462 2826
3116 1900
3222 3118
2463 1367
263 3729
2825 2799
3017 3520
3571 2339
425 1728
3770 906
3245 2787
903 2710
3447 2575
2953 3044
2960 333
576 2558
3682 580
2593 2242
3476 2057
3440 2614
1042 2536
798 1810
2929 3235
1455 1268
3220 2563
799 1320
190 3436
724 1229
2468 2005
3528 1552
1844 3454
164 899
753 2449
1242 3528
2261 2684
1537 3037
424 2492
572 469
1819 2201
327 2008
2166 2511
1749 3654
687 1122
3108 1419
620 3620
2708 1215
2812 3659
2120 1174
1184 2501
874 3669
3209 3293
1370 2540
3635 2275
1922 615
3434 1475
118 1894
2350 2974
2541 3134
3208 3583
2624 805
833 2440
714 4
3260 1282
1811 3019
454 3218
2570 2870
2881 3505
1234 13
459 1082
705 3624
2460 2317
1554 845
3499 643
332 3031
2225 3594
3169 3724
492 3233
2135 52
505 3024
3459 3727
3606 491
1478 1034
856 1852
1325 910
154 2243
2502 3073
1855 2005
325 1671
1393 762
2980 2933
3707 1167
3425 2448
3287 2396
80 3682
389 3061
1344 3781
980 2264
1538 3526
728 3290
3421 537
683 2351
19 137
508 935
345 2196
540 1934
814 3416
2428 3258
273 2699
2639 2328
1171 1723
851 637
337 51
3584 99
2299 2731
3408 3342
1101 2550
2464 2096
2297 1138
2732 264
2170 2875
3082 2456
1800 1874
2891 254
1834 2963
951 170
482 1029
2646 2391
1743 3618
1356 2696
3743 259
2911 957
93 336
2736 1258
1766 1455
1535 1492
1987 2821
3632 315
467 626
1452 698
1694 3001
2754 1259
1952 1854
3603 651
3243 633
1346 1617
854 3647
1117 3704
265 215
3456 2639
2271 2647
1516 2770
431 2771
1140 2158
21 481
3449 3209
3297 1988
940 1200
3497 1149
2345 1687
101 3064
1910 3690
1864 2038
476 3660
601 2371
2528 2853
2406 819
2559 2054
527 3282
390 3139
726 175
957 2116
1246 183
3194 1469
1091 1299
3381 1706
3061 3085
887 1837
682 1833
2022 1431
746 1410
2685 2530
298 2609
2917 3070
3725 2867
2353 3775
2866 1768
674 1308
1839 2346
2107 543
2218 2446
2395 1203
1761 142
197 242
984 1725
3021 3773
2934 2438
831 163
1338 530
691 3622
110 3400
184 2038
2958 215
742 2885
2257 2122
1176 1888
3617 2132
2406 3104
3190 2590
1879 9
766 3244
2867 582
826 3651
751 1793
53 3168
1189 924
3415 2349
310 1227
410 3142
283 1691
1164 339
1569 1187
2195 1029
905 3737
1052 639
500 2342
316 1211
3104 717
2401 1654
22 3575
3003 497
2854 812
1825 1166
2277 1016
3519 1557
2343 1231
246 1508
585 2858
1481 336
3234 2337
1399 2832
540 422
3513 271
1949 1490
108 3433
722 37
3515 1621
852 1999
2475 1639
1107 2846
2153 258
1412 994
3420 62
593 1651
2547 749
2225 3163
3179 3211
18 647
1682 73
1007 1466
1173 847
2560 3333
1700 1496
2264 616
800 80
2210 120
2379 2303
3051 2131
526 2310
2135 3170
3065 2438
551 187
281 1020
1774 3193
3077 3237
2041 288
1703 1219
2460 632
946 3023
1685 1428
2634 1982
488 2900
1569 1915
2062 1041
1553 2078
3098 1640
162 896
334 2370
505 640
2912 1426
2705 3242
3500 3353
804 1643
3097 3634
1822 159
2809 3423
1938 567
1747 1341
3069 3167
1679 2661
3566 841
2350 313
3088 2505
3341 3752
3546 1853
2066 3028
1501 557
81 2920
1539 1153
2739 82
2873 2438
857 3629
3757 1333
2260 2892
861 2596
1387 2990
1591 1289
2913 2212
467 3364
136 1559
3271 2453
2939 2001
2757 2355
3613 3508
910 2077
861 434
146 3655
922 2512
1824 2759
2730 1377
358 2262
325 362
519 380
1425 631
843 3080
3160 1579
217 3148
3064 1845
1264 1354
1510 3067
3324 2218
2801 909
896 1731
2712 2746
3358 1175
3017 65
3254 1295
2612 3321
2484 3194
173 120
1724 1504
1944 3567
974 2597
2905 3203
654 1853
2376 2781
2662 2605
578 2455
805 2051
668 2400
3244 947
827 499
202 3127
3111 3644
3184 3262
3149 1495
1193 2039
1668 3726
1623 2676
2738 1095
3267 2679
3437 3674
2755 2635
250 558
2185 3754
1805 106
2369 862
3419 2317
1177 984
2605 1607
829 3138
3157 1185
3557 2085
255 2088
588 2421
870 3159
2374 481
2677 3762
2475 2188
3236 1884
463 430
2287 260
1666 1357
3028 3732
3014 3407
2700 3048
44 2535
1440 2049
1122 3474
784 1346
1102 1264
2192 1019
930 1235
802 1777
1233 628
102 576
1257 2961
3479 628
3503 2238
2761 1386
3760 2430
1090 2956
2564 2397
3242 3599
2837 955
3564 1409
3032 956
1960 470
3221 3656
589 3569
2453 496
3136 810
3680 2396
2814 3093
520 1223
1321 811
1957 3136
3265 1282
487 30
912 3252
448 2087
1760 376
1120 764
423 2842
840 2582
2067 3498
3079 2114
1827 3450
900 2265
3088 1485
606 1856
2856 276
782 119
1610 1067
3619 2589
3281 526
1643 3446
2149 2735
2347 2240
1261 1391
3030 1529
1797 3020
3757 1045
1210 1672
2987 456
652 331
3204 3493
1244 3175
3455 498
1568 2173
1665 1857
795 1546
2380 3663
3056 1563
3464 2507
2976 2603
2139 2345
2155 3266
617 3151
3267 2862
3018 2968
3461 2764
1689 1373
2507 1799
1783 2551
3205 1823
2653 1254
131 2061
1942 598
853 2055
1800 1918
276 1001
1460 2872
2503 2459
2537 1144
1818 655
200 3245
1945 2565
1040 3177
3504 663
772 1853
105 828
1887 1054
282 3352
443 262
706 913
2585 1679
3256 3072
2167 3096
1086 3321
1558 894
1030 2046
2695 2862
2451 1508
20 2578
2091 1782
817 3160
3286 2726
3174 2085
2442 2554
2004 2798
3094 1258
2268 1916
3511 2870
1752 482
222 430
2325 421
2704 1841
72 2886
3284 2539
1089 1182
289 1823
2759 1359
1108 526
3309 3277
2534 3547
3007 283
565 1
3178 3489
806 2068
3026 2405
3021 741
2106 1890
3601 2727
1309 2961
502 3073
430 2941
181 1141
2975 1397
1352 2122
1183 2186
3513 781
1725 727
1085 371
3521 2668
2499 3512
3385 1288
2612 3561
3409 261
1236 1336
2483 158
1653 359
1815 703
1256 3228
710 1641
1474 2142
405 2843
277 2027
563 1282
1567 3079
263 2926
1706 2609
2308 3293
3369 3038
1603 3597
1988 2364
3053 695
3726 2745
3496 3244
2386 3180
1781 666
695 723
2075 3537
2497 6
1646 2240
2957 781
1366 884
3767 213
853 1240
1024 2907
964 3136
28 1991
1843 178
3343 2686
2730 2244
218 277
437 47
3447 775
192 1807
734 828
3254 1433
115 1363
2299 1100
1299 342
2113 1732
2870 3666
1353 3102
958 3497
3750 1265
214 1297
49 1188
3555 959
3528 662
3397 3132
2807 2026
312 178
12 1963
2981 3629
90 1665
110 2100
504 2347
1019 3652
1197 539
272 1610
162 612
1338 453
1106 3244
2946 1826
1405 3392
1570 3745
1297 1047
1866 1434
2390 3261
1950 3683
1298 3592
3363 123
2384 2305
1499 573
3099 234
2763 1868
393 1109
3145 3019
1274 3060
3088 3704
2521 1402
162 145
3257 2865
570 1857
2143 2933
2601 945
1728 1430
1372 1775
3532 928
3229 953
2173 3089
2649 1016
954 1729
230 514
1649 144
2449 2008
2363 2486
3440 3100
43 1065
1194 907
2728 478
852 690
1611 1478
1495 1002
2755 2975
1719 244
2844 2103
546 1015
3430 1299
593 946
3505 1077
2232 46
1706 199
455 418
3012 3358
382 2876
1656 777
2036 2040
3497 1835
3778 1872
2107 1909
209 2956
986 1279
3688 495
768 2778
1461 1424
3619 895
2693 3689
2198 175
2175 781
3202 1737
2662 1797
3260 1453
599 2950
333 3732
2390 1755
3469 568
1895 1516
1794 3532
3421 2838
3161 1310
3671 3270
823 1079
2029 104
1474 1472
1323 3750
2790 1479
3457 1067
2184 981
3652 3540
2314 2973
2512 2299
3687 384
2157 3627
1896 2438
1190 2911
2711 3207
2850 2996
2806 179
1975 270
832 1898
993 1805
2577 2272
1916 375
3322 1273
1350 1400
1558 1935
2127 2023
3113 3139
2171 3000
1272 2829
3092 959
1727 2934
3047 442
3617 2216
3039 1550
2948 2047
1480 1789
3207 608
711 2981
3431 2673
3146 2954
1661 269
2246 2950
3669 2280
2937 2797
509 3378
1940 1294
317 1458
3738 3665
2670 1947
3426 1064
2554 849
381 3471
709 604
3383 2871
2170 1166
1851 2232
3487 1972
797 3473
1859 1157
295 1346
2235 3003
864 3287
1831 996
2131 2868
1995 3679
3054 2880
2572 134
3478 610
2111 3517
459 1897
2923 2471
2790 258
2191 910
2375 2569
3030 1065
2454 273
1707 2772
783 2440
2119 1201
1997 1555
1349 731
1060 1103
3596 3704
2793 2510
3610 1088
1874 1331
1941 1960
3134 2074
1057 30
2007 394
2622 2663
538 672
3350 2125
3448 1793
1947 756
2371 232
1515 112
2961 1427
3450 346
1547 1386
3154 3068
3759 3553
3285 2179
195 1137
3554 2619
728 2038
1450 1762
2854 2915
3446 645
2119 2425
15 2096
394 1181
1962 1948
1945 3299
2716 1202
2969 1548
32 935
3014 291
1899 3232
2997 3039
1805 1635
3255 3046
3612 340
686 916
2602 3000
2528 3338
89 2486
45 234
2942 934
3621 2485
2612 1366
280 2478
3627 3104
52 1580
1803 1645
1521 2133
2472 1171
3607 1150
419 1126
1659 2793
3764 1017
2411 2183
988 3487
325 2899
2788 1398
1240 2909
432 3506
2925 3052
2112 3691
1929 2589
151 377
2849 2612
1072 3022
1505 485
311 3043
2757 2424
1310 1500
1635 1030
2479 578
2319 729
3425 275
256 1231
385 2091
3574 2266
55 1838
2800 974
3262 541
566 1967
1263 2294
393 1900
1408 2000
333 1991
409 3624
127 695
3112 65
2108 3251
1811 733
425 1503
2214 3759
3068 332
2031 2705
1541 486
938 922
1876 2351
1076 1083
1287 1849
3058 2447
650 3298
48 1430
2185 705
2854 1312
1414 1145
2953 822
1307 1635
1245 1710
2302 2095
1589 3371
3062 1418
1584 251
2717 1813
521 1935
2719 1561
1661 2215
3478 260
3232 1914
336 181
3414 2053
3209 3001
948 2688
244 180
1814 1757
668 2473
1933 3126
68 1569
3598 1689
309 1637
2595 3203
2043 1080
503 3086
1480 3433
1795 1445
3451 2792
631 315
305 2167
1185 863
2173 3105
2924 30
1075 2237
529 1114
1878 1366
2611 1902
3384 1461
2698 1072
1607 2123
23 2881
2676 3658
425 3166
307 41
2150 2882
2474 1245
3627 624
2517 62
920 3568
2844 1062
285 2231
1165 615
3533 521
1404 404
865 826
2970 2983
1904 388
1433 505
2723 829
2127 1224
2904 3072
3529 2496
354 2590
2480 1265
2005 3411
2089 311
3791 2058
1633 2667
107 3324
1391 2219
3153 3741
2463 3460
75 2326
3227 1269
862 1785
1270 3479
660 2493
951 3712
622 142
629 2039
1144 1715
518 2637
3320 3004
1084 1680
2697 889
2523 2463
2535 394
3087 3485
767 1170
2923 1241
2317 2696
2137 3597
176 1946
2762 2113
1868 3365
670 1065
1467 1020
3630 1247
2197 1885
3746 1193
2553 1744
1229 2668
1278 1836
1764 662
2351 3326
272 2863
1475 1882
1868 2822
980 85
3684 3098
2873 1725
758 3274
1613 1012
2616 3765
1290 890
1274 1648
2144 745
1788 523
2710 2893
3362 759
3662 2627
2965 694
2609 179
3631 3317
3183 2614
3064 515
1091 816
3705 1713
3608 3009
3120 2525
2599 1287
2198 2776
3175 3297
3059 1487
3430 2591
2986 1167
3563 2117
966 3744
2254 1804
3588 2170
100 952
3086 349
975 923
1937 3639
3305 1659
1181 2854
2207 3535
2250 2276
3755 1971
1264 3090
1568 3697
2720 1518
2165 3675
1527 2848
1721 1444
1892 3728
1061 1996
364 128
98 1693
2186 2078
1593 1218
2571 2994
1027 1313
508 1143
2842 3362
2458 3710
2056 1763
3283 1582
59 1312
2206 104
2938 1894
3298 3305
3256 373
2610 2315
343 2171
3057 2610
1099 964
3182 3519
1860 2088
2416 878
1670 3518
1309 3482
758 546
112 250
3214 2852
1646 1298
2346 24
3370 3229
2655 3103
3154 2273
3751 2829
3492 2902
490 333
484 1208
785 3475
2506 2112
2276 1708
1199 1525
282 1033
677 1132
1759 696
716 2632
304 3525
2156 1637
2429 2710
2645 3331
2945 3565
2767 815
2016 1303
677 654
293 2239
357 2334
749 901
1032 253
3252 1233
1884 2258
2585 2492
1989 2880
1416 1586
3042 3663
968 3717
1174 91
818 2384
2354 1565
3245 697
2650 44
2308 46
3008 985
1451 148
2069 3213
1893 1216
3612 1859
839 698
602 563
835 488
167 1616
3756 273
13 2754
2158 2291
2812 1387
1385 1178
3494 3141
3618 1438
1138 1173
3717 299
3664 3159
3370 1729
2995 3107
2872 1872
3736 741
2548 1973
423 1493
3062 2402
2629 2581
3736 2
2630 195
380 237
396 856
3135 1771
128 974
2281 1208
1316 3637
2221 2703
1686 206
492 2508
1588 3129
1747 2366
1792 1076
2589 3189
822 949
2613 2361
2094 3550
2596 1135
3413 1584
2722 349
3100 2698
1195 1347
3539 2443
1398 1332
2796 3744
2845 2919
1359 769
2571 1684
3367 1608
2144 3076
1618 2844
1925 2427
2277 3661
1880 168
378 548
1382 2259
2182 54
3233 2290
934 746
2207 1704
1195 843
3420 1698
3751 1890
3101 2536
89 2404
3606 2796
3169 290
2500 1115
417 1150
1796 73
2524 1454
2090 730
1792 2918
2033 374
3775 3113
191 3595
3238 922
3292 2066
2302 2397
2916 366
1629 1074
3304 1663
3695 2569
612 2072
1978 467
121 2810
379 3286
3476 3403
2642 3296
511 1591
322 1479
2946 1690
2592 1455
1970 2076
2524 915
1327 3501
133 1977
978 37
2976 3586
3650 926
1753 2206
2049 1767
1596 2272
699 653
275 1346
2966 1159
55 1117
1722 2922
3012 2336
2540 3502
3088 1059
3045 1259
2626 2383
1365 206
1549 506
2287 411
2626 399
757 1572
2275 3290
50 3490
3431 165
791 1488
357 1672
3137 2069
1979 838
3074 2509
3785 154
433 2952
655 328
1418 249
1999 2332
1958 361
1184 1693
406 3742
2750 301
1051 3115
1580 3538
1605 637
549 2523
3201 1180
3465 134
2900 2777
710 1296
2859 548
3032 3188
3504 801
3185 2285
1980 1471
3373 1638
2574 689
641 2744
713 2125
225 773
1214 1549
1451 1109
2966 1965
877 2881
1013 2195
3455 130
760 2119
1829 583
2524 2141
1739 1513
155 2436
3220 1983
2338 938
1770 3401
2045 3095
1098 1940
2231 2274
621 2200
2840 114
3219 3357
3439 3633
204 1162
2101 81
2402 1412
986 2555
859 1012
2471 2898
3060 1231
1709 2658
765 3123
2251 1421
3078 441
793 867
2105 1683
2235 2096
2309 3167
2108 1390
1842 760
409 536
3278 789
950 771
2675 922
1546 745
1793 3596
862 3481
2874 2402
1514 326
2791 2795
1899 2936
2739 2623
111 1253
545 1105
1540 3200
303 744
3121 3567
1384 3361
2344 1620
720 2952
74 3189
2322 2332
1984 1599
1596 1037
2783 1360
2446 2794
2242 2269
2269 17
820 2419
3073 664
2537 1545
2847 2973
2206 3006
944 1419
2188 2050
739 277
1688 2898
323 1575
1431 64
863 1705
303 1919
267 2926
965 2798
3712 1652
1936 273
3266 687
2711 1417
1934 2695
1878 2556
2419 1750
494 433
2151 1420
3035 2580
1810 1512
1405 11
3615 1275
65 574
578 1357
1108 1047
2884 3717
3706 2685
3256 3745
427 3612
2002 3335
2881 939
2323 3625
2678 1036
1828 3608
1196 3467
3289 1231
983 5
3589 1995
1598 1589
2689 2368
2042 3446
2365 2294
1214 2414
420 2612
1593 652
2339 101
364 1379
1442 2799
1304 3528
3178 1175
1323 205
3170 1088
1957 649
63 2713
1711 3040
1668 1602
305 860
378 2293
1092 2710
535 2234
475 3294
2519 732
530 1228
1081 3773
2943 3205
2312 1933
716 2546
3769 571
1340 952
3391 3704
913 3728
3428 832
3014 3671
3474 2910
2196 2986
3270 3396
1336 994
3557 801
3422 3738
1164 916
2208 832
241 1628
2267 2480
2992 511
3280 2600
2746 2616
1468 1205
2279 2669
1343 684
3543 1939
2490 2756
2254 410
3359 1865
3014 2224
1423 442
1501 600
2551 876
1485 2791
3783 292
3280 2567
700 3529
2000 2764
3114 3322
71 528
293 1117
1164 1780
3545 3411
3034 1046
2863 3355
2342 1045
695 561
3082 2036
2279 3607
2024 2720
3776 1580
1572 239
278 261
2052 407
3628 2380
1028 2148
3560 3396
878 1080
1191 2907
921 3432
1380 774
2348 2807
416 127
3736 2652
75 2491
538 2802
2753 993
1106 1163
678 2034
2459 1699
2838 3246
3089 3207
1017 2326
1572 637
3757 2721
3029 2743
601 3593
3774 2968
1179 2464
2094 890
2025 465
1261 1832
1012 1510
190 3756
2138 1501
2333 1169
2901 3604
3286 946
469 1661
2259 2567
2112 1463
3115 3237
1099 1283
3061 3221
973 863
362 1002
1302 1411
2341 3286
607 2082
138 3591
1167 1688
1343 1664
2974 3221
3015 2437
2722 1155
1889 1522
560 3196
373 619
2261 1688
1573 189
1233 3484
1150 780
3538 1887
2582 2441
2358 1259
627 1638
1422 2754
3142 2857
660 1453
2190 79
2739 2600
412 1872
659 2550
3033 416
2402 3272
1861 3427
2016 2298
3789 2739
2463 58
2772 3063
1842 840
2501 648
1388 2978
3063 3278
2220 2598
2792 1854
2340 1511
3625 1553
1039 1562
1877 1660
1708 958
3192 1537
735 57
3583 2068
2368 320
3334 3684
660 1129
1020 2252
2703 2065
2964 2306
3187 2561
2179 2389
168 2593
472 3065
1044 3256
2772 883
1392 2343
2158 906
1598 2203
3141 2287
2117 1071
2707 2744
193 3353
1508 918
155 335
1503 466
390 555
2513 360
350 1498
258 2850
2520 2870
2604 1123
2123 2638
252 834
151 1159
238 221
491 1252
2584 2298
591 470
2083 2983
3560 2886
1112 3121
2846 226
1542 3543
3055 1901
2749 1134
207 2724
2002 3674
2306 680
684 1833
782 2190
3646 941
1590 1278
3719 1901
2617 2399
2858 2500
3074 1400
2266 451
938 2497
834 1841
2771 2177
1284 2576
878 114
477 178
36 1782
1095 3582
653 58
2224 611
1384 941
2513 1823
1646 1623
2110 1333
3143 3749
150 1407
2039 578
1276 2107
1716 2137
3116 1624
3768 2924
500 567
3211 2579
1013 2524
139 532
2834 931
1264 2213
2355 1376
2686 3423
1364 1604
1800 2248
3131 2645
2685 1212
3315 3441
1609 2206
343 2261
779 3084
1420 2427
2788 2563
1750 2985
625 374
3305 306
89 2403
1377 914
2465 1402
3596 3522
2385 3615
2157 1089
1023 1061
1586 45
3307 105
3343 3636
1522 2003
3136 3639
2775 2401
2227 2306
2154 1695
3417 2712
1569 1240
598 3622
263 1361
3790 2902
1608 2839
1558 1677
134 550
2865 2547
97 1929
1891 2015
1394 2114
2865 1294
2503 2570
2247 1454
307 3109
414 3209
1336 3211
160 844
517 417
1104 3015
3479 1793
1951 3174
1663 3351
3673 1200
2281 98
2568 3449
2327 2031
1476 3178
3427 3086
1122 1533
3436 1442
1512 2284
3240 2419
359 3073
2174 3354
2921 939
141 1440
1285 3274
2387 2428
1321 2099
3155 323
2320 2575
144 2518
2955 1085
2933 1614
3660 2110
2628 1013
655 2491
2589 1604
3465 1599
3428 3015
1065 2808
1748 3248
177 980
3616 3579
1431 110
2140 2778
3616 271
1651 1449
485 2620
2185 3424
2922 1286
129 2868
573 3147
1221 2327
1157 2765
1028 1887
2498 3725
3636 1178
2169 2220
3327 1877
2190 1615
1881 1262
683 3214
1380 969
301 634
2757 3708
2125 1486
1765 1248
118 2747
807 903
1683 2658
1566 888
2991 3286
1119 3661
14 3347
3587 1496
2495 2404
1002 3405
1886 1597
143 3590
648 3330
2003 921
3025 3216
174 2348
1245 3134
3080 2609
2090 2814
1690 1381
3645 443
2974 1749
397 949
2965 154
2714 3390
2319 3744
2765 1509
2021 3172
2601 78
540 1634
1378 1021
248 871
2062 849
2803 2805
242 2187
2345 3614
2893 2925
2245 2714
3051 1730
33 40
3788 1608
3355 1091
870 451
3582 383
1401 417
3041 1213
1976 2167
908 2370
1004 1079
3217 3538
2680 3386
3070 230
3455 3609
3477 2794
2772 2887
3325 1607
1527 1996
387 357
2959 3698
2480 1807
1521 930
2422 215
293 2125
2056 3466
2848 3241
2489 681
2215 2359
3269 3466
2075 1833
2229 1314
2963 2858
3602 3278
1135 3056
1188 2134
1660 3210
2690 3698
1481 2844
125 3412
2993 200
2092 2602
3531 1789
1386 3641
3109 340
3546 587
1172 434
3110 1213
364 1376
2258 1577
2709 36
1579 1009
242 2936
3434 3198
1516 643
3370 1109
3603 3005
2642 2777
3269 213
142 144
1681 2631
3345 2878
1366 367
2300 453
1018 2197
2384 1187
3320 2070
507 2230
2161 2728
1870 279
2034 3
