100
1 1 1 1 1 1 1 1 1 1 1 1 1 1 1 1 1 1 1 1 1 1 1 1 1 1 1 1 1 1 1 1 1 1 1 1 1 1 1 1 1 1 1 1 1 1 1 1 1 1 1 1 1 1 1 1 1 1 1 1 1 1 1 1 1 1 1 1 1 1 1 1 1 1 1 1 1 1 1 1 1 1 1 1 1 1 1 1 1 1 1 1 1 1 1 1 1 1 1 1
1 34
96 1
13 1
82 1
38 1
58 1
77 1
33 1
76 1
1 91
1 69
93 1
1 66
85 1
81 1
1 19
24 1
1 26
1 43
94 1
36 1
1 21
1 23
1 78
1 6
1 41
11 1
1 63
1 100
1 74
3 1
10 1
86 1
1 73
57 1
52 1
1 90
1 92
1 88
29 1
12 1
64 1
1 71
1 9
1 8
16 1
1 61
53 1
15 1
49 1
1 25
18 1
1 59
50 1
1 28
55 1
89 1
1 75
79 1
99 1
22 1
39 1
68 1
1 47
1 51
1 65
1 14
1 72
83 1
1 45
1 84
1 95
2 1
1 30
1 60
87 1
35 1
1 44
1 80
1 37
42 1
1 67
46 1
70 1
1 5
98 1
1 27
1 7
97 1
20 1
17 1
54 1
62 1
32 1
31 1
1 56
48 1
1 4
1 40
