2411
1 1 0 1 1 1 1 1 0 0 1 1 1 0 1 1 0 1 1 0 1 0 1 0 0 0 1 1 0 0 1 1 1 1 0 1 0 1 1 1 1 1 1 1 0 1 1 0 1 1 0 1 1 1 0 1 1 1 1 1 1 0 1 0 1 1 1 1 0 0 0 0 1 0 1 0 1 1 1 1 1 0 1 1 0 0 1 1 0 0 1 0 1 1 1 1 1 0 1 0 1 0 0 1 1 0 0 1 0 1 1 1 0 1 1 1 1 0 0 1 1 1 1 0 0 0 0 1 1 1 1 1 1 0 1 1 1 1 1 0 1 0 0 1 1 0 1 1 0 1 0 1 1 0 0 1 0 1 1 1 1 0 0 1 1 1 1 1 1 1 1 1 1 1 1 1 1 0 1 1 1 1 1 1 1 1 0 1 1 1 1 1 1 0 0 1 1 1 1 1 1 1 1 1 0 0 1 1 0 1 1 1 1 0 1 1 0 1 1 1 1 1 0 1 1 0 1 0 1 1 1 0 0 0 1 1 0 1 1 1 1 0 1 0 0 1 0 1 1 0 1 0 1 1 1 0 0 1 1 1 1 1 1 1 0 1 1 1 1 1 0 1 1 0 1 0 1 1 1 0 1 1 1 1 1 1 0 1 1 1 0 1 1 0 1 1 1 0 0 1 0 1 1 1 1 1 0 1 1 1 0 0 1 0 1 1 1 0 1 1 0 1 1 1 1 1 1 0 1 1 1 1 1 1 0 1 1 1 1 1 1 1 0 1 0 1 0 1 1 0 1 1 1 1 0 1 1 1 1 1 1 1 1 0 1 1 0 1 0 1 1 1 0 1 1 1 1 1 1 1 0 1 1 1 1 1 1 1 0 0 1 1 1 1 1 1 1 1 1 1 1 1 0 0 1 1 0 1 1 1 1 0 1 1 0 0 1 0 1 1 0 1 1 0 1 1 1 0 1 0 0 1 1 1 1 1 1 1 1 0 1 1 0 0 1 0 1 1 1 1 1 1 0 1 0 1 1 1 1 1 1 1 0 0 1 1 1 1 0 0 1 1 1 1 1 1 0 1 0 0 0 1 1 0 1 1 1 1 0 0 0 1 0 0 1 1 1 1 1 1 1 0 0 1 0 1 1 0 1 1 0 1 0 0 1 1 1 0 1 1 1 1 0 1 0 1 0 1 0 1 0 0 1 0 1 1 1 0 1 1 1 0 0 0 1 1 1 0 1 1 1 1 1 0 0 1 1 1 0 1 0 1 1 1 0 0 1 0 1 1 1 1 1 1 0 1 1 1 0 1 0 1 1 0 1 0 1 0 0 0 1 1 1 1 0 1 1 1 1 1 1 1 1 1 1 1 1 1 1 1 1 1 1 0 1 1 1 1 0 1 1 0 1 1 1 1 0 1 0 1 1 0 1 1 0 1 1 1 1 0 0 1 0 1 1 0 1 1 1 1 0 1 1 1 1 1 1 0 1 1 1 0 1 0 1 0 1 1 1 1 0 0 1 0 1 1 0 1 1 1 0 1 1 1 0 0 1 1 1 1 0 1 1 1 1 0 1 1 1 0 0 0 0 1 1 1 0 1 1 1 1 1 1 1 1 0 1 1 1 1 1 1 1 1 1 1 1 1 0 0 1 1 1 1 1 1 1 1 1 0 1 0 0 1 1 0 1 1 0 0 1 1 0 1 1 0 1 0 0 0 0 1 1 1 1 0 0 1 0 1 1 1 1 1 1 1 1 0 1 0 1 0 0 1 1 0 1 1 1 1 1 1 1 0 1 0 0 0 1 0 1 0 0 1 1 1 1 1 0 0 0 1 1 1 1 1 1 0 1 1 1 1 1 1 1 0 0 1 1 1 1 0 1 0 1 0 1 1 1 1 1 1 1 0 0 0 1 0 1 0 1 0 1 1 1 1 1 1 1 1 1 0 0 1 1 1 1 0 1 1 0 0 0 1 0 0 1 0 1 0 1 1 1 1 1 1 1 1 1 0 0 1 1 1 1 1 1 0 1 0 0 1 0 1 1 1 1 0 1 1 1 1 1 0 1 0 1 1 0 1 1 1 1 1 1 1 1 1 1 0 0 1 1 1 0 1 1 1 1 0 1 0 1 0 0 0 1 1 0 1 1 1 1 0 1 0 0 0 1 1 1 0 0 0 0 1 1 0 0 1 0 1 1 1 0 1 1 1 1 1 1 1 1 1 1 0 0 0 1 1 1 1 0 1 1 1 1 1 1 0 1 1 1 1 1 0 0 1 0 0 1 1 0 0 1 1 1 0 1 1 1 0 1 1 0 1 0 1 0 1 1 1 1 1 1 0 1 1 1 1 1 1 1 1 0 1 0 0 1 1 0 1 0 1 1 1 1 1 1 1 1 0 0 1 1 1 1 1 0 1 0 1 1 1 1 0 0 1 1 1 1 0 1 0 1 1 1 0 1 0 0 0 1 1 0 0 0 1 1 1 1 0 1 1 0 1 0 0 1 1 1 1 1 0 1 0 1 1 1 1 1 1 1 1 1 1 0 1 0 0 1 0 1 1 1 1 1 1 1 0 0 0 0 0 0 0 1 1 0 1 0 0 0 1 1 1 1 0 1 1 1 0 1 1 1 1 1 1 0 1 0 1 1 0 0 1 1 1 1 1 1 0 1 1 1 0 0 1 1 1 0 1 1 0 1 0 1 1 1 0 1 1 1 1 1 1 0 0 0 0 0 0 0 0 1 0 1 1 0 1 1 1 1 1 1 1 1 1 1 1 1 0 1 1 0 0 0 1 1 1 0 1 1 1 0 1 0 1 0 0 1 1 1 1 0 1 0 1 1 0 1 1 0 0 0 1 0 1 0 1 1 1 0 1 0 1 1 1 1 1 1 1 1 1 1 1 1 1 1 1 1 0 0 0 1 1 1 1 1 1 1 1 0 1 1 1 1 1 1 0 1 0 1 1 1 1 1 0 0 1 0 1 1 0 1 1 0 1 0 0 1 1 0 1 1 1 1 1 1 1 1 0 0 1 1 1 1 1 1 1 0 1 1 1 1 1 1 1 1 1 0 1 1 1 0 1 1 1 1 0 1 1 1 1 1 1 1 1 1 1 1 1 0 1 1 0 0 0 1 1 1 0 1 1 1 1 0 1 1 1 1 1 1 1 1 1 1 1 1 0 1 1 0 1 0 0 0 0 1 0 1 1 1 1 0 1 1 0 1 0 1 1 0 1 1 1 0 1 1 0 1 1 1 1 1 1 0 0 1 1 1 0 0 0 0 0 0 1 1 1 1 0 0 1 1 0 0 0 1 1 0 0 0 1 0 1 1 1 1 1 1 1 1 1 1 1 1 0 1 1 0 1 1 0 0 1 1 1 1 1 1 1 1 1 1 1 1 1 0 1 1 1 0 1 1 1 1 0 1 1 1 1 0 1 0 1 1 1 1 1 1 1 1 0 1 1 1 0 1 1 0 0 1 1 0 0 0 1 0 1 1 0 1 1 0 1 1 0 1 0 1 1 1 1 1 0 1 1 1 1 1 1 1 1 1 1 1 1 0 1 1 1 0 1 1 1 1 0 0 1 1 1 1 1 1 1 0 1 0 1 1 0 1 0 1 0 1 1 0 1 0 1 1 1 1 0 1 1 1 0 0 1 0 1 1 1 1 0 1 1 1 0 0 0 1 0 1 0 1 0 1 0 1 0 1 1 0 0 1 1 1 1 1 1 1 1 0 0 0 1 1 0 1 1 1 1 0 1 1 1 0 0 1 1 1 0 1 1 0 0 0 1 1 1 1 1 1 1 1 0 1 0 1 0 1 1 1 1 1 1 1 1 1 1 1 1 1 1 1 1 1 1 1 1 1 1 1 1 1 1 1 1 0 1 1 1 0 1 1 1 1 0 0 1 0 1 0 1 0 1 1 1 0 0 0 1 1 0 1 1 1 1 1 0 1 0 1 1 0 0 1 1 1 1 1 0 1 1 0 1 1 1 0 0 1 1 1 0 1 0 0 1 0 1 0 1 1 1 0 1 0 1 1 1 0 1 1 1 1 0 1 1 1 1 1 1 1 1 1 1 1 1 1 1 1 1 1 1 1 0 1 0 0 1 1 1 1 1 0 1 1 0 1 1 0 0 0 1 1 1 0 1 0 1 1 1 0 1 1 1 1 1 0 1 1 1 0 1 1 1 1 1 1 1 0 1 1 0 0 1 0 1 1 1 1 0 1 1 1 1 1 1 1 1 1 1 1 1 0 0 0 0 1 0 0 1 1 1 0 1 1 0 1 0 1 1 0 0 1 1 0 1 1 1 1 1 1 1 1 0 1 1 0 1 1 1 0 1 1 0 0 1 1 0 1 1 0 1 0 1 1 1 1 1 0 1 0 1 1 1 1 1 1 1 1 0 1 1 1 0 1 1 0 0 1 0 1 0 1 1 1 1 1 1 1 1 1 1 1 0 1 0 1 1 0 1 1 1 1 0 0 1 1 1 1 1 1 0 1 1 1 1 1 1 1 0 1 1 1 1 1 0 1 1 1 0 1 1 1 0 0 1 1 0 0 1 0 1 1 1 1 1 1 0 0 0 1 1 1 1 1 0 0 0 1 1 1 0 1 1 0 1 0 0 1 1 1 1 1 1 1 1 0 1 1 1 1 1 1 0 0 1 1 1 1 1 1 1 1 1 1 0 1 1 1 1 1 1 1 1 0 0 0 1 0 0 1 1 1 1 1 1 0 0 0 0 1 0 0 0 1 0 0 0 1 0 1 0 0 1 0 1 1 1 1 1 0 1 1 1 1 1 0 0 1 0 0 1 0 0 1 0 0 0 1 1 1 1 1 0 0 0 1 1 1 1 1 1 1 0 1 1 1 1 1 1 0 0 1 1 1 1 1 1 0 0 1 1 0 1 1 0 1 1 0 1 1 1 1 1 1 1 0 1 0 1 1 1 1 1 1 1 0 1 1 0 1 1 1 0 1 1 0 1 0 1 1 1 0 1 1 1 1 1 1 0 1 1 1 0 1 0 0 0 0 1 1 1 1 0 1 1 0 1 1 1 0 1 1 1 1 1 1 1 1 0 1 1 1 0 1 1 1 1 0 1 1 0 1 0 0 0 1 0 1 1 0 1 1 0 1 1 1 1 1 1 1 0 1 1 1 1 1 1 1 1 0 1 1 1 1 0 1 0 1 1 1 0 0 1 1 0 0 1 1 0 0 0 0 1 1 1 1 0 1 1 0 1 1 1 1 1 0 1 0 0 1 1 0 1 0 1 1 0 1 1 0 1 1 1 0 1 0 1 0 1 1 0 0 1 1 1 1 0 1 1 1 1 1 1 0 1 1 1 1 1 1 1 1 1 1 1 1 1 1 1 1 1 1 1 1 1 1 1 1 1 1 1 1 0 1 1 1 1 0 1 1 1 1 1 1
2253 903
890 2221
325 129
589 1479
934 372
114 286
2035 813
147 374
915 2281
1683 671
498 1251
1978 790
349 875
2102 842
144 366
927 2313
247 622
223 564
240 607
347 870
830 2074
853 340
1539 613
2078 831
2179 872
77 191
1901 761
605 1517
743 1856
2039 815
315 791
873 2181
712 1783
833 332
345 864
755 1884
599 1503
718 1795
2303 923
338 134
48 117
698 1748
707 1771
307 770
544 1367
2307 925
830 2075
169 429
1357 540
1178 468
440 1104
1647 657
669 1678
403 1009
1429 567
1217 485
1946 778
810 2028
296 746
1797 719
130 328
2152 861
171 437
1397 556
793 316
550 1383
393 154
910 2270
673 1688
746 1862
592 1485
153 390
732 1827
821 2052
209 529
718 1796
228 577
241 96
2013 805
1239 493
646 1621
321 804
2359 944
256 643
781 1952
46 19
639 1606
523 1315
123 309
43 106
576 1448
2381 953
1661 663
7 17
1391 554
699 1751
829 2072
540 213
1106 441
371 930
1290 513
683 271
844 2110
965 2411
512 1288
924 2306
749 1870
904 2254
540 1359
406 1017
955 2387
907 2261
1786 713
1293 514
233 589
837 2090
115 47
178 453
371 146
566 1426
312 784
614 1542
835 2087
2249 901
448 1125
376 944
730 1822
691 1731
647 1623
367 922
477 1199
889 2218
511 1285
339 851
461 181
93 233
618 1549
675 1692
841 2100
1868 749
747 1864
994 397
1020 407
122 308
363 910
882 2203
340 852
1189 473
7 3
105 262
344 862
58 145
142 57
561 1410
308 772
381 150
89 223
192 488
282 711
407 1018
1904 762
250 100
50 123
219 555
133 335
656 1643
1723 688
1140 453
623 1565
460 1157
542 1364
2066 827
777 1944
2176 871
762 1903
62 153
60 149
438 1100
2001 800
2258 905
583 231
958 2394
762 304
500 1258
977 390
283 113
187 76
1117 444
1893 758
239 605
1341 533
268 675
711 1781
792 1983
194 495
497 1250
1231 490
1505 600
643 1615
5 13
789 1975
738 1844
39 16
1603 638
195 496
286 723
264 665
577 1451
551 1386
18 7
78 193
1831 733
23 57
920 2295
2265 908
2185 875
547 1375
832 331
1785 713
779 1949
648 1625
452 1137
718 284
894 2231
1998 799
1048 418
715 1789
269 676
1295 515
1802 721
505 1270
854 340
1275 507
225 568
758 1895
222 562
166 423
693 275
780 1950
345 865
525 1320
504 1267
245 617
619 1552
504 1268
71 28
258 103
964 2408
734 291
1588 633
2244 899
371 931
2376 951
957 2392
1838 736
2146 859
2108 844
963 2406
1188 473
2346 940
545 1371
418 1047
684 1714
198 80
465 1171
178 72
259 650
1917 767
2095 839
615 244
844 2109
908 2264
963 2405
164 416
1656 660
921 2298
3 1
2086 835
635 1595
386 968
830 2073
871 2175
937 2337
2344 939
653 260
664 1665
2183 874
536 1347
482 1209
296 117
274 690
470 1181
345 137
1244 495
216 549
1571 626
704 279
94 236
462 1161
822 2056
2149 860
2275 913
864 2159
734 1832
1079 430
720 1799
693 1735
2088 836
482 1211
591 1483
1784 713
1645 656
1318 524
1876 752
242 611
594 1491
852 2129
107 267
627 1576
1 2
361 906
181 460
75 185
626 1572
1327 528
1614 643
2002 800
673 1687
1010 403
579 1455
1770 706
1323 526
437 1098
554 1392
83 33
1993 797
801 2004
748 297
554 1393
621 1557
1627 649
2071 829
926 369
2097 840
514 1292
635 253
923 368
631 251
1947 778
952 379
767 1916
28 11
707 280
672 267
388 971
709 281
477 188
982 392
1866 748
230 581
141 57
950 2372
263 662
1721 687
1504 599
1326 527
453 1138
250 627
1494 595
920 2294
77 192
964 2409
651 1633
834 332
196 500
262 657
488 1224
518 204
918 2291
940 2345
2121 848
952 2377
2094 838
317 797
642 255
679 1701
380 954
637 1598
236 597
78 31
100 251
963 2407
236 598
704 1765
25 62
463 1165
1807 723
737 1840
1433 569
701 278
2116 846
2367 947
765 1911
1582 630
946 377
588 233
552 1388
638 1601
976 390
1644 656
42 17
930 2321
87 217
1696 676
2399 960
125 316
1236 492
803 2007
2267 909
2385 955
50 20
249 626
689 1726
1668 665
680 1704
206 524
44 108
264 664
1702 679
1624 648
270 681
457 1150
52 128
1912 765
1620 646
766 1914
1060 423
45 18
294 740
20 48
1649 658
1361 541
914 2279
772 1932
434 1090
846 2114
203 514
658 262
636 1596
1634 652
309 776
258 649
159 64
333 836
1222 487
566 1425
575 228
1427 567
1913 766
1837 736
1594 635
517 204
743 1854
922 2302
1334 530
775 1938
160 407
635 1593
151 384
38 94
741 1850
363 143
360 142
343 136
2401 961
528 1328
473 1190
475 187
571 1438
2206 883
35 88
382 958
1887 756
1023 409
588 1475
137 347
750 1872
2212 886
697 1746
1084 432
10 26
1616 644
1942 777
2336 936
313 786
621 1558
429 1076
1853 742
484 1216
921 2299
868 2169
346 137
564 1418
43 18
728 288
172 70
212 85
324 812
2396 959
2077 831
715 283
1814 726
1898 760
47 19
1465 583
171 435
731 1825
1892 757
180 458
1510 602
941 2348
28 70
67 165
268 107
182 74
1937 775
1516 604
133 54
1000 399
289 729
919 2293
952 2378
953 2379
625 1569
54 134
522 1312
1148 456
739 1846
569 1432
1690 674
576 228
1067 425
1362 541
895 2234
430 1078
436 171
450 176
115 289
268 673
2029 811
697 1745
270 679
432 1085
222 561
162 412
262 659
248 624
1310 522
337 846
427 1070
573 1442
1509 602
856 2138
143 361
387 970
1732 692
458 1152
1819 728
1062 424
116 293
1273 506
378 950
238 603
2271 911
405 1013
957 382
1800 720
443 1114
1321 525
1103 439
30 75
1071 427
533 1340
2256 905
501 1261
428 168
299 119
518 1302
1878 753
1717 685
744 1858
316 794
2384 954
2269 910
263 105
446 1121
590 233
97 244
5 12
318 126
737 1841
464 1166
384 963
796 317
738 1843
986 394
180 73
1931 772
323 810
594 1490
805 2015
1482 590
1402 558
753 1880
163 66
259 652
618 1550
10 25
890 354
496 1248
387 969
124 313
612 243
614 1541
1040 415
2059 823
819 327
315 790
1989 795
237 599
380 953
11 27
593 234
723 1808
1255 499
1449 577
759 303
310 778
709 1776
92 37
669 1677
591 234
594 1492
517 1301
462 1160
377 148
627 1575
492 1237
661 1658
529 1330
989 395
1530 610
648 1626
389 975
445 1119
732 290
96 39
622 1562
1495 595
352 883
456 179
1664 664
398 997
362 909
414 1036
110 276
149 379
139 351
595 1493
425 1066
151 385
557 1401
598 1500
476 1197
107 44
682 1709
218 87
4 10
1087 433
2192 878
240 606
481 1207
1185 472
519 1304
1228 489
916 2284
1529 610
665 1666
1203 479
751 299
2368 948
1476 588
431 169
331 831
127 319
463 182
1559 621
423 1059
765 305
2026 809
2006 802
31 77
794 1987
1652 659
2125 850
405 159
700 1754
157 399
1597 636
55 135
393 985
432 1083
1747 698
942 2352
720 1801
1136 452
703 1761
82 203
355 892
949 378
868 346
2285 916
1298 516
1810 724
546 1372
287 114
645 257
1006 402
442 1111
942 375
700 278
1253 499
1307 520
1695 676
87 35
786 1967
1548 617
207 83
529 1332
526 1322
586 1472
330 131
239 95
256 102
931 2323
351 881
330 827
760 303
915 365
565 1421
35 14
751 1874
752 1877
1996 798
125 315
1313 523
417 1045
497 1249
300 753
345 866
962 2403
184 469
134 339
1365 543
486 1219
2103 842
414 1038
917 366
788 1972
109 45
359 901
446 174
388 152
287 726
757 1890
186 75
617 1547
199 80
493 193
825 329
913 364
858 342
572 1439
398 157
1276 508
474 1192
926 2309
537 212
266 669
229 580
156 397
853 2133
81 201
2063 825
10 24
493 1238
282 713
336 843
413 1035
464 1168
177 452
169 68
72 179
461 1158
498 195
367 145
696 276
251 629
513 202
249 625
1232 490
2160 864
546 215
2018 806
401 158
902 360
624 1568
654 1638
155 63
949 2370
40 98
389 974
755 1886
719 284
944 2357
502 1262
623 1563
24 60
1339 532
326 817
1524 608
1743 696
749 1869
161 409
167 426
30 12
544 214
1471 586
1374 547
857 2140
1555 620
1112 443
110 275
789 314
929 2318
456 1147
2037 814
132 333
628 250
834 2085
1940 776
353 140
2205 883
500 1257
1766 705
574 1443
916 2286
629 1579
784 1960
271 682
216 547
28 69
190 485
557 220
1469 585
2308 925
1686 672
898 2241
725 1812
104 261
702 278
391 154
8 21
84 210
1706 681
907 2262
439 1102
990 395
1287 512
1708 682
1230 490
900 2246
1086 433
394 988
189 76
506 199
402 1007
1498 597
16 6
465 183
1711 683
1317 524
277 110
38 16
472 1186
686 272
1823 730
276 695
447 1123
94 237
960 383
426 1069
243 96
85 34
903 360
288 727
120 303
2119 848
838 334
2043 817
321 806
1395 555
127 320
845 337
590 1481
439 172
342 859
122 306
684 272
123 310
1473 587
1928 771
768 1920
252 633
685 272
415 163
493 1240
721 285
2155 863
782 1956
702 1758
440 1105
603 1513
806 2017
1737 694
508 1277
46 111
501 1259
912 2273
1233 491
637 253
2388 956
282 712
1722 687
48 119
195 497
2005 802
2069 828
506 1272
185 470
434 1089
833 2081
884 2208
373 936
227 572
2404 962
293 738
2237 896
918 2290
521 1308
2136 855
550 1382
88 221
913 2277
756 1888
1653 659
372 935
87 219
174 444
59 23
356 141
86 216
139 56
482 1210
372 147
425 167
2132 853
815 2038
2178 872
511 1286
1662 663
270 108
647 1622
904 2255
581 1461
751 1875
1612 642
2410 965
505 199
264 106
902 2251
155 395
662 1659
736 1839
273 687
228 91
959 2398
879 350
657 1648
2393 958
729 1821
580 1457
141 357
91 36
32 79
984 393
294 117
2353 942
894 356
164 417
441 1107
1592 634
60 148
712 1782
1470 585
549 1380
515 1296
495 1245
915 2282
788 314
1126 448
477 1200
948 2369
34 84
369 145
341 856
740 1849
551 217
1306 520
171 69
781 311
178 454
822 2055
246 619
401 1003
327 130
4 9
2217 889
1468 584
357 897
166 421
1667 665
35 89
194 494
466 1172
99 40
307 769
310 777
86 34
880 2197
423 1061
955 381
748 1867
84 209
846 2115
945 2361
2107 843
440 172
1297 516
1055 421
227 573
311 780
654 1640
1741 695
608 1525
289 730
173 443
1167 464
924 2305
11 4
259 651
734 1833
305 764
61 24
578 1453
159 404
283 714
279 111
41 17
837 2091
416 1042
2036 814
419 1051
1413 562
1378 548
932 2326
1581 630
468 1177
1805 722
148 375
49 122
2165 866
2390 956
2373 950
192 489
1303 518
103 257
176 71
626 1573
1705 680
112 281
1543 615
2032 812
917 2289
1145 455
1309 521
1981 792
1599 637
1992 796
1281 510
856 2139
1698 677
719 1798
804 2010
1234 491
1080 431
346 869
2223 891
268 674
1939 775
1477 588
408 1022
290 731
433 170
858 2144
91 229
757 1891
1109 442
451 1134
64 157
1043 416
2259 906
793 1984
855 2137
226 570
208 528
515 203
799 1997
2180 873
49 120
1029 411
640 1608
177 72
1263 502
113 46
773 1933
1350 537
220 88
2250 902
979 391
86 214
148 376
79 196
671 267
1269 505
797 1994
927 2312
820 327
926 2310
822 2054
532 1338
265 667
2375 951
151 61
560 1407
76 188
2360 945
1162 462
785 313
2400 960
574 227
826 329
2296 920
396 993
892 2226
941 2350
1718 686
93 234
1755 700
943 2356
1567 624
487 1221
455 179
288 114
787 313
256 644
2389 956
90 227
931 2322
144 364
761 303
584 231
618 245
2211 886
2236 896
767 1918
26 66
1915 766
659 1651
1636 653
341 857
527 1324
1811 725
848 2120
947 2366
524 1316
494 1242
2272 911
57 140
1528 609
840 334
1101 439
992 396
811 2031
892 2227
375 941
149 378
1792 716
895 356
311 782
2011 804
620 246
344 863
1535 612
1570 625
108 271
322 128
972 388
670 267
412 1032
136 55
919 366
1193 474
151 383
285 113
554 219
205 82
326 818
274 691
1974 789
328 823
410 1026
2051 821
392 981
533 1342
325 814
2021 808
1883 754
1130 449
1787 714
567 225
339 850
197 79
2252 903
2248 901
22 55
11 29
755 301
239 604
352 884
62 154
545 1369
2315 928
1120 446
126 317
693 1736
722 285
1484 591
864 2158
381 956
127 51
293 739
1428 567
323 811
854 2134
33 82
509 1280
803 2008
1095 436
610 242
422 1057
138 56
282 112
773 308
865 2161
411 161
1820 729
2219 890
820 2050
900 2247
801 2003
966 385
125 50
1986 794
14 5
206 83
2118 847
2142 857
634 1590
1229 489
2340 938
592 234
1124 447
759 1896
745 296
134 337
1256 500
422 166
373 938
537 1351
529 1331
183 74
1909 764
40 16
1284 511
177 451
408 1021
717 1794
1135 451
603 1514
63 25
1146 456
714 1788
103 42
389 973
320 803
655 1642
95 240
99 249
2199 880
826 2065
745 1860
32 80
1734 692
385 964
471 1183
241 608
238 602
563 223
564 1420
1064 424
871 347
34 14
510 1283
954 2382
781 1953
1390 553
1346 535
49 20
727 1817
204 516
2391 957
2022 808
1907 763
1591 634
1336 531
1314 523
766 306
609 1527
129 326
570 1435
848 338
30 74
2084 834
769 1924
21 51
275 694
2105 843
912 2274
2230 893
482 189
1851 741
875 2186
951 379
1852 742
280 111
122 307
2126 851
1775 709
865 2162
101 253
1948 779
663 1663
867 346
2263 907
909 2266
2194 879
494 1243
1436 571
92 232
1522 607
133 336
287 725
905 361
2089 836
2184 875
1053 420
142 359
1355 539
702 1760
863 2156
792 1982
445 1118
1299 516
502 197
593 1489
499 196
1409 560
1113 443
1859 745
397 995
247 98
328 824
2301 922
670 1679
166 67
525 207
876 2189
2222 891
47 116
1411 561
522 1311
536 212
735 291
321 127
642 1613
208 83
433 1088
144 58
418 164
754 1881
921 367
2380 953
44 18
795 317
2060 824
398 996
370 927
1929 771
1024 409
118 298
374 939
1553 619
476 187
77 190
703 279
917 2287
1445 575
780 1951
672 1685
1068 426
245 616
869 2171
1691 674
2025 809
2079 832
943 375
321 805
1497 596
1151 458
2297 921
821 327
699 277
565 1423
909 2268
259 103
205 521
419 1050
460 1156
2187 876
701 1757
409 1025
618 1551
685 1715
546 1373
277 698
1144 455
1179 469
25 64
2048 819
365 144
1925 770
492 193
1935 774
130 52
765 1910
710 281
711 1780
392 983
1682 671
1945 778
365 914
245 97
2123 849
1532 611
89 224
251 630
54 22
427 168
145 368
225 90
581 1460
666 1670
471 1184
998 398
936 2335
1345 535
887 2214
509 1279
41 100
38 95
89 222
1768 705
513 1291
1742 696
189 481
642 1611
1408 560
71 175
357 896
699 1750
211 533
530 209
417 1046
121 304
1444 574
768 1919
1957 783
538 1354
384 961
27 67
694 1738
784 1959
884 2207
23 58
399 999
1226 488
1474 587
882 351
81 32
1218 485
19 8
947 2365
582 230
1674 668
888 2215
1329 528
362 907
810 2027
898 2240
689 1727
1414 562
736 292
170 434
881 2201
31 12
835 333
793 1985
2113 845
436 1094
850 2124
1289 512
1266 504
785 1963
1828 732
218 553
1521 606
2228 893
549 1381
722 1806
489 1227
411 1031
831 2076
99 248
837 333
111 278
30 76
1153 459
1676 668
807 322
621 247
1961 784
1014 405
1777 710
2093 838
746 1861
1348 536
1580 629
764 1908
2395 958
538 212
733 1829
351 880
1609 641
762 1905
370 928
2170 868
2324 931
52 21
832 2080
2128 851
201 510
372 933
1499 597
867 2167
908 362
206 522
450 1131
51 126
560 221
1728 690
1538 613
639 254
483 190
376 945
275 692
899 358
1337 531
1980 791
1424 566
68 27
509 200
2145 859
363 911
323 128
2238 897
2339 937
703 1763
1976 790
1398 556
506 1271
472 185
2062 825
1405 559
143 58
252 100
1198 477
861 2151
494 1241
115 290
41 101
576 1447
559 1406
394 987
349 877
1139 453
338 847
43 105
204 82
403 159
407 1019
260 104
1434 570
1039 415
695 1739
598 1501
459 1154
690 1729
782 1954
133 334
878 350
878 2193
2157 863
1065 425
1847 740
1772 707
53 21
799 1999
1725 689
2245 899
447 175
645 1619
2257 905
1537 613
2288 917
1215 484
1201 478
37 15
419 165
42 104
961 2402
894 2232
93 235
1274 507
886 353
465 1169
1769 706
839 334
899 2243
803 2009
1684 672
1764 704
2058 823
674 1689
311 124
2333 935
226 90
638 254
599 1502
616 1546
1225 488
946 2363
1857 744
827 2067
670 1680
205 519
866 2163
2173 870
1863 747
860 2150
1673 667
197 501
925 369
841 335
394 155
653 1637
1149 457
680 270
2177 871
819 2047
568 1430
545 215
602 1511
2319 930
202 81
1556 620
527 1325
1360 541
75 184
1278 508
715 1790
146 59
229 578
644 1617
261 656
306 768
170 69
551 1384
36 90
436 1096
879 2195
186 473
938 2342
483 1213
1005 402
842 335
937 2338
181 462
124 50
805 2014
484 1214
119 301
1694 675
1452 578
753 1879
822 328
685 1716
184 468
2070 828
571 1437
636 253
242 96
1282 510
795 1990
487 191
1376 547
2220 890
1008 403
943 2354
135 340
845 2111
657 1646
830 331
655 261
816 325
475 1194
1417 563
47 114
475 1195
882 2202
708 1774
752 299
294 741
1054 420
807 2020
668 1675
135 342
1699 678
483 1212
742 295
569 225
646 257
302 120
873 348
855 341
1865 748
42 102
638 1602
740 1848
800 319
286 724
116 292
1979 791
285 720
160 406
739 1845
139 352
631 1584
1187 472
885 353
1300 517
422 1058
2147 859
1343 534
770 1927
370 146
860 2148
776 1941
354 889
898 358
410 161
583 1464
64 158
320 802
2383 954
585 231
66 164
904 360
26 65
2040 816
232 586
427 1072
480 1206
236 596
283 716
481 1208
692 1733
885 2210
2174 870
1962 785
826 2064
213 85
226 571
373 147
651 1631
332 132
628 1577
404 1011
786 1966
1793 717
853 2131
666 265
579 1454
152 387
78 195
1403 558
967 386
1926 770
1712 684
600 1506
1773 708
2304 923
158 402
255 640
1536 612
775 309
887 2213
420 165
564 1419
152 386
150 382
1092 435
844 336
478 1202
2343 939
1385 551
61 150
949 2371
362 143
2330 934
490 192
254 101
2239 897
919 2292
959 2397
441 1108
449 1128
633 1589
442 173
1922 769
2196 879
847 2117
1762 703
950 2374
131 331
365 916
1159 461
1396 555
343 860
526 207
862 2153
933 2328
614 244
1740 695
20 8
291 115
49 121
152 61
955 2386
933 2329
1744 697
706 280
374 940
1082 431
928 2314
650 1630
647 257
200 80
1466 584
1897 759
1973 789
1379 548
8 3
1566 624
45 110
2347 940
888 2216
86 215
623 1564
1977 790
229 579
1305 519
851 2127
2225 892
809 323
1353 538
544 1368
532 210
1586 632
471 185
761 1902
1175 467
322 808
1508 601
2182 874
1526 609
401 1004
1544 615
527 208
589 1480
1016 406
1446 575
688 1724
9 22
689 273
359 900
842 2104
364 912
1041 415
39 97
611 1533
801 319
214 542
1037 414
1752 699
68 168
1204 479
1672 667
601 237
1349 536
755 1885
688 273
1164 463
1703 679
721 1804
2057 823
895 2233
872 348
167 68
220 556
818 2045
816 2041
792 316
132 53
760 1900
2209 885
174 70
898 2242
1399 556
420 1052
73 29
78 194
344 136
641 1610
454 1142
880 2198
820 2049
117 295
29 72
15 36
821 2053
520 205
48 118
733 291
783 1958
1515 604
503 1264
2154 862
154 392
1519 606
1830 733
1842 737
1116 444
297 747
946 2364
202 512
355 891
338 849
92 231
129 324
1463 582
874 348
834 2083
2280 914
238 95
918 366
263 660
655 1641
109 274
302 758
1583 631
400 157
965 385
1934 773
2061 824
1431 568
2334 935
1655 660
606 1520
174 445
1127 448
350 139
743 1855
324 813
444 1115
1512 603
632 1587
1459 581
881 2200
22 56
1873 750
1964 785
1196 476
2098 840
654 260
724 1809
634 252
623 248
1618 645
2327 933
1441 573
787 1969
438 1099
827 2068
1415 563
266 106
142 358
1412 562
1965 786
354 140
1815 726
735 1836
206 523
1260 501
650 1629
758 1894
424 167
687 1720
828 330
829 330
298 749
370 929
710 1778
237 600
129 52
555 1394
446 1122
1027 410
800 2000
1358 540
252 632
255 102
1366 543
214 543
531 1335
438 172
866 2164
2276 913
465 1170
1044 416
1816 727
491 193
1971 788
922 2300
1756 701
782 1955
566 224
717 284
200 507
243 613
702 1759
548 216
463 1163
400 1001
1091 435
377 947
2311 927
1574 627
487 1223
622 1560
662 1660
429 1075
587 232
2235 895
1639 654
888 354
705 1767
584 1467
798 318
137 55
959 383
2283 915
614 1540
478 188
678 1700
1456 579
2320 930
149 380
817 2042
639 1605
798 1995
937 373
683 1710
413 162
190 484
1600 637
811 2030
2122 849
666 1671
582 1462
777 1943
1028 410
2112 845
384 962
1968 787
1604 639
535 211
1143 455
368 924
1389 553
198 504
13 32
607 1523
756 301
1531 610
2101 841
531 210
893 2229
218 552
545 1370
221 558
2332 934
1628 649
774 1936
1056 421
1813 725
1404 558
852 2130
170 432
464 182
622 1561
771 1930
754 1882
390 978
737 292
735 1834
4 2
2141 857
804 2012
2023 808
1063 424
1377 548
230 91
65 160
783 312
1133 451
616 1545
1033 412
796 1991
2172 869
454 1141
1182 470
341 135
98 246
235 595
1073 428
943 2355
809 2024
750 1871
496 1246
325 815
411 1030
948 378
929 2316
1176 467
877 2191
839 2096
314 125
1487 592
774 308
534 211
63 156
180 457
1235 492
580 1458
406 1015
213 539
1155 460
304 763
768 1921
1319 525
119 300
2 6
799 318
593 1488
241 609
389 153
882 2204
180 459
1635 652
93 37
191 486
605 1518
1791 716
678 269
113 284
511 201
594 235
893 356
419 1049
1002 400
1205 480
1486 592
2143 858
697 276
691 1730
534 1344
541 213
2351 942
430 169
466 1173
183 467
686 1719
1363 542
1607 640
677 269
404 1012
843 2106
1779 711
818 2046
435 1093
1697 677
1818 728
2362 945
941 2349
503 198
750 298
176 449
684 1713
448 175
934 2331
658 1650
349 138
628 1578
675 1693
371 932
1478 589
2168 868
661 1657
189 480
807 2019
887 353
515 1294
1333 530
920 367
442 1110
343 861
1826 731
474 186
396 156
391 980
760 1899
944 2358
413 1034
121 305
1654 660
1534 612
183 466
295 744
572 1440
2188 876
1077 429
721 1803
265 106
812 2033
211 85
329 130
355 141
349 876
147 59
757 302
651 1632
668 266
414 163
300 754
756 1889
441 173
23 9
181 73
486 1220
763 1906
65 162
552 1387
929 2317
65 161
1416 563
2044 818
906 2260
498 1252
188 479
450 1132
496 1247
698 1749
310 779
619 1554
408 160
670 1681
1174 466
537 1352
469 1180
641 255
428 1074
2 5
867 2166
221 559
2278 914
681 1707
991 395
1265 503
297 118
1450 577
258 648
1081 431
508 200
1356 539
217 550
295 743
833 2082
771 307
1923 769
348 138
53 131
891 2224
269 108
730 1824
2325 932
2099 840
272 109
1988 794
1753 700
449 1129
2135 854
2016 806
46 112
705 279
499 1254
312 124
1585 632
1191 474
666 1669
1507 601
661 263
2034 813
15 6
2190 877
938 2341
787 1970
1400 557
13 33
109 273
1422 565
1097 437
1835 735
2092 837
565 224
281 708
264 663
767 306
1496 596
173 70
