217
1 1 1 0 0 1 1 0 0 1 1 0 1 1 1 0 1 0 1 1 0 1 0 1 1 1 1 1 0 1 1 1 1 1 1 1 1 1 0 1 1 0 1 1 1 1 0 1 1 0 1 1 1 1 1 1 1 0 1 1 1 1 1 1 0 1 1 0 0 1 0 1 1 1 1 1 1 1 1 1 1 1 1 1 1 1 1 1 1 1 1 1 1 1 1 0 1 0 0 1 0 0 0 1 1 0 0 1 1 1 1 0 1 1 1 0 1 0 1 1 1 1 0 1 0 1 1 1 1 0 0 1 1 1 0 1 1 1 1 1 1 1 1 0 1 1 1 1 1 1 1 1 1 0 1 1 0 0 1 0 1 1 0 0 1 1 1 1 1 1 1 1 0 1 1 1 0 1 1 0 1 0 1 0 1 1 1 0 1 1 1 1 1 0 1 1 0 1 1 1 1 1 0 1 0 1 1 1 1 1 0 1 1 1 0 1 0
1 73
5 1
1 148
61 1
26 1
1 202
1 151
174 1
1 145
27 1
207 1
1 126
1 68
1 114
1 39
49 1
1 33
16 1
1 55
44 1
119 1
95 1
159 1
1 161
193 1
1 212
1 97
110 1
1 105
99 1
1 133
106 1
1 120
11 1
24 1
1 82
1 176
1 171
1 91
1 184
1 40
116 1
1 88
1 48
1 64
109 1
155 1
18 1
206 1
153 1
1 163
205 1
1 34
1 168
59 1
1 86
199 1
96 1
1 53
1 29
164 1
1 25
1 83
93 1
195 1
1 196
1 81
45 1
1 190
12 1
1 186
198 1
1 67
1 63
166 1
57 1
150 1
89 1
1 122
130 1
1 104
107 1
181 1
1 200
210 1
7 1
216 1
1 6
76 1
98 1
127 1
1 13
102 1
1 157
92 1
146 1
1 2
1 79
1 56
188 1
1 15
1 28
142 1
1 121
1 152
147 1
1 141
167 1
180 1
52 1
47 1
1 21
46 1
54 1
144 1
1 22
156 1
1 183
182 1
1 124
1 204
51 1
1 71
137 1
158 1
1 69
135 1
1 87
140 1
175 1
1 129
1 74
201 1
197 1
209 1
1 3
215 1
1 128
169 1
1 131
134 1
211 1
191 1
189 1
23 1
1 143
138 1
178 1
115 1
1 125
113 1
132 1
1 85
19 1
1 213
1 108
75 1
1 101
60 1
36 1
172 1
1 35
1 94
4 1
1 31
185 1
214 1
1 100
118 1
111 1
72 1
179 1
112 1
58 1
1 177
1 165
1 77
1 84
1 217
65 1
149 1
1 30
14 1
1 32
208 1
1 38
1 194
170 1
154 1
103 1
1 117
139 1
9 1
1 37
78 1
1 123
1 90
1 80
1 41
20 1
1 187
1 62
1 42
203 1
136 1
192 1
1 66
1 160
1 8
1 173
162 1
70 1
17 1
43 1
1 50
10 1
