2836
1 1 0 1 1 0 0 1 1 1 1 1 0 0 0 0 0 1 1 1 0 1 0 0 0 1 1 0 1 0 0 1 1 1 1 0 1 0 0 1 1 0 1 0 0 1 1 1 1 1 1 1 1 0 1 0 0 0 1 0 1 0 1 1 1 0 1 1 1 0 1 0 1 1 1 0 1 1 0 1 1 0 0 1 0 0 0 1 0 0 1 0 1 1 0 1 1 1 1 0 1 1 1 0 1 0 1 1 0 0 0 1 1 0 1 1 0 1 0 1 0 1 0 0 0 0 0 0 0 0 1 0 1 0 1 0 1 0 1 1 1 1 0 0 0 0 0 0 0 1 1 0 1 1 1 0 0 0 0 1 1 1 1 1 1 1 1 0 0 1 1 0 0 0 1 0 1 0 0 1 1 1 1 1 0 1 1 1 1 1 0 0 0 1 1 0 1 1 1 1 0 0 1 0 0 1 0 1 1 0 0 0 0 1 0 0 1 0 1 0 1 1 0 0 1 0 1 0 1 1 1 1 0 1 0 1 1 0 0 0 1 0 0 1 0 1 1 0 0 0 0 1 1 1 1 0 0 1 1 1 1 0 1 0 1 1 0 0 0 0 1 0 1 0 1 0 1 0 0 0 1 1 0 1 1 1 1 0 1 0 0 0 1 1 1 1 0 0 0 0 1 1 0 1 1 1 0 0 1 0 0 0 0 1 0 1 1 0 1 1 1 1 0 1 1 0 1 0 1 0 1 1 0 0 1 0 0 0 0 0 0 1 0 1 0 0 1 1 1 1 0 0 1 0 0 0 1 0 0 1 0 0 1 0 0 1 0 0 1 1 0 0 1 1 0 1 1 1 0 1 1 1 1 1 0 0 1 1 1 0 0 0 1 1 1 0 0 1 0 0 1 1 1 0 1 1 0 0 1 0 0 1 0 0 0 1 1 0 0 0 1 0 1 1 0 0 1 1 1 0 0 0 0 0 1 1 0 0 0 1 1 0 1 0 1 1 1 0 1 1 0 1 1 0 0 1 1 1 0 0 0 0 0 0 1 1 0 0 0 0 0 0 0 0 1 0 1 0 0 1 0 0 0 0 1 0 1 1 1 1 0 1 1 1 0 0 0 1 1 1 0 0 1 0 1 1 1 1 1 0 1 1 0 1 0 1 1 1 0 1 1 1 1 1 0 0 1 0 0 1 1 1 1 1 0 0 1 1 1 1 0 1 0 1 1 0 1 0 1 1 1 1 0 1 0 0 0 0 0 1 0 1 1 1 0 1 0 1 0 1 1 1 0 0 0 0 0 1 0 1 0 1 1 1 0 0 1 1 1 1 1 0 0 0 0 1 1 0 0 1 1 0 0 0 0 0 1 0 1 1 0 1 1 1 1 1 0 0 1 0 0 1 1 0 0 1 1 0 0 0 1 1 1 0 0 0 1 1 1 0 1 1 1 1 0 0 0 1 1 1 1 0 0 0 0 0 1 1 1 1 1 1 0 0 1 0 1 1 1 1 0 0 0 1 0 0 1 1 0 1 1 0 1 1 1 1 0 1 1 1 1 0 0 1 0 1 0 1 0 1 0 0 1 0 1 1 1 0 0 0 1 1 1 1 1 0 0 1 0 1 0 0 1 1 1 1 1 0 0 0 1 0 0 0 1 0 0 1 1 1 1 0 1 0 0 1 0 0 1 0 1 0 1 1 1 0 0 1 1 0 1 0 0 0 1 0 1 0 0 0 0 0 0 1 0 0 1 1 0 0 0 1 1 0 1 0 1 1 1 1 1 1 1 0 0 1 1 1 0 1 1 1 1 1 0 1 0 0 0 0 0 1 1 1 1 1 1 1 1 1 1 0 0 1 1 1 0 1 1 0 1 1 0 1 0 0 0 1 1 0 0 0 1 0 1 1 0 0 1 1 0 0 1 0 1 1 0 1 0 0 0 0 0 1 0 0 1 0 0 0 0 1 0 0 1 0 1 0 0 1 1 0 0 1 0 1 0 0 0 1 0 1 1 0 0 0 0 0 0 1 0 0 1 1 0 1 1 1 0 1 1 0 1 0 1 1 1 0 0 0 0 1 1 0 0 1 0 1 1 0 1 0 1 0 1 0 1 1 0 1 1 1 1 0 1 0 0 1 1 1 1 0 1 0 0 1 0 0 1 0 1 1 1 1 0 0 1 1 1 0 0 0 0 0 1 0 1 0 0 0 1 0 0 1 0 1 1 1 1 1 0 1 0 1 0 1 1 0 1 0 1 1 1 1 0 0 1 0 1 0 1 0 0 0 1 0 1 0 0 1 1 1 1 1 0 1 0 0 1 1 1 1 1 0 0 1 1 0 1 1 1 0 1 1 0 0 1 0 1 1 1 0 1 1 1 0 1 1 1 0 0 0 1 1 0 1 1 1 1 1 1 0 1 0 1 0 0 0 1 1 0 1 0 0 1 1 1 1 0 1 1 0 1 0 1 1 1 1 1 1 0 1 0 0 1 1 1 1 0 0 1 0 1 0 0 0 1 0 0 1 0 1 0 0 0 0 1 1 0 0 0 0 1 0 0 0 1 1 0 0 1 0 1 0 0 0 0 0 0 0 1 0 0 1 0 1 1 1 1 0 1 0 0 0 0 0 0 1 0 0 0 1 0 1 0 0 0 1 0 0 1 1 0 0 1 0 1 1 0 1 0 1 0 1 0 1 1 1 0 0 0 0 0 0 0 0 1 1 0 0 0 1 1 1 1 0 0 1 0 0 1 0 1 0 0 0 1 0 1 1 0 0 0 0 1 0 1 1 0 0 0 1 1 1 1 1 0 1 1 0 0 1 1 0 0 1 1 1 1 0 0 1 0 0 1 0 1 1 0 1 1 1 0 1 1 1 0 1 0 0 1 1 0 0 0 1 1 1 0 1 1 0 1 1 0 1 1 0 0 0 0 1 1 1 0 1 1 0 0 0 1 1 1 1 1 0 1 0 1 0 0 1 1 0 1 0 0 1 1 0 1 0 0 1 0 1 1 1 0 0 0 1 1 0 0 1 1 0 1 0 0 1 0 1 0 1 0 0 1 1 1 0 0 1 0 0 1 1 0 1 1 0 0 0 1 0 0 1 1 1 1 1 0 0 1 0 0 0 1 0 0 0 1 0 0 0 0 0 0 0 0 1 1 0 0 0 1 0 1 1 1 0 0 1 1 0 0 0 0 1 1 0 0 1 0 1 1 1 0 1 0 1 1 0 1 0 1 1 0 0 0 1 1 0 1 1 1 1 1 1 0 0 1 0 1 1 1 0 1 1 1 0 1 0 0 0 1 1 1 0 1 1 0 1 0 0 0 1 0 0 1 1 1 1 1 0 0 1 1 1 0 1 1 1 1 1 0 0 0 1 0 0 0 1 0 0 1 1 1 1 0 1 1 0 0 1 0 1 0 0 0 0 1 0 0 0 1 1 1 0 1 1 0 0 1 1 0 1 0 1 1 1 0 1 1 1 1 1 1 1 1 0 1 1 1 0 0 1 0 0 1 0 0 1 1 1 1 0 1 1 0 1 1 0 0 0 0 1 0 1 0 1 0 1 1 0 0 0 1 0 0 1 1 0 1 1 1 1 1 0 0 0 1 0 1 0 1 0 0 0 1 1 0 0 1 0 0 0 1 1 1 1 1 0 1 0 1 1 0 1 1 0 1 0 0 0 0 0 0 1 0 0 1 0 0 1 1 1 1 1 1 0 0 0 1 0 1 0 1 0 0 0 0 0 1 1 0 0 0 0 0 0 0 1 1 1 0 1 0 1 1 0 0 1 0 1 1 1 1 0 1 0 0 1 1 1 1 1 0 1 1 0 0 1 0 1 0 1 1 0 0 1 1 0 1 0 1 0 0 1 0 1 0 0 1 0 0 1 1 0 0 1 1 0 0 0 1 1 0 1 1 0 1 1 1 1 0 1 0 0 1 0 1 0 1 1 0 1 0 1 0 1 0 0 1 1 1 0 1 1 0 0 1 0 1 1 1 0 0 0 1 0 0 0 1 0 1 1 0 1 1 0 1 0 0 0 0 0 0 0 0 1 0 1 1 1 0 0 0 0 0 0 1 1 0 1 1 0 0 1 1 0 0 1 0 0 0 0 0 0 0 0 1 0 0 1 1 1 1 0 0 0 0 0 0 1 1 1 0 0 1 0 1 1 1 1 1 0 1 1 1 1 0 0 0 1 1 1 0 0 0 0 1 1 0 0 0 1 1 0 0 0 0 1 0 0 1 1 0 0 0 0 1 1 0 1 1 1 0 1 1 0 0 1 0 0 1 1 0 0 1 0 1 0 0 1 0 1 0 0 1 1 0 1 1 1 0 0 0 0 1 1 0 0 0 1 1 0 1 1 0 1 0 0 1 0 1 1 1 1 0 1 0 0 0 1 1 1 0 0 0 0 1 0 1 0 0 0 0 0 0 0 0 1 0 1 0 1 0 0 1 1 0 0 1 1 1 1 0 1 1 1 1 1 0 0 1 1 0 0 1 0 0 1 1 0 1 1 0 0 1 1 1 1 1 0 1 1 0 1 1 1 0 0 1 0 0 0 1 1 1 0 1 0 0 0 1 1 1 1 0 1 1 1 0 0 0 0 1 0 0 0 1 0 1 0 1 0 0 1 1 1 1 0 0 0 0 1 0 1 1 0 1 0 0 1 1 0 1 1 0 1 0 0 0 1 1 1 1 1 0 0 0 1 1 1 1 0 1 0 0 1 1 1 0 0 1 0 1 1 0 1 1 1 1 1 0 1 1 0 1 0 1 0 0 1 1 0 0 1 1 1 1 0 0 1 0 1 0 1 0 1 1 0 1 1 1 1 1 0 1 0 1 1 0 1 0 0 1 1 1 1 0 1 1 1 0 1 0 1 1 1 0 1 1 1 0 1 0 0 1 0 0 1 0 0 1 1 0 0 1 1 0 1 1 1 1 1 0 0 0 1 0 0 0 1 0 1 1 0 1 1 0 1 0 0 0 0 1 1 0 0 1 0 1 1 1 0 0 0 1 1 0 1 1 0 0 1 0 1 1 0 1 1 1 0 0 1 0 0 1 0 1 1 0 0 0 1 1 1 1 0 1 0 1 1 1 0 0 0 1 0 0 1 0 0 0 0 0 0 0 1 1 1 1 0 0 1 1 0 0 0 1 0 1 0 0 1 0 1 0 1 1 0 0 1 1 0 0 0 1 0 1 0 0 0 0 1 1 1 1 0 1 1 1 1 0 1 1 0 0 0 0 0 0 1 1 1 0 0 0 1 0 0 1 1 1 0 1 0 0 0 1 1 0 1 0 0 0 1 0 0 1 1 1 1 0 0 0 1 1 1 1 1 0 1 0 0 1 0 1 0 1 0 0 0 0 1 1 1 1 1 0 0 1 1 0 0 1 0 0 0 1 1 1 0 1 1 0 1 1 1 0 1 0 0 0 1 0 0 0 0 0 0 1 0 1 0 0 1 1 1 1 0 0 0 1 0 0 1 1 0 1 1 1 1 1 0 0 1 0 1 0 0 1 0 0 0 0 1 0 1 1 0 0 1 0 1 0 0 0 1 1 1 1 1 1 1 1 0 0 0 1 0 1 1 1 0 0 0 0 0 1 0 0 1 0 1 1 0 0 0 1 0 0 1 1 1 0 1 1 0 0 1 1 1 0 1 1 0 1 1 0 1 0 0 0 0 0 0 0 0 0 0 0 1 1 1 0 0 1 0 0 1 1 0 1 0 0 0 1 0 1 0 1 0 0 0 0 0 0 1 1 0 0 1 0 0 0 0 0 1 0 0 1 1 0 1 1 1 0 1 0 0 0 1 0 0 1 1 0 1 1 1 0 1 1 0 1 0 0 1 1 1 0 0 1 1 0 1 1 0 0 1 0 0 0 1 0 1 0 0 0 0 1 1 1 1 1 0 0 1 1 1 1 0 0 0 0 1 0 1 1 1 1 0 1 0 1 1 0 1 0 0 1 0 0 1 1 1 0 0 0 1 0 1 0 1 1 0 1 1 0 1 1 0 0 0 1 0 0 0 1 0 0 0 0 0 0 1 1 0 1 1 0 1 0 1 0 0 0 0 1 1 0 0 1 1 1 1 0 1 1 1 1 1 1 0 1 1 0 0 0 1 0 1 0 1 0 0 1 1 1 0 0 0 0 1 0 1 1 0 0 0 0 1 0 1 1 0 0 1 0 0 0 0 0 1 1 1 1 1 1 1 1 1 1 0 1 0 0 0 0 0 1 1 1 0 0 0 0 0 1 1 0 1 0 1 0 0 1 1 0 1 0 0 1 0 0 1 1 1 0 1 0 0 0 0 0 1 0 0 1 1 0 0 1 1 0 1 1 0 1 0 1 1 0 1 1 0 1 1 1 0 1 1
2089 2088
1941 1942
984 983
1231 1230
1977 1978
446 447
2489 2488
93 94
1968 1967
1285 1284
151 152
1635 1636
998 999
321 322
820 819
1784 1785
1013 1012
2796 2797
1498 1497
2249 2248
1447 1446
1248 1247
284 285
2229 2228
2708 2709
243 244
1042 1041
1704 1705
2244 2243
2269 2270
2020 2019
2726 2727
1299 1298
2291 2290
160 161
278 279
113 114
1388 1389
1011 1012
1338 1339
2194 2193
1416 1417
2265 2266
1034 1035
1530 1529
1911 1910
1626 1625
197 196
1683 1682
2574 2575
2693 2692
2687 2688
286 287
2247 2246
2128 2129
214 213
2701 2700
559 560
996 997
986 985
2830 2831
2353 2354
49 48
1504 1503
56 57
633 634
1260 1259
104 105
303 302
1761 1762
392 391
297 298
2313 2314
203 202
461 460
2370 2369
1113 1112
1766 1767
2817 2816
1249 1250
93 92
2094 2093
1892 1893
696 695
407 406
753 752
2117 2118
153 152
757 756
2008 2007
444 445
1918 1917
500 501
1005 1004
1473 1472
1549 1550
1985 1986
1043 1044
1765 1764
733 734
676 677
23 22
522 523
1756 1757
562 561
2102 2103
643 642
1252 1251
2124 2123
1371 1370
2594 2595
1846 1845
66 65
300 299
1476 1477
728 727
314 315
283 282
918 919
2745 2746
2452 2451
1440 1441
1104 1103
796 795
2526 2527
875 874
2727 2728
2281 2280
2652 2651
858 859
726 727
977 976
2036 2035
1671 1670
1130 1131
1559 1558
187 188
1397 1396
1803 1804
1527 1526
1526 1525
309 308
1258 1257
522 521
1981 1982
42 41
2072 2071
2358 2357
786 787
2606 2605
2715 2714
1569 1570
2450 2449
897 898
2801 2802
1945 1944
374 375
1037 1036
2492 2491
632 631
2672 2673
2533 2534
414 413
1219 1220
1502 1501
1251 1250
2507 2508
936 935
2695 2694
2558 2557
98 97
103 102
308 307
2506 2507
461 462
1050 1051
309 310
1412 1413
1874 1873
1128 1127
2417 2418
1098 1097
2108 2109
336 335
434 435
2015 2016
199 198
1965 1964
2490 2489
1331 1332
2211 2210
2360 2359
422 423
735 734
2355 2356
173 174
1860 1861
2542 2543
1573 1572
1468 1469
864 865
130 131
1567 1566
1317 1316
22 21
339 340
1963 1964
1454 1455
834 835
2125 2124
2252 2251
1818 1817
71 70
1422 1423
819 818
2051 2052
610 611
2005 2006
1690 1691
1803 1802
181 182
989 990
820 821
2803 2802
1286 1287
142 141
2642 2641
2000 1999
211 212
311 310
1132 1133
1712 1711
2107 2106
1591 1592
556 555
638 637
2709 2710
2441 2442
1246 1247
208 209
2134 2135
1631 1632
2613 2614
2670 2669
2038 2039
1051 1052
24 25
1486 1487
2250 2251
497 496
360 359
797 796
1884 1885
2164 2163
1181 1182
1361 1360
2276 2277
201 200
815 816
79 80
1692 1691
1553 1552
1412 1411
1567 1568
207 208
2040 2039
653 652
2529 2528
2275 2274
2744 2745
431 430
333 332
26 27
715 714
510 509
1161 1162
2528 2527
427 426
1044 1045
1472 1471
2590 2589
1577 1576
2221 2220
2759 2758
219 220
1777 1778
248 249
1908 1909
2554 2555
1249 1248
987 988
958 959
1950 1951
2501 2500
1952 1953
2740 2741
696 697
517 518
2216 2217
910 911
1853 1854
1650 1649
1318 1319
638 639
1343 1342
36 35
862 861
1384 1385
2487 2486
2223 2222
531 532
2417 2416
225 226
2324 2325
119 118
1873 1872
1597 1598
153 154
129 130
231 230
980 981
943 942
1798 1799
2373 2372
155 156
2047 2046
1806 1805
1283 1284
1907 1906
87 86
1732 1733
2341 2340
850 849
722 723
2835 2836
1353 1354
77 76
2590 2591
1217 1216
2630 2629
2741 2742
199 200
520 521
1604 1603
2428 2427
2010 2011
829 828
617 616
2578 2579
1743 1742
1185 1186
140 139
2721 2720
43 44
158 157
370 371
2636 2637
1955 1956
1359 1358
1609 1610
980 979
2787 2788
2487 2488
2435 2434
2398 2397
2311 2310
2009 2010
2459 2460
202 201
1152 1151
594 593
394 393
1273 1274
2625 2624
963 964
1205 1206
513 512
2478 2479
1806 1807
1607 1608
1587 1588
87 88
1763 1762
1201 1200
176 177
994 995
2146 2147
1180 1179
1631 1630
1782 1783
601 600
2050 2051
2608 2607
2102 2101
2061 2062
824 825
1877 1876
1721 1722
1875 1876
1920 1921
2702 2701
1103 1102
933 934
1623 1624
1039 1038
1033 1032
2490 2491
599 598
368 367
2563 2562
973 974
1926 1927
1977 1976
60 59
242 241
2718 2719
1531 1532
1300 1299
1242 1241
742 743
1456 1457
1216 1215
304 303
561 560
1937 1938
947 946
1601 1602
2562 2561
1992 1993
2369 2368
2762 2761
1089 1088
2084 2085
2755 2754
887 886
491 492
121 122
267 266
746 747
2077 2076
2179 2178
68 67
415 414
1450 1451
1505 1504
1648 1649
965 964
2586 2585
462 463
1777 1776
2150 2151
2431 2430
2239 2240
755 754
229 228
2610 2611
411 412
116 117
2568 2567
2252 2253
2423 2422
1875 1874
2280 2279
1914 1913
2338 2337
1573 1574
351 352
645 646
1851 1852
2635 2636
1015 1014
297 296
732 731
379 380
2676 2677
2830 2829
1746 1747
1418 1419
1023 1024
647 648
1084 1083
383 384
121 120
2437 2438
778 779
2584 2583
551 550
828 827
1481 1480
1508 1509
1830 1829
1601 1600
1780 1779
1489 1490
2208 2207
1839 1840
294 295
2800 2799
1984 1983
2285 2284
122 123
2501 2502
2279 2278
2757 2758
493 492
913 914
163 162
436 437
1672 1671
2406 2405
436 435
1276 1277
711 712
790 789
2393 2392
905 906
128 129
863 864
378 379
2079 2080
531 530
480 479
359 358
1378 1377
2288 2289
1267 1266
62 61
2574 2573
1206 1207
293 292
1880 1881
2663 2662
572 573
2519 2520
2126 2125
282 281
1309 1310
1688 1689
346 345
2120 2119
1294 1295
674 675
1850 1851
2765 2764
311 312
1124 1123
774 773
2683 2684
1622 1623
2403 2402
519 520
1748 1749
841 840
181 180
155 154
2230 2231
609 608
1439 1440
836 835
1473 1474
1870 1869
1191 1190
1148 1147
2635 2634
769 768
439 438
1814 1815
431 432
2087 2088
2236 2235
156 157
184 185
1392 1393
777 778
2771 2772
662 661
1828 1829
21 20
1947 1948
1338 1337
1541 1542
2152 2153
2199 2198
758 759
770 771
2245 2246
1079 1078
1833 1832
1905 1906
58 59
1503 1502
1500 1501
442 441
443 442
1975 1976
2414 2415
624 625
705 704
2698 2699
1094 1095
160 159
38 37
109 110
264 265
2235 2234
447 448
2640 2641
709 708
2448 2447
2673 2674
933 932
1937 1936
2775 2774
2537 2538
32 33
2705 2706
564 563
2178 2177
1327 1328
1738 1737
2789 2788
2339 2338
1836 1835
2332 2333
637 636
78 77
189 190
1005 1006
273 274
1369 1370
2268 2267
513 514
1368 1367
1789 1788
735 736
2770 2769
136 135
1627 1626
628 629
163 164
1257 1256
1921 1922
924 925
1192 1193
1443 1444
1646 1647
1228 1227
2482 2483
96 97
1233 1232
1808 1809
1424 1425
2620 2619
2194 2195
1677 1676
162 161
2263 2264
2703 2702
2216 2215
1126 1127
1953 1954
1878 1877
2633 2634
1050 1049
1988 1987
584 585
1149 1148
2390 2391
2515 2514
1279 1280
2675 2674
89 90
2320 2319
701 700
697 698
2503 2504
2374 2375
1913 1912
2515 2516
1546 1547
1401 1402
1448 1449
2449 2448
1810 1809
679 680
785 784
486 487
2156 2155
1689 1690
478 479
996 995
254 255
1951 1952
1699 1698
2202 2203
2084 2083
855 854
171 170
2566 2565
1260 1261
2110 2109
15 14
801 802
1515 1514
2616 2617
749 750
2665 2666
1056 1057
1520 1521
399 398
2030 2031
1688 1687
713 714
881 882
1641 1642
2452 2453
535 536
672 673
764 763
205 204
1453 1454
2736 2737
1634 1635
1244 1243
2415 2416
385 386
2513 2514
2363 2364
2007 2006
315 316
586 587
1525 1524
1834 1835
2646 2645
1136 1135
37 36
469 470
1662 1663
754 753
1142 1143
1859 1860
2142 2141
2646 2647
1770 1771
2454 2455
1140 1141
175 174
2038 2037
1760 1759
1162 1163
602 603
784 783
1720 1719
1183 1182
1009 1008
1293 1292
2811 2810
2257 2258
1085 1084
2735 2736
113 112
1870 1871
382 383
863 862
2784 2783
180 179
2760 2759
1336 1335
1168 1167
276 275
1211 1212
2428 2429
1968 1969
2626 2625
1879 1880
1288 1287
1386 1385
1843 1844
2715 2716
565 566
1176 1175
2717 2718
2093 2092
1034 1033
2350 2349
545 544
319 320
1322 1321
746 745
750 751
2704 2703
240 241
2035 2034
2197 2198
1134 1135
2555 2556
1973 1974
902 901
1557 1556
1464 1465
771 772
476 475
1797 1796
1415 1414
1985 1984
806 807
206 205
1235 1234
911 912
458 457
1236 1237
1213 1214
1389 1390
1383 1384
1006 1007
1740 1741
2683 2682
2192 2193
146 147
1756 1755
2256 2255
1405 1404
2131 2132
1334 1335
703 704
55 54
541 542
69 70
1145 1144
318 317
2331 2332
94 95
810 809
1217 1218
2471 2472
2245 2244
2656 2657
2185 2186
2499 2498
516 517
791 790
65 64
1935 1934
1409 1408
1406 1405
776 777
2649 2648
2206 2207
399 400
1693 1692
1844 1845
1468 1467
329 330
2277 2278
2827 2828
173 172
2508 2509
1967 1966
924 923
922 923
848 849
1458 1457
2565 2564
685 686
2363 2362
10 11
261 260
277 278
2130 2131
866 865
1171 1172
1423 1424
1485 1486
474 473
1369 1368
2214 2215
2808 2809
1867 1866
1675 1674
1939 1940
1764 1763
1695 1696
1530 1531
836 837
2049 2050
1618 1619
2173 2174
276 277
909 908
1718 1717
682 681
1791 1790
2097 2098
1955 1954
1598 1599
2315 2316
1600 1599
477 476
168 169
740 741
952 953
2373 2374
2675 2676
645 644
1673 1674
2697 2696
1352 1353
149 148
2068 2069
1344 1345
698 699
1041 1040
1639 1638
927 926
1944 1943
2787 2786
787 788
2096 2097
2083 2082
1500 1499
2145 2144
1577 1578
402 403
412 413
609 610
1739 1738
2226 2227
916 915
1223 1222
393 392
603 604
1826 1825
684 683
1062 1063
618 619
2065 2064
2722 2721
2532 2533
2122 2121
2018 2017
1775 1774
985 984
1306 1305
1801 1800
1961 1962
2651 2650
1693 1694
377 378
630 629
2249 2250
2779 2780
2149 2148
528 527
602 601
812 811
941 942
2600 2599
1363 1362
1862 1863
2543 2544
2221 2222
102 101
360 361
8 7
335 334
760 761
342 341
178 179
678 677
577 578
950 949
2752 2753
1095 1096
1653 1652
290 291
2378 2377
2601 2602
800 799
847 848
2468 2469
2254 2255
1890 1891
1390 1391
233 234
505 506
397 396
2130 2129
2648 2647
2779 2778
855 856
1563 1562
2103 2104
2266 2267
2259 2258
2323 2324
1930 1931
557 558
416 415
1560 1561
46 47
1374 1375
1540 1541
2624 2623
2599 2598
2481 2482
2772 2773
1604 1605
1432 1433
1350 1351
2372 2371
2765 2766
1494 1495
1546 1545
1174 1173
1629 1630
1256 1255
1505 1506
1042 1043
292 291
1678 1677
1138 1137
2166 2167
325 326
612 611
1894 1895
1685 1684
1666 1667
1890 1889
1157 1156
937 938
2427 2426
1223 1224
2047 2048
1196 1197
2181 2182
614 615
793 794
2560 2561
1478 1479
1592 1593
350 351
145 144
1926 1925
350 349
1840 1841
604 605
195 194
2797 2798
2069 2070
24 23
66 67
1244 1245
1281 1282
183 184
2364 2365
694 693
716 715
1413 1414
2424 2423
2008 2009
1466 1467
2138 2137
2513 2512
675 676
1352 1351
10 9
720 721
1278 1279
2680 2681
705 706
2256 2257
570 571
1100 1101
83 84
1406 1407
1210 1211
1226 1225
1781 1780
467 468
1940 1941
876 875
1888 1889
872 871
961 962
2303 2304
1107 1108
2333 2334
724 723
2320 2321
2115 2116
117 118
1265 1266
2113 2114
2747 2748
1900 1901
2089 2090
1640 1641
2450 2451
1595 1594
907 908
503 504
1878 1879
1856 1857
2707 2706
2022 2023
803 802
2476 2475
2809 2810
2730 2731
1810 1811
343 344
621 620
1654 1653
1837 1838
1475 1476
1307 1308
1222 1221
641 642
1395 1396
430 429
333 334
1868 1869
1743 1744
2154 2155
269 268
193 192
1356 1357
2209 2210
1555 1556
1534 1535
2578 2577
565 564
947 948
508 509
2104 2105
2290 2289
2208 2209
541 540
2227 2228
2327 2328
2517 2518
757 758
2536 2535
271 270
1070 1069
632 633
2218 2217
250 251
2014 2013
2735 2734
718 717
2776 2775
1750 1749
2691 2692
1296 1295
85 86
2298 2299
2743 2744
653 654
3 4
529 528
2022 2021
328 329
1153 1154
1201 1202
1583 1584
2399 2398
2640 2639
1655 1656
2111 2112
2382 2383
1138 1139
346 347
2732 2731
2570 2571
1612 1611
2588 2589
2813 2814
895 894
1398 1397
798 799
2821 2820
744 743
2095 2096
249 250
1826 1827
1795 1794
747 748
2184 2183
1734 1733
1822 1823
107 108
1533 1532
1014 1013
342 343
952 951
2030 2029
214 215
2536 2537
2505 2506
1355 1356
905 904
1861 1862
902 903
2556 2557
2733 2734
1071 1072
2688 2689
15 16
2307 2306
2326 2325
1091 1092
970 969
1936 1935
1270 1269
1019 1020
1321 1320
75 76
2444 2443
1346 1345
1661 1660
846 847
1908 1907
2616 2615
562 563
2351 2352
227 228
1824 1823
1067 1068
2524 2523
2739 2740
813 812
367 366
1800 1799
887 888
639 640
1176 1177
2826 2827
159 158
558 559
1979 1978
2234 2233
885 886
582 583
978 979
1637 1638
962 963
1615 1614
1028 1027
1209 1210
2739 2738
1274 1275
1202 1203
801 800
2429 2430
1252 1253
364 363
319 318
2260 2261
2248 2247
1534 1533
1617 1618
1911 1912
472 473
314 313
2212 2211
1885 1886
2686 2687
1812 1811
785 786
821 822
358 357
1582 1583
576 577
2458 2457
396 395
1713 1712
2795 2794
2661 2662
2180 2181
1579 1580
1709 1710
1605 1606
1535 1536
817 818
312 313
1527 1528
2579 2580
489 488
1522 1521
257 256
1537 1538
2658 2657
2553 2554
1729 1728
624 623
594 595
437 438
1126 1125
2597 2596
2085 2086
1118 1117
880 881
1105 1106
2669 2668
217 216
143 142
973 972
1381 1382
456 455
2475 2474
1437 1436
2319 2318
883 882
1723 1724
495 494
1055 1054
1134 1133
1157 1158
2271 2270
1026 1025
2368 2367
840 839
2737 2738
1998 1997
1070 1071
689 690
722 721
2619 2618
294 293
537 538
2041 2042
40 39
324 325
2424 2425
145 146
2818 2819
1289 1288
2781 2782
2712 2713
1319 1320
356 355
2685 2686
504 505
2503 2502
2445 2446
992 991
1697 1698
2322 2321
2493 2494
487 488
188 189
1990 1991
749 748
2317 2318
147 148
1490 1491
2792 2793
2162 2163
1346 1347
1594 1593
2622 2623
1792 1791
570 569
1981 1980
496 495
2213 2214
2073 2072
2807 2806
2150 2149
1300 1301
997 998
534 533
2505 2504
307 306
2693 2694
1553 1554
270 269
2466 2465
1750 1751
2569 2568
450 451
1848 1847
2433 2432
2653 2652
1379 1380
1393 1394
1229 1228
2231 2232
1797 1798
489 490
967 968
1900 1899
26 25
271 272
792 793
957 958
2033 2032
1025 1024
2114 2115
2532 2531
248 247
2541 2542
1957 1958
1010 1009
69 68
1827 1828
1002 1003
1846 1847
2043 2044
390 391
420 419
607 608
756 755
1636 1637
1441 1442
39 38
956 957
1483 1482
1727 1728
483 482
661 660
1655 1654
2521 2520
1950 1949
1276 1275
2107 2108
566 567
2749 2748
1073 1074
2421 2422
372 373
1619 1620
2411 2412
1057 1058
1849 1848
366 365
1768 1767
2242 2241
246 247
2547 2548
1545 1544
825 826
687 686
1204 1205
1685 1686
2230 2229
126 125
1969 1970
571 572
1512 1513
419 418
1427 1428
2754 2753
1678 1679
1946 1945
51 50
167 166
483 484
2660 2661
2170 2171
9 8
221 222
2285 2286
916 917
598 597
1495 1496
1899 1898
1711 1710
1971 1970
1269 1268
671 672
1759 1758
1898 1897
1643 1642
692 691
1882 1881
868 867
1313 1312
2286 2287
2187 2188
867 866
1928 1929
1002 1001
2704 2705
2728 2729
1354 1355
1156 1155
2467 2466
2226 2225
449 448
2799 2798
805 804
2785 2786
981 982
1020 1021
843 844
2205 2206
220 221
2078 2079
1727 1726
340 341
888 889
2177 2176
815 814
224 223
1518 1517
1561 1562
670 671
56 55
2808 2807
1589 1590
193 194
1687 1686
1108 1109
1149 1150
1007 1008
1035 1036
2153 2154
2494 2495
1218 1219
2769 2768
1559 1560
766 767
2609 2610
1752 1751
2749 2750
879 880
1595 1596
843 842
1772 1773
500 499
1208 1207
222 223
2183 2182
1923 1924
1757 1758
515 514
2793 2794
557 556
681 680
2175 2176
2609 2608
555 554
2456 2457
2284 2283
1029 1030
28 27
1568 1569
2791 2790
1648 1647
2584 2585
422 421
1312 1311
1 2
543 544
546 545
2604 2603
1832 1831
1734 1735
833 832
1735 1736
1419 1420
1448 1447
417 418
2563 2564
5 6
1947 1946
1645 1646
54 53
235 234
1112 1111
2262 2263
1323 1324
1420 1421
2639 2638
668 667
635 636
1080 1079
2484 2485
2575 2576
484 485
2730 2729
2439 2440
668 669
1077 1078
424 423
2784 2785
1499 1498
1120 1119
1565 1564
1554 1555
993 992
2296 2297
2090 2091
408 409
2796 2795
732 733
2607 2606
2826 2825
41 40
477 478
47 48
2175 2174
2044 2045
377 376
2559 2560
18 19
2361 2362
945 944
2118 2119
191 192
1101 1102
2464 2465
503 502
915 914
529 530
808 809
2360 2361
590 589
2166 2165
2020 2021
725 724
2750 2751
446 445
901 900
797 798
1716 1717
2191 2192
2763 2764
2339 2340
728 729
615 616
1994 1995
659 660
2342 2343
1621 1622
1574 1575
1401 1400
2410 2411
1808 1807
2018 2019
2076 2075
1589 1588
591 592
1303 1304
191 190
761 762
176 175
1904 1905
1178 1177
2309 2310
1987 1986
1403 1402
387 386
627 626
1243 1242
206 207
1679 1680
302 301
2294 2293
1022 1023
1416 1415
971 970
731 730
428 429
2697 2698
1032 1031
1091 1090
2757 2756
532 533
2056 2057
1884 1883
845 846
2433 2434
1584 1585
30 29
2385 2386
31 32
770 769
1942 1943
283 284
2463 2464
966 965
1613 1612
1489 1488
2357 2356
766 765
1542 1543
2621 2620
2395 2394
281 280
2580 2581
1170 1169
58 57
2601 2600
1462 1461
252 251
43 42
2378 2379
306 305
593 592
1045 1046
619 620
381 382
246 245
144 143
1381 1380
2483 2484
2821 2822
1017 1018
259 258
434 433
1982 1983
2824 2823
1417 1418
810 811
2359 2358
2048 2049
1616 1615
2643 2644
1479 1480
2365 2366
2264 2265
1347 1348
2025 2026
741 742
1796 1795
716 717
1597 1596
2497 2498
2128 2127
2654 2655
857 856
81 82
623 622
2711 2710
1444 1445
2760 2761
1558 1557
1672 1673
1366 1365
707 706
20 19
1031 1030
719 718
688 689
1029 1028
2295 2294
2630 2631
1174 1175
1053 1052
701 702
2052 2053
2026 2027
2569 2570
1643 1644
2123 2122
16 17
265 266
654 655
405 406
73 74
375 376
2746 2747
1858 1857
49 50
2186 2187
1165 1164
2511 2510
2781 2780
682 683
2510 2509
1277 1278
2419 2418
1271 1270
2497 2496
688 687
465 464
1853 1852
2832 2833
2272 2273
2075 2074
2627 2628
2316 2317
320 321
596 597
1215 1214
1729 1730
1819 1820
575 576
518 519
328 327
612 613
385 384
827 826
2539 2540
1606 1607
1340 1341
1309 1308
1682 1681
2024 2023
128 127
300 301
2801 2800
978 977
852 853
2723 2722
1121 1122
1120 1121
1715 1714
595 596
1591 1590
239 240
1061 1060
1975 1974
834 833
17 18
2002 2001
326 327
807 808
2725 2726
84 85
1437 1438
12 13
498 499
2470 2471
2300 2299
961 960
2262 2261
2140 2139
767 768
709 710
2477 2478
1831 1830
2436 2435
1929 1930
468 469
288 287
2350 2351
574 575
1586 1585
2541 2540
2678 2677
2113 2112
348 349
2081 2080
1510 1511
516 515
2594 2593
218 219
1436 1435
2696 2695
607 606
1196 1195
213 212
1119 1118
2169 2168
1068 1069
459 458
1842 1841
2189 2190
859 860
373 374
2667 2666
1421 1422
268 267
569 568
2205 2204
2040 2041
2400 2401
2660 2659
89 88
355 354
1110 1111
79 78
2059 2060
781 780
1124 1125
63 62
1460 1461
138 139
1283 1282
1909 1910
2549 2548
2519 2518
1522 1523
427 428
1340 1339
1004 1003
1699 1700
628 627
2771 2770
1736 1737
1065 1066
999 1000
1106 1107
2782 2783
1411 1410
2145 2146
13 14
1789 1790
788 789
1130 1129
1123 1122
1864 1863
389 390
116 115
2065 2066
466 467
2437 2436
2013 2012
2621 2622
1991 1992
2100 2101
1047 1048
1895 1896
2458 2459
2282 2283
1784 1783
2407 2408
1294 1293
1656 1657
1683 1684
1933 1932
649 650
869 870
1059 1060
2817 2818
663 662
1376 1377
1197 1198
990 991
2445 2444
101 100
1741 1742
1488 1487
813 814
1816 1815
1540 1539
932 931
252 253
2638 2637
744 745
1146 1145
1621 1620
1722 1723
2164 2165
407 408
2383 2384
2582 2581
2239 2238
2439 2438
2015 2014
2678 2679
2393 2394
954 955
2268 2269
986 987
2432 2431
1098 1099
2191 2190
1924 1925
460 459
2160 2161
2711 2712
169 170
2486 2485
2442 2443
137 136
138 137
2672 2671
494 493
891 892
578 579
239 238
2831 2832
336 337
1330 1329
2143 2144
1563 1564
2479 2480
330 331
527 526
348 347
1886 1887
1433 1434
432 433
2777 2776
1238 1239
2311 2312
647 646
2583 2582
2400 2399
1100 1099
2223 2224
1602 1603
1086 1087
164 165
2682 2681
1513 1514
457 456
2061 2060
217 218
1463 1464
1302 1301
2232 2233
1076 1077
242 243
2141 2140
1785 1786
1291 1292
1017 1016
1325 1326
552 553
2330 2329
1430 1431
2259 2260
1694 1695
2302 2303
2034 2033
1866 1865
2302 2301
2196 2195
1842 1843
870 871
105 106
398 397
2077 2078
2453 2454
903 904
2714 2713
665 666
2792 2791
2147 2148
2663 2664
943 944
2152 2151
1104 1105
1995 1996
1718 1719
227 226
830 829
2819 2820
1449 1450
1834 1833
2126 2127
626 625
2323 2322
380 381
1318 1317
236 237
976 975
424 425
2409 2410
2825 2824
273 272
1195 1194
525 526
1892 1891
1373 1374
2301 2300
1297 1298
2121 2120
2391 2392
720 719
151 150
33 34
2137 2136
1704 1703
1073 1072
35 34
1303 1302
2632 2631
781 782
951 950
739 740
2388 2389
1062 1061
1056 1055
2201 2202
2189 2188
1661 1662
450 449
2493 2492
1820 1821
298 299
1520 1519
263 264
2003 2004
1669 1670
591 590
2094 2095
1387 1388
2136 2135
1493 1492
1896 1897
699 700
2815 2816
364 365
1264 1263
481 482
2388 2387
546 547
2447 2446
2408 2409
641 640
651 650
2054 2053
165 166
765 764
929 928
233 232
2812 2811
536 537
215 216
1445 1446
1633 1632
1793 1792
2614 2615
2253 2254
1755 1754
257 258
547 548
2699 2700
2611 2612
1268 1267
2001 2000
231 232
2203 2204
1994 1993
2390 2389
2587 2586
658 657
1166 1165
1076 1075
838 837
1261 1262
1933 1934
1667 1668
324 323
707 708
1140 1139
1314 1315
893 892
2172 2173
726 725
1362 1361
1709 1708
1245 1246
2106 2105
2521 2522
2062 2063
203 204
1065 1064
141 140
2396 2395
2756 2755
525 524
1328 1329
1066 1067
417 416
410 411
2371 2370
1586 1587
873 874
586 585
2275 2276
959 960
1462 1463
1451 1452
1167 1166
2406 2407
1184 1183
1435 1434
1153 1152
1227 1226
255 256
955 956
353 354
111 112
1022 1021
1181 1180
1474 1475
1915 1914
854 853
1745 1746
133 132
1902 1901
471 472
2099 2098
2525 2524
1484 1483
2534 2535
1963 1962
1337 1336
2327 2326
1657 1658
1383 1382
2823 2822
2005 2004
759 760
1154 1155
1856 1855
167 168
2336 2337
211 210
2617 2618
401 402
1659 1660
1939 1938
2043 2042
2306 2305
2056 2055
1551 1550
510 511
210 209
1579 1578
1116 1115
1465 1466
1188 1189
2633 2632
2343 2344
244 245
1372 1373
2664 2665
1281 1280
752 751
538 539
925 926
939 938
2470 2469
1191 1192
1927 1928
524 523
948 949
83 82
2495 2496
1452 1453
1536 1537
506 507
2511 2512
464 463
897 896
2066 2067
1082 1081
2752 2751
2477 2476
2297 2298
1286 1285
502 501
832 831
1988 1989
2803 2804
2167 2168
2708 2707
1238 1237
2593 2592
1471 1470
1230 1229
1372 1371
186 185
1836 1837
2659 2658
2074 2073
890 889
695 694
322 323
73 72
195 196
2293 2292
2720 2719
2179 2180
702 703
1113 1114
2059 2058
1410 1409
1173 1172
1529 1528
678 679
1333 1334
1109 1110
1236 1235
1231 1232
2292 2291
1494 1493
549 550
2158 2157
580 581
1074 1075
4 5
2379 2380
2341 2342
1512 1511
470 471
2307 2308
669 670
2441 2440
1996 1997
2011 2012
2690 2691
1403 1404
1049 1048
2552 2553
2552 2551
937 936
1544 1543
876 877
511 512
2612 2613
2387 2386
2355 2354
2685 2684
2242 2243
2366 2367
1972 1971
2046 2045
1617 1616
2382 2381
1427 1426
1581 1580
2550 2549
2344 2345
1330 1331
1818 1819
1548 1547
974 975
1776 1775
534 535
920 921
1816 1817
2377 2376
2742 2743
72 71
2241 2240
1651 1650
1778 1779
730 729
1159 1158
994 993
1948 1949
372 371
52 51
1391 1392
2546 2547
96 95
634 635
1429 1428
1350 1349
1224 1225
665 664
1668 1669
2111 2110
352 353
574 573
171 172
1046 1047
649 648
839 838
738 737
2134 2133
288 289
931 930
1053 1054
452 453
2812 2813
2732 2733
1097 1096
475 474
841 842
2402 2401
1628 1627
2680 2679
2313 2312
1114 1115
1788 1787
485 486
1960 1959
656 657
1721 1720
858 857
1518 1519
1094 1093
2 3
2329 2328
1958 1959
2567 2566
362 361
1199 1198
2314 2315
780 779
2200 2201
1358 1357
2028 2027
1399 1400
940 939
1259 1258
606 605
884 883
1160 1159
44 45
1724 1725
1772 1771
2335 2334
2099 2100
2308 2309
900 899
817 816
1026 1027
2064 2063
1867 1868
2545 2544
2814 2815
1919 1920
1088 1087
822 823
1310 1311
1459 1458
124 123
1872 1871
2404 2403
2031 2032
899 898
99 98
549 548
1272 1271
983 982
2480 2481
1289 1290
614 613
775 776
2653 2654
1965 1966
941 940
1610 1611
2002 2003
2348 2349
2460 2461
2834 2835
1624 1625
1204 1203
1083 1082
1306 1307
1508 1507
2834 2833
1194 1193
1460 1459
1164 1163
1904 1903
1548 1549
622 621
1326 1327
1608 1609
2559 2558
1323 1322
368 369
134 133
1652 1651
1456 1455
1812 1813
2804 2805
2331 2330
2763 2762
1304 1305
2237 2236
2467 2468
1887 1888
850 851
1766 1765
1187 1188
1399 1398
1769 1770
295 296
2529 2530
2380 2381
1375 1376
1814 1813
617 618
81 80
1786 1787
872 873
907 906
1760 1761
1264 1265
229 230
1753 1754
1137 1136
1773 1774
28 29
1961 1960
1085 1086
7 6
131 132
2335 2336
772 773
884 885
403 404
2595 2596
2461 2462
1089 1090
401 400
2572 2571
1629 1628
1209 1208
389 388
845 844
1915 1916
1001 1000
357 356
2396 2397
667 666
893 894
895 896
1262 1263
2237 2238
568 567
2172 2171
2219 2220
2212 2213
1430 1429
1707 1706
1768 1769
1748 1747
1916 1917
1515 1516
395 394
100 99
1272 1273
1666 1665
465 466
61 60
1539 1538
1858 1859
2345 2346
1821 1822
877 878
1739 1740
2587 2588
2774 2773
404 405
2346 2347
1016 1015
739 738
2353 2352
1187 1186
1702 1701
2500 2499
275 274
852 851
2655 2656
972 971
2055 2054
2287 2288
2071 2070
1676 1675
1744 1745
182 183
711 710
1233 1234
2473 2474
135 134
260 259
1019 1018
1838 1839
1297 1296
1178 1179
2132 2133
280 279
1804 1805
1325 1324
2649 2650
934 935
1168 1169
652 651
1151 1150
150 149
1980 1979
674 673
968 969
1116 1117
238 237
254 253
783 782
946 945
1492 1491
1794 1793
1365 1364
74 75
2592 2591
918 917
1582 1581
2218 2219
2305 2304
1566 1565
338 339
236 235
2157 2156
543 542
370 369
2531 2530
2385 2384
794 795
823 824
337 338
1551 1552
2086 2087
830 831
684 685
2516 2517
930 929
803 804
2347 2348
1439 1438
1665 1664
1752 1753
109 108
2272 2271
1957 1956
11 12
2723 2724
2199 2200
1644 1645
2091 2092
2412 2413
1825 1824
1240 1241
1147 1146
1697 1696
441 440
1855 1854
286 285
953 954
1932 1931
656 655
64 63
1359 1360
2573 2572
2068 2067
2473 2472
1254 1253
421 420
440 439
1038 1037
2642 2643
2413 2414
2667 2668
2116 2117
2768 2767
2829 2828
2644 2645
317 316
1081 1080
2670 2671
587 588
1221 1220
1999 1998
1059 1058
2016 2017
2082 2081
2376 2375
552 551
2605 2604
2420 2421
1731 1732
2058 2057
2522 2523
454 453
304 305
2295 2296
409 410
1707 1708
2420 2419
1706 1705
1882 1883
2159 2158
1571 1572
332 331
1701 1700
763 762
2425 2426
2778 2777
1571 1570
508 507
387 388
805 806
1478 1477
579 580
444 443
2526 2525
290 289
1730 1731
1576 1575
103 104
2790 2789
1902 1903
1865 1864
224 225
497 498
2628 2629
1658 1659
198 197
45 46
736 737
2602 2603
921 922
1407 1408
2024 2025
1484 1485
1171 1170
452 451
2028 2029
114 115
1716 1715
1781 1782
588 589
2196 2197
91 90
2725 2724
1363 1364
107 106
52 53
91 92
1240 1239
868 869
1517 1516
1714 1713
1132 1131
2161 2162
928 927
792 791
920 919
1726 1725
1290 1291
2550 2551
2545 2546
1254 1255
775 774
2767 2766
1482 1481
1212 1213
2456 2455
1092 1093
1680 1681
2142 2143
2224 2225
2274 2273
690 691
989 988
2169 2170
1918 1919
890 891
1990 1989
1506 1507
1142 1141
491 490
120 119
1703 1702
2139 2138
2627 2626
1894 1893
966 967
1313 1314
1425 1426
2717 2716
1184 1185
1378 1379
644 643
110 111
30 31
2805 2806
1160 1161
2689 2690
2405 2404
2160 2159
125 124
1663 1664
1367 1366
1144 1143
186 187
1510 1509
692 693
2036 2037
599 600
363 362
1923 1922
860 861
1523 1524
1496 1497
582 581
2463 2462
553 554
913 912
344 345
481 480
1199 1200
1063 1064
1343 1344
262 263
1394 1395
126 127
2597 2598
712 713
879 878
631 630
1386 1387
2539 2538
909 910
1190 1189
1633 1634
664 663
1315 1316
1469 1470
1442 1443
659 658
261 262
426 425
2576 2577
1801 1802
539 540
1333 1332
1640 1639
584 583
1850 1849
177 178
1614 1613
1129 1128
1972 1973
1431 1432
1342 1341
455 454
1039 1040
1011 1010
1348 1349
2184 2185
2281 2282
