291
0 0 0 0 1 0 0 1 1 0 1 1 1 0 1 1 1 0 1 0 0 0 0 1 0 1 0 0 0 1 0 1 1 0 0 1 0 0 0 0 0 0 1 1 1 1 1 0 1 1 1 0 0 0 1 0 0 1 1 1 0 1 1 0 0 1 0 1 1 1 0 1 1 1 0 1 1 0 1 1 0 1 1 0 0 0 1 1 1 0 1 1 1 0 0 1 0 0 0 1 0 0 0 1 0 1 1 0 1 0 1 1 0 0 0 1 0 0 1 1 0 1 1 0 0 0 0 0 0 0 1 0 1 0 1 1 0 1 0 1 0 0 0 1 1 0 1 0 0 1 1 0 1 1 1 1 0 0 0 1 1 1 0 0 0 1 0 0 1 0 0 1 0 1 0 1 0 1 0 0 1 1 1 1 1 1 0 1 1 1 0 1 1 1 0 1 0 1 1 1 1 0 0 0 0 0 1 1 0 0 1 0 1 1 0 0 1 0 0 0 0 0 1 0 1 1 1 0 1 1 0 0 1 0 0 1 1 0 0 1 1 1 1 1 1 1 0 1 0 0 0 1 0 0 1 0 1 1 0 1 0 0 1 0 0 1 0 1 0 1 0 1 0 0 0 1 1 1 1 1 1 0 1 1 0 1 0 0 0 0 0
22 56
229 91
7 17
239 95
55 136
111 279
51 21
90 225
86 34
227 90
36 90
205 82
54 134
189 76
94 38
8 19
37 93
195 78
110 45
199 80
70 172
58 23
106 264
208 83
2 4
144 58
87 35
135 55
216 86
289 115
108 269
141 57
80 32
8 3
19 46
260 104
163 66
71 175
36 15
54 133
107 267
57 23
57 140
100 41
262 105
88 35
69 170
72 177
220 88
89 224
156 63
138 56
12 31
280 111
153 62
236 94
59 23
49 20
154 62
58 145
36 91
93 235
33 83
10 26
192 77
185 75
7 18
81 32
114 288
92 37
47 115
27 67
161 65
118 48
255 102
82 203
102 42
72 29
112 282
181 73
64 157
97 244
13 32
25 63
16 6
99 248
88 221
51 127
212 85
290 115
84 34
65 162
94 237
39 96
39 97
13 5
232 92
275 110
204 82
100 251
196 79
106 266
103 258
100 252
18 45
137 55
75 184
99 249
43 106
27 11
64 158
168 68
198 80
25 10
24 60
272 109
61 151
119 48
228 91
46 113
160 65
150 61
25 64
60 149
101 254
109 273
87 219
10 24
12 30
117 48
64 159
15 37
76 188
108 271
78 193
243 96
194 78
167 68
93 233
284 113
20 50
23 9
22 54
253 101
52 130
113 283
42 17
242 96
210 84
27 68
56 139
126 51
183 74
3 1
202 81
60 148
66 26
41 17
115 291
287 114
55 22
72 178
124 50
28 11
34 85
48 20
69 28
186 75
223 89
200 80
105 263
52 128
66 164
16 39
77 191
52 21
107 268
31 78
14 35
146 59
11 29
87 218
35 89
52 129
98 246
112 281
83 207
44 18
4 10
76 187
165 67
169 68
43 18
9 22
286 114
180 73
90 226
99 40
33 82
3 7
256 102
277 110
86 215
83 206
13 33
240 95
70 173
122 49
4 9
197 79
25 62
15 6
230 91
85 213
74 30
201 81
86 214
114 47
211 85
42 103
103 257
16 40
53 21
26 65
278 111
34 14
113 285
46 112
42 104
241 96
107 44
28 71
166 67
70 28
72 179
123 50
46 111
265 106
20 8
44 108
5 2
63 155
53 132
32 79
38 16
5 14
98 40
24 61
43 105
120 49
245 97
131 53
93 234
58 143
77 31
209 84
95 38
152 61
70 174
274 109
30 75
29 73
270 108
8 21
71 176
103 259
74 182
110 276
190 77
101 41
57 142
50 125
69 171
12 5
47 19
100 250
217 87
92 231
11 4
247 98
59 147
30 76
261 104
95 238
45 109
1 2
222 89
116 47
2 6
49 121
