1072
1 0 0 0 0 0 1 0 1 1 1 1 1 1 0 1 0 1 0 0 1 1 0 1 1 1 0 0 0 0 0 1 1 0 0 0 0 1 1 1 1 0 1 0 1 1 1 0 1 1 0 0 1 0 1 1 0 0 1 0 1 1 1 0 1 1 1 0 0 0 1 0 1 0 1 0 1 1 0 0 1 1 1 1 1 1 0 1 0 1 1 0 1 1 1 1 0 0 0 0 0 1 1 1 0 0 0 0 1 1 0 0 1 0 0 1 1 0 0 0 0 1 1 1 0 0 0 0 0 1 1 1 0 0 1 0 1 0 0 0 1 0 1 1 1 1 1 1 1 0 1 1 1 1 0 1 1 1 1 1 1 0 0 0 0 0 1 1 1 0 1 0 1 0 1 0 0 0 1 1 0 1 0 0 1 0 1 0 1 0 0 1 1 0 1 0 0 1 0 1 1 1 0 0 1 1 0 1 0 0 1 0 1 1 0 1 1 1 1 0 1 1 0 0 1 1 1 1 0 1 1 1 0 1 0 0 1 0 0 0 0 0 0 1 1 1 0 1 0 0 1 0 0 0 0 0 0 0 0 1 1 0 1 1 0 0 0 1 1 0 1 1 0 1 0 0 1 0 1 0 1 1 1 0 0 1 0 1 1 0 0 0 1 1 0 0 1 1 0 0 1 1 0 1 1 1 1 0 0 1 1 0 0 0 0 1 1 1 0 0 1 1 0 0 0 1 1 0 1 0 1 0 0 1 1 0 1 1 1 0 0 0 0 0 1 1 0 0 0 1 0 0 1 1 1 0 1 1 1 0 0 1 0 0 1 0 1 1 0 0 1 0 1 0 0 1 1 0 1 0 0 1 1 0 0 0 0 1 1 1 1 0 0 0 0 0 1 1 1 0 1 1 0 0 1 0 1 0 0 0 1 0 0 0 0 0 0 0 1 1 0 0 0 0 0 0 0 0 1 1 0 0 1 0 0 0 1 0 0 1 1 1 0 0 1 1 0 0 1 1 1 1 0 0 1 1 0 1 0 0 1 1 0 0 1 1 0 0 1 0 1 1 1 1 1 1 0 1 1 0 1 1 0 0 1 0 0 1 0 1 1 0 1 0 1 1 1 1 0 1 0 0 0 0 0 1 0 0 1 0 1 0 1 0 1 1 0 0 1 0 0 0 0 1 1 1 1 1 1 0 0 0 0 0 1 1 1 1 0 1 1 0 1 1 1 1 0 0 1 1 1 1 0 0 0 1 1 1 1 1 0 1 1 0 0 0 1 0 1 1 1 0 1 0 1 1 0 0 1 1 1 1 0 1 0 1 0 1 0 1 1 1 0 0 1 1 1 0 1 0 0 1 1 1 0 1 0 0 1 0 0 0 0 0 0 0 0 1 0 0 0 0 0 0 1 1 1 1 0 1 0 1 1 0 1 1 1 1 1 1 0 0 0 0 1 0 1 1 1 0 0 1 1 1 0 1 0 1 0 0 1 0 1 0 0 1 0 0 1 0 0 0 1 0 0 1 1 1 1 1 0 1 1 1 0 1 1 1 0 1 0 0 0 0 0 0 1 0 1 0 0 1 1 1 1 0 1 0 1 0 0 0 0 1 0 0 1 1 0 0 1 1 0 1 0 0 1 0 1 1 1 0 1 0 0 0 1 0 1 1 1 0 1 1 1 0 0 1 1 1 0 1 0 1 1 1 0 0 0 1 0 0 0 1 1 0 0 0 0 0 1 0 0 1 1 0 0 1 1 0 1 0 0 0 0 0 0 1 1 0 0 0 0 1 1 0 0 0 1 1 0 1 0 1 0 1 0 1 1 0 0 0 1 1 1 0 0 0 0 1 0 0 0 0 0 0 0 1 1 0 0 1 0 1 0 1 1 1 0 1 0 0 1 1 1 1 0 1 1 1 1 0 1 1 0 1 0 0 0 1 1 0 1 0 0 1 0 0 0 1 1 1 0 0 1 0 0 0 1 1 0 1 1 0 0 0 1 1 1 0 1 1 1 1 1 1 1 0 0 0 0 0 0 0 0 1 1 0 0 0 0 1 1 1 0 0 1 0 0 1 0 1 1 1 0 1 0 0 1 0 0 0 1 0 1 0 0 0 0 0 1 1 0 0 1 0 0 0 0 0 1 0 1 1 0 1 1 0 1 0 0 1 1 0 1 0 0 0 1 0 1 1 0 1 0 0 1 0 1 1 0 1 1 0 1 1 1 1 0 0 1 0 0 0 1 1 1 0 0 0 0 1 1 0 0 1 0 1 0 1 0 1 1 1 1 0 1 0 1 1 0 1 0 1 0 0 0 1 1 1 0 1 0 0 1 1 1 1 0 0 0 1 1 1 1 1 0 1 0 1 1 1 0 1 0 1 1 1 0 1 1 0 1 1 0 1 0 1 0 1 1 0
332 665
964 482
480 961
146 73
287 143
56 113
358 717
177 88
506 1012
307 153
858 429
362 724
82 164
467 934
431 863
139 69
232 464
890 445
139 279
859 429
901 450
461 230
631 315
527 1054
413 206
191 383
224 448
758 379
332 664
215 107
57 114
940 470
268 537
95 47
751 375
395 791
146 292
370 741
479 958
359 718
500 1001
63 31
123 246
46 93
137 274
638 319
91 45
963 481
657 328
625 312
215 430
248 124
292 585
324 648
419 209
129 259
48 24
855 427
461 922
89 178
740 370
68 136
385 771
1055 527
787 393
60 121
399 798
573 286
443 886
1061 530
168 336
761 380
336 673
508 1016
39 19
828 414
805 402
46 23
427 854
1029 514
383 767
618 309
755 377
22 45
335 167
341 170
962 481
249 498
56 28
491 245
862 431
95 191
205 102
440 880
64 32
607 303
206 412
366 732
338 676
269 134
379 759
494 989
887 443
346 693
374 749
455 227
462 924
1053 526
681 340
944 472
415 207
7 15
860 430
159 79
558 279
348 697
252 126
406 813
190 95
38 77
251 502
1048 524
375 750
598 299
100 50
349 698
563 281
457 915
244 122
308 154
250 501
42 84
997 498
967 483
245 122
237 474
512 256
442 885
368 184
519 1039
367 183
362 181
441 220
462 231
619 309
512 1025
727 363
266 133
992 496
172 345
872 436
548 274
54 109
906 453
106 213
103 207
169 84
87 174
393 196
818 409
70 35
382 765
64 129
925 462
454 908
390 195
173 86
258 517
683 341
137 68
104 52
511 255
941 470
893 446
186 372
204 409
433 866
201 402
451 902
71 35
592 296
128 257
905 452
347 694
154 77
504 1009
249 499
865 432
819 409
516 258
337 674
1042 521
242 121
387 775
85 42
38 76
412 824
84 168
231 463
708 354
90 181
315 630
216 432
736 368
917 458
518 259
283 567
161 323
513 1026
390 780
604 302
348 174
556 278
574 287
270 540
117 58
175 351
86 172
57 115
40 80
672 336
67 135
179 358
300 600
738 369
199 399
840 420
311 155
999 499
118 237
544 272
452 904
912 456
241 120
18 37
980 490
337 168
511 1022
473 946
114 228
509 1018
333 667
121 243
116 232
437 218
127 255
120 240
264 529
502 1004
248 497
249 124
155 77
320 160
344 688
616 308
238 477
898 449
81 163
769 384
257 514
269 538
21 10
221 110
29 14
365 730
316 633
945 472
853 426
305 152
1045 522
100 201
301 150
397 198
530 1060
774 387
713 356
404 808
127 63
991 495
397 794
790 395
1038 519
79 39
586 293
704 352
408 816
503 1006
457 914
423 846
8 16
116 58
200 400
154 309
535 1071
457 228
237 475
476 953
65 131
533 1067
320 640
104 209
217 434
170 85
30 60
108 217
184 92
748 374
235 117
404 809
903 451
414 207
110 220
531 265
247 495
101 203
38 19
892 446
286 572
318 637
262 525
875 437
165 331
601 300
213 427
986 493
403 807
374 187
797 398
21 42
788 394
161 80
235 470
696 348
436 218
382 764
82 165
12 24
781 390
295 590
546 273
581 290
428 856
280 561
419 839
370 185
380 190
210 420
507 253
983 491
6 13
253 126
10 20
916 458
642 321
170 340
195 97
524 1049
345 691
192 385
584 292
511 1023
417 208
228 456
135 271
1044 522
663 331
1068 534
203 406
49 98
276 138
291 145
278 139
843 421
236 472
1021 510
306 613
260 521
185 92
479 959
353 706
356 712
331 662
65 130
923 461
881 440
317 635
467 935
305 611
942 471
89 44
174 349
753 376
317 634
929 464
267 133
509 1019
369 739
366 183
448 896
256 513
407 814
144 72
660 330
212 425
366 733
11 5
597 298
244 489
868 434
545 272
899 449
302 605
423 847
493 246
199 99
473 236
442 884
520 1040
392 196
327 163
492 985
280 560
530 265
7 3
284 142
304 609
779 389
318 636
960 480
34 68
12 6
342 171
528 264
520 1041
795 397
236 118
328 656
536 1072
575 287
432 864
870 435
384 192
373 186
873 436
381 762
565 282
23 47
426 213
849 424
48 97
61 30
284 569
1028 514
112 225
62 31
49 24
433 867
148 297
13 27
82 41
334 668
792 396
988 494
838 419
615 307
725 362
503 1007
415 831
180 360
105 211
401 803
138 69
628 314
747 373
189 379
528 1057
157 78
388 777
233 466
116 233
252 504
444 222
91 182
75 37
194 388
74 149
947 473
889 444
919 459
891 445
131 263
526 263
760 380
800 400
270 541
440 220
383 766
79 158
533 266
655 327
931 465
164 328
447 894
408 204
20 41
125 62
94 188
588 294
376 752
823 411
377 188
670 335
2 5
428 857
784 392
978 489
434 869
488 977
486 972
267 534
321 643
229 114
459 229
355 177
176 88
311 622
799 399
675 337
239 119
487 975
343 171
25 51
66 33
455 910
477 955
453 226
363 181
225 451
448 897
94 47
982 491
184 369
216 433
234 468
43 21
260 520
35 17
401 200
113 226
187 375
490 245
111 222
463 926
1010 505
469 234
151 75
59 119
593 296
263 527
716 358
456 913
734 367
1065 532
132 66
1052 526
428 214
212 106
475 951
166 333
301 602
280 140
460 921
417 834
278 557
39 78
271 543
452 226
507 1015
928 464
360 721
927 463
129 258
406 812
81 40
59 118
425 850
313 626
551 275
500 250
295 591
343 686
652 326
485 971
180 90
350 175
26 53
3 6
123 247
103 51
9 19
182 365
162 81
596 298
151 303
476 952
324 162
517 1035
357 714
804 402
832 416
425 851
610 305
72 36
841 420
496 993
136 273
78 156
32 16
262 131
417 835
783 391
387 193
9 4
833 416
193 386
793 396
654 327
450 900
137 275
414 829
291 583
277 138
243 486
332 166
272 136
239 478
612 306
28 14
1032 516
498 996
459 918
256 128
441 882
283 566
25 50
290 580
486 973
731 365
225 450
150 300
603 301
33 67
18 36
542 271
277 554
378 189
532 266
357 715
726 363
589 294
221 443
284 568
1027 513
173 347
254 127
329 164
158 317
772 386
9 18
728 364
232 465
106 53
411 822
1000 500
476 238
465 930
469 938
146 293
666 333
477 954
54 108
373 746
132 265
316 158
359 179
241 482
745 372
352 705
768 384
142 285
330 661
313 156
517 1034
276 552
198 99
117 234
503 251
871 435
44 22
55 27
254 509
578 289
192 96
355 711
699 349
49 99
364 729
26 52
85 171
61 123
483 241
94 189
319 159
533 1066
516 1033
41 83
323 646
223 446
13 26
429 214
40 20
74 148
344 689
468 936
445 222
485 970
361 722
93 186
185 371
845 422
308 617
325 651
218 109
531 1063
421 210
678 339
304 152
83 167
15 30
86 43
89 179
177 354
102 51
70 140
314 629
165 330
153 306
1059 529
825 412
204 102
125 250
156 312
352 176
418 209
571 285
1070 535
126 63
984 492
32 65
742 371
507 1014
283 141
351 703
394 789
141 70
206 103
14 7
411 205
979 489
570 285
96 48
359 719
223 447
66 133
802 401
257 515
404 202
416 208
11 22
29 58
474 949
230 115
255 510
17 8
1036 518
817 408
403 201
281 562
837 418
219 109
52 105
1037 518
53 107
836 418
145 290
303 606
398 796
521 1043
522 261
394 197
310 621
101 202
112 56
876 438
210 105
398 199
80 160
956 478
353 176
61 122
743 371
325 650
377 754
195 391
147 295
157 315
469 939
920 460
134 268
528 1056
1003 501
933 466
878 439
495 990
312 624
246 492
302 151
345 690
430 861
288 144
658 329
488 976
141 282
844 422
203 407
475 950
1031 515
149 299
400 801
193 96
512 1024
550 275
826 413
356 178
827 413
480 240
342 685
647 323
297 594
347 695
260 130
338 677
877 438
227 454
190 381
403 806
553 276
474 948
547 273
142 71
487 974
37 74
579 289
535 267
351 702
1011 505
46 92
883 441
72 145
194 389
460 230
388 776
482 965
426 852
653 326
223 111
437 874
144 289
216 108
227 113
254 508
423 211
60 120
483 966
11 23
410 820
350 701
76 152
28 57
264 132
34 17
1005 502
73 36
407 815
576 288
62 124
242 485
90 45
782 391
180 361
261 523
424 848
163 326
334 669
995 497
279 559
54 27
455 911
196 98
501 1002
233 467
368 737
200 100
1030 515
110 55
505 252
1008 504
107 214
229 458
484 242
757 378
932 466
1 3
353 707
405 811
91 183
339 169
198 396
251 125
710 355
645 322
259 519
595 297
33 16
172 344
346 692
943 471
346 173
205 410
31 15
549 274
449 224
720 360
69 34
261 130
161 322
231 115
93 187
372 744
294 147
243 487
191 382
1050 525
4 2
281 140
357 178
410 821
150 75
770 385
5 10
439 879
340 680
431 215
490 981
334 167
238 119
304 608
166 83
50 101
59 29
493 987
671 335
454 909
307 614
684 342
341 682
627 313
73 147
438 219
354 709
221 442
389 778
98 197
447 895
217 435
310 620
153 76
842 421
957 478
488 244
525 1051
539 269
67 134
240 481
1064 532
405 810
97 194
343 687
296 148
329 659
143 286
104 208
282 564
969 484
599 299
529 1058
219 439
248 496
499 998
361 723
310 155
320 641
262 524
506 253
395 197
393 786
424 212
159 318
508 1017
270 135
494 247
555 277
211 422
392 785
88 44
319 639
376 188
112 224
325 162
8 4
160 321
968 484
169 338
350 700
468 937
453 907
386 773
235 471
311 623
523 1047
157 314
87 175
111 55
763 381
128 64
506 1013
324 649
888 444
378 756
415 830
679 339
510 1020
293 587
71 143
202 405
497 994
632 316
536 268
322 644
1069 534
182 364
43 87
735 367
2 1
12 25
298 149
1062 531
288 577
239 479
291 582
523 1046
