111
1 1 0 0 1 0 1 1 0 1 1 1 1 1 1 0 0 0 0 0 1 1 0 1 0 1 0 0 1 1 1 0 1 1 0 1 0 0 0 0 1 0 0 0 1 1 1 0 0 0 0 1 1 1 1 0 1 0 0 0 0 1 0 0 0 1 0 1 1 1 0 1 0 1 1 0 1 1 0 0 0 0 0 0 0 1 0 0 0 0 0 1 1 1 0 1 0 1 0 1 0 0 1 1 1 0 0 1 1 1 1
17 16
25 84
46 45
16 70
28 29
102 44
43 101
110 48
24 23
12 64
13 14
87 30
32 33
17 18
96 39
27 26
20 76
24 82
34 33
42 98
91 34
12 13
106 46
43 100
31 89
71 17
78 21
58 6
43 42
37 38
92 37
48 49
23 22
85 27
14 15
111 49
50 49
11 10
41 42
107 47
62 9
28 27
38 93
4 3
23 80
68 14
55 54
51 52
20 21
31 32
16 15
5 6
40 41
10 9
45 105
29 30
86 28
25 26
9 8
65 12
7 6
67 13
50 51
63 10
44 43
94 38
18 74
3 2
17 72
35 34
7 8
44 103
22 21
13 66
36 35
20 19
25 83
2 1
31 88
77 21
48 47
38 39
44 45
90 34
47 46
79 23
30 31
40 39
39 95
57 4
48 109
81 24
69 16
60 8
12 11
61 9
4 5
37 36
73 18
104 45
41 97
75 20
25 24
1 56
19 18
53 54
52 53
108 47
7 59
99 42
